# vtk DataFile Version 1.0
2D Unstructured Grid of Linear Triangles
ASCII

DATASET UNSTRUCTURED_GRID
POINTS 6144 float
0.03125 0.03125 0
0 0.0625 0
0 0 0
0.015625 0.046875 0
0 0.03125 0
0.015625 0.015625 0
0.03125 0.03125 0
0.0625 0.0625 0
0 0.0625 0
0.046875 0.046875 0
0.03125 0.0625 0
0.015625 0.046875 0
0.03125 0.03125 0
0 0 0
0.0625 0 0
0.015625 0.015625 0
0.03125 0 0
0.046875 0.015625 0
0.03125 0.03125 0
0.0625 0 0
0.0625 0.0625 0
0.046875 0.015625 0
0.0625 0.03125 0
0.046875 0.046875 0
0.03125 0.09375 0
0 0.125 0
0 0.0625 0
0.015625 0.109375 0
0 0.09375 0
0.015625 0.078125 0
0.03125 0.09375 0
0 0.0625 0
0.0625 0.0625 0
0.015625 0.078125 0
0.03125 0.0625 0
0.046875 0.078125 0
0.03125 0.09375 0
0.0625 0.125 0
0 0.125 0
0.046875 0.109375 0
0.03125 0.125 0
0.015625 0.109375 0
0.03125 0.09375 0
0.0625 0.0625 0
0.0625 0.125 0
0.046875 0.078125 0
0.0625 0.09375 0
0.046875 0.109375 0
0.09375 0.09375 0
0.125 0.125 0
0.0625 0.125 0
0.109375 0.109375 0
0.09375 0.125 0
0.078125 0.109375 0
0.09375 0.09375 0
0.0625 0.125 0
0.0625 0.0625 0
0.078125 0.109375 0
0.0625 0.09375 0
0.078125 0.078125 0
0.09375 0.09375 0
0.125 0.0625 0
0.125 0.125 0
0.109375 0.078125 0
0.125 0.09375 0
0.109375 0.109375 0
0.09375 0.09375 0
0.0625 0.0625 0
0.125 0.0625 0
0.078125 0.078125 0
0.09375 0.0625 0
0.109375 0.078125 0
0.09375 0.15625 0
0.0625 0.125 0
0.125 0.125 0
0.078125 0.140625 0
0.09375 0.125 0
0.109375 0.140625 0
0.09375 0.15625 0
0.0625 0.1875 0
0.0625 0.125 0
0.078125 0.171875 0
0.0625 0.15625 0
0.078125 0.140625 0
0.09375 0.15625 0
0.125 0.125 0
0.125 0.1875 0
0.109375 0.140625 0
0.125 0.15625 0
0.109375 0.171875 0
0.09375 0.15625 0
0.125 0.1875 0
0.0625 0.1875 0
0.109375 0.171875 0
0.09375 0.1875 0
0.078125 0.171875 0
0.03125 0.15625 0
0 0.125 0
0.0625 0.125 0
0.015625 0.140625 0
0.03125 0.125 0
0.046875 0.140625 0
0.03125 0.15625 0
0.0625 0.125 0
0.0625 0.1875 0
0.046875 0.140625 0
0.0625 0.15625 0
0.046875 0.171875 0
0.03125 0.15625 0
0 0.1875 0
0 0.125 0
0.015625 0.171875 0
0 0.15625 0
0.015625 0.140625 0
0.03125 0.15625 0
0.0625 0.1875 0
0 0.1875 0
0.046875 0.171875 0
0.03125 0.1875 0
0.015625 0.171875 0
0.09375 0.03125 0
0.0625 0 0
0.125 0 0
0.078125 0.015625 0
0.09375 0 0
0.109375 0.015625 0
0.09375 0.03125 0
0.0625 0.0625 0
0.0625 0 0
0.078125 0.046875 0
0.0625 0.03125 0
0.078125 0.015625 0
0.09375 0.03125 0
0.125 0 0
0.125 0.0625 0
0.109375 0.015625 0
0.125 0.03125 0
0.109375 0.046875 0
0.09375 0.03125 0
0.125 0.0625 0
0.0625 0.0625 0
0.109375 0.046875 0
0.09375 0.0625 0
0.078125 0.046875 0
0.15625 0.09375 0
0.125 0.125 0
0.125 0.0625 0
0.140625 0.109375 0
0.125 0.09375 0
0.140625 0.078125 0
0.15625 0.09375 0
0.125 0.0625 0
0.1875 0.0625 0
0.140625 0.078125 0
0.15625 0.0625 0
0.171875 0.078125 0
0.15625 0.09375 0
0.1875 0.125 0
0.125 0.125 0
0.171875 0.109375 0
0.15625 0.125 0
0.140625 0.109375 0
0.15625 0.09375 0
0.1875 0.0625 0
0.1875 0.125 0
0.171875 0.078125 0
0.1875 0.09375 0
0.171875 0.109375 0
0.15625 0.03125 0
0.125 0.0625 0
0.125 0 0
0.140625 0.046875 0
0.125 0.03125 0
0.140625 0.015625 0
0.15625 0.03125 0
0.1875 0.0625 0
0.125 0.0625 0
0.171875 0.046875 0
0.15625 0.0625 0
0.140625 0.046875 0
0.15625 0.03125 0
0.125 0 0
0.1875 0 0
0.140625 0.015625 0
0.15625 0 0
0.171875 0.015625 0
0.15625 0.03125 0
0.1875 0 0
0.1875 0.0625 0
0.171875 0.015625 0
0.1875 0.03125 0
0.171875 0.046875 0
0.03125 0.21875 0
0 0.25 0
0 0.1875 0
0.015625 0.234375 0
0 0.21875 0
0.015625 0.203125 0
0.03125 0.21875 0
0 0.1875 0
0.0625 0.1875 0
0.015625 0.203125 0
0.03125 0.1875 0
0.046875 0.203125 0
0.03125 0.21875 0
0.0625 0.25 0
0 0.25 0
0.046875 0.234375 0
0.03125 0.25 0
0.015625 0.234375 0
0.03125 0.21875 0
0.0625 0.1875 0
0.0625 0.25 0
0.046875 0.203125 0
0.0625 0.21875 0
0.046875 0.234375 0
0.09375 0.21875 0
0.125 0.25 0
0.0625 0.25 0
0.109375 0.234375 0
0.09375 0.25 0
0.078125 0.234375 0
0.09375 0.21875 0
0.0625 0.25 0
0.0625 0.1875 0
0.078125 0.234375 0
0.0625 0.21875 0
0.078125 0.203125 0
0.09375 0.21875 0
0.125 0.1875 0
0.125 0.25 0
0.109375 0.203125 0
0.125 0.21875 0
0.109375 0.234375 0
0.09375 0.21875 0
0.0625 0.1875 0
0.125 0.1875 0
0.078125 0.203125 0
0.09375 0.1875 0
0.109375 0.203125 0
0.03125 0.28125 0
0 0.25 0
0.0625 0.25 0
0.015625 0.265625 0
0.03125 0.25 0
0.046875 0.265625 0
0.03125 0.28125 0
0.0625 0.25 0
0.0625 0.3125 0
0.046875 0.265625 0
0.0625 0.28125 0
0.046875 0.296875 0
0.03125 0.28125 0
0 0.3125 0
0 0.25 0
0.015625 0.296875 0
0 0.28125 0
0.015625 0.265625 0
0.03125 0.28125 0
0.0625 0.3125 0
0 0.3125 0
0.046875 0.296875 0
0.03125 0.3125 0
0.015625 0.296875 0
0.09375 0.28125 0
0.0625 0.25 0
0.125 0.25 0
0.078125 0.265625 0
0.09375 0.25 0
0.109375 0.265625 0
0.09375 0.28125 0
0.0625 0.3125 0
0.0625 0.25 0
0.078125 0.296875 0
0.0625 0.28125 0
0.078125 0.265625 0
0.09375 0.28125 0
0.125 0.25 0
0.125 0.3125 0
0.109375 0.265625 0
0.125 0.28125 0
0.109375 0.296875 0
0.09375 0.28125 0
0.125 0.3125 0
0.0625 0.3125 0
0.109375 0.296875 0
0.09375 0.3125 0
0.078125 0.296875 0
0.15625 0.15625 0
0.125 0.1875 0
0.125 0.125 0
0.140625 0.171875 0
0.125 0.15625 0
0.140625 0.140625 0
0.15625 0.15625 0
0.1875 0.1875 0
0.125 0.1875 0
0.171875 0.171875 0
0.15625 0.1875 0
0.140625 0.171875 0
0.15625 0.15625 0
0.125 0.125 0
0.1875 0.125 0
0.140625 0.140625 0
0.15625 0.125 0
0.171875 0.140625 0
0.15625 0.15625 0
0.1875 0.125 0
0.1875 0.1875 0
0.171875 0.140625 0
0.1875 0.15625 0
0.171875 0.171875 0
0.15625 0.21875 0
0.125 0.25 0
0.125 0.1875 0
0.140625 0.234375 0
0.125 0.21875 0
0.140625 0.203125 0
0.15625 0.21875 0
0.125 0.1875 0
0.1875 0.1875 0
0.140625 0.203125 0
0.15625 0.1875 0
0.171875 0.203125 0
0.15625 0.21875 0
0.1875 0.25 0
0.125 0.25 0
0.171875 0.234375 0
0.15625 0.25 0
0.140625 0.234375 0
0.15625 0.21875 0
0.1875 0.1875 0
0.1875 0.25 0
0.171875 0.203125 0
0.1875 0.21875 0
0.171875 0.234375 0
0.21875 0.21875 0
0.25 0.25 0
0.1875 0.25 0
0.234375 0.234375 0
0.21875 0.25 0
0.203125 0.234375 0
0.21875 0.21875 0
0.1875 0.25 0
0.1875 0.1875 0
0.203125 0.234375 0
0.1875 0.21875 0
0.203125 0.203125 0
0.21875 0.21875 0
0.25 0.1875 0
0.25 0.25 0
0.234375 0.203125 0
0.25 0.21875 0
0.234375 0.234375 0
0.21875 0.21875 0
0.1875 0.1875 0
0.25 0.1875 0
0.203125 0.203125 0
0.21875 0.1875 0
0.234375 0.203125 0
0.21875 0.28125 0
0.1875 0.25 0
0.25 0.25 0
0.203125 0.265625 0
0.21875 0.25 0
0.234375 0.265625 0
0.21875 0.28125 0
0.1875 0.3125 0
0.1875 0.25 0
0.203125 0.296875 0
0.1875 0.28125 0
0.203125 0.265625 0
0.21875 0.28125 0
0.25 0.25 0
0.25 0.3125 0
0.234375 0.265625 0
0.25 0.28125 0
0.234375 0.296875 0
0.21875 0.28125 0
0.25 0.3125 0
0.1875 0.3125 0
0.234375 0.296875 0
0.21875 0.3125 0
0.203125 0.296875 0
0.15625 0.28125 0
0.125 0.25 0
0.1875 0.25 0
0.140625 0.265625 0
0.15625 0.25 0
0.171875 0.265625 0
0.15625 0.28125 0
0.1875 0.25 0
0.1875 0.3125 0
0.171875 0.265625 0
0.1875 0.28125 0
0.171875 0.296875 0
0.15625 0.28125 0
0.125 0.3125 0
0.125 0.25 0
0.140625 0.296875 0
0.125 0.28125 0
0.140625 0.265625 0
0.15625 0.28125 0
0.1875 0.3125 0
0.125 0.3125 0
0.171875 0.296875 0
0.15625 0.3125 0
0.140625 0.296875 0
0.21875 0.15625 0
0.25 0.125 0
0.25 0.1875 0
0.234375 0.140625 0
0.25 0.15625 0
0.234375 0.171875 0
0.21875 0.15625 0
0.25 0.1875 0
0.1875 0.1875 0
0.234375 0.171875 0
0.21875 0.1875 0
0.203125 0.171875 0
0.21875 0.15625 0
0.1875 0.125 0
0.25 0.125 0
0.203125 0.140625 0
0.21875 0.125 0
0.234375 0.140625 0
0.21875 0.15625 0
0.1875 0.1875 0
0.1875 0.125 0
0.203125 0.171875 0
0.1875 0.15625 0
0.203125 0.140625 0
0.28125 0.21875 0
0.25 0.25 0
0.25 0.1875 0
0.265625 0.234375 0
0.25 0.21875 0
0.265625 0.203125 0
0.28125 0.21875 0
0.25 0.1875 0
0.3125 0.1875 0
0.265625 0.203125 0
0.28125 0.1875 0
0.296875 0.203125 0
0.28125 0.21875 0
0.3125 0.25 0
0.25 0.25 0
0.296875 0.234375 0
0.28125 0.25 0
0.265625 0.234375 0
0.28125 0.21875 0
0.3125 0.1875 0
0.3125 0.25 0
0.296875 0.203125 0
0.3125 0.21875 0
0.296875 0.234375 0
0.28125 0.15625 0
0.25 0.1875 0
0.25 0.125 0
0.265625 0.171875 0
0.25 0.15625 0
0.265625 0.140625 0
0.28125 0.15625 0
0.3125 0.1875 0
0.25 0.1875 0
0.296875 0.171875 0
0.28125 0.1875 0
0.265625 0.171875 0
0.28125 0.15625 0
0.25 0.125 0
0.3125 0.125 0
0.265625 0.140625 0
0.28125 0.125 0
0.296875 0.140625 0
0.28125 0.15625 0
0.3125 0.125 0
0.3125 0.1875 0
0.296875 0.140625 0
0.3125 0.15625 0
0.296875 0.171875 0
0.21875 0.09375 0
0.25 0.125 0
0.1875 0.125 0
0.234375 0.109375 0
0.21875 0.125 0
0.203125 0.109375 0
0.21875 0.09375 0
0.1875 0.125 0
0.1875 0.0625 0
0.203125 0.109375 0
0.1875 0.09375 0
0.203125 0.078125 0
0.21875 0.09375 0
0.25 0.0625 0
0.25 0.125 0
0.234375 0.078125 0
0.25 0.09375 0
0.234375 0.109375 0
0.21875 0.09375 0
0.1875 0.0625 0
0.25 0.0625 0
0.203125 0.078125 0
0.21875 0.0625 0
0.234375 0.078125 0
0.15625 0.34375 0
0.125 0.375 0
0.125 0.3125 0
0.140625 0.359375 0
0.125 0.34375 0
0.140625 0.328125 0
0.15625 0.34375 0
0.125 0.3125 0
0.1875 0.3125 0
0.140625 0.328125 0
0.15625 0.3125 0
0.171875 0.328125 0
0.15625 0.34375 0
0.1875 0.375 0
0.125 0.375 0
0.171875 0.359375 0
0.15625 0.375 0
0.140625 0.359375 0
0.15625 0.34375 0
0.1875 0.3125 0
0.1875 0.375 0
0.171875 0.328125 0
0.1875 0.34375 0
0.171875 0.359375 0
0.09375 0.34375 0
0.125 0.3125 0
0.125 0.375 0
0.109375 0.328125 0
0.125 0.34375 0
0.109375 0.359375 0
0.09375 0.34375 0
0.0625 0.3125 0
0.125 0.3125 0
0.078125 0.328125 0
0.09375 0.3125 0
0.109375 0.328125 0
0.09375 0.34375 0
0.125 0.375 0
0.0625 0.375 0
0.109375 0.359375 0
0.09375 0.375 0
0.078125 0.359375 0
0.09375 0.34375 0
0.0625 0.375 0
0.0625 0.3125 0
0.078125 0.359375 0
0.0625 0.34375 0
0.078125 0.328125 0
0.21875 0.34375 0
0.25 0.3125 0
0.25 0.375 0
0.234375 0.328125 0
0.25 0.34375 0
0.234375 0.359375 0
0.21875 0.34375 0
0.1875 0.3125 0
0.25 0.3125 0
0.203125 0.328125 0
0.21875 0.3125 0
0.234375 0.328125 0
0.21875 0.34375 0
0.25 0.375 0
0.1875 0.375 0
0.234375 0.359375 0
0.21875 0.375 0
0.203125 0.359375 0
0.21875 0.34375 0
0.1875 0.375 0
0.1875 0.3125 0
0.203125 0.359375 0
0.1875 0.34375 0
0.203125 0.328125 0
0.28125 0.28125 0
0.25 0.3125 0
0.25 0.25 0
0.265625 0.296875 0
0.25 0.28125 0
0.265625 0.265625 0
0.28125 0.28125 0
0.3125 0.3125 0
0.25 0.3125 0
0.296875 0.296875 0
0.28125 0.3125 0
0.265625 0.296875 0
0.28125 0.28125 0
0.25 0.25 0
0.3125 0.25 0
0.265625 0.265625 0
0.28125 0.25 0
0.296875 0.265625 0
0.28125 0.28125 0
0.3125 0.25 0
0.3125 0.3125 0
0.296875 0.265625 0
0.3125 0.28125 0
0.296875 0.296875 0
0.28125 0.34375 0
0.25 0.375 0
0.25 0.3125 0
0.265625 0.359375 0
0.25 0.34375 0
0.265625 0.328125 0
0.28125 0.34375 0
0.25 0.3125 0
0.3125 0.3125 0
0.265625 0.328125 0
0.28125 0.3125 0
0.296875 0.328125 0
0.28125 0.34375 0
0.3125 0.375 0
0.25 0.375 0
0.296875 0.359375 0
0.28125 0.375 0
0.265625 0.359375 0
0.28125 0.34375 0
0.3125 0.3125 0
0.3125 0.375 0
0.296875 0.328125 0
0.3125 0.34375 0
0.296875 0.359375 0
0.15625 0.40625 0
0.125 0.375 0
0.1875 0.375 0
0.140625 0.390625 0
0.15625 0.375 0
0.171875 0.390625 0
0.15625 0.40625 0
0.1875 0.375 0
0.1875 0.4375 0
0.171875 0.390625 0
0.1875 0.40625 0
0.171875 0.421875 0
0.15625 0.40625 0
0.125 0.4375 0
0.125 0.375 0
0.140625 0.421875 0
0.125 0.40625 0
0.140625 0.390625 0
0.15625 0.40625 0
0.1875 0.4375 0
0.125 0.4375 0
0.171875 0.421875 0
0.15625 0.4375 0
0.140625 0.421875 0
0.21875 0.40625 0
0.1875 0.375 0
0.25 0.375 0
0.203125 0.390625 0
0.21875 0.375 0
0.234375 0.390625 0
0.21875 0.40625 0
0.1875 0.4375 0
0.1875 0.375 0
0.203125 0.421875 0
0.1875 0.40625 0
0.203125 0.390625 0
0.21875 0.40625 0
0.25 0.375 0
0.25 0.4375 0
0.234375 0.390625 0
0.25 0.40625 0
0.234375 0.421875 0
0.21875 0.40625 0
0.25 0.4375 0
0.1875 0.4375 0
0.234375 0.421875 0
0.21875 0.4375 0
0.203125 0.421875 0
0.03125 0.34375 0
0 0.375 0
0 0.3125 0
0.015625 0.359375 0
0 0.34375 0
0.015625 0.328125 0
0.03125 0.34375 0
0 0.3125 0
0.0625 0.3125 0
0.015625 0.328125 0
0.03125 0.3125 0
0.046875 0.328125 0
0.03125 0.34375 0
0.0625 0.375 0
0 0.375 0
0.046875 0.359375 0
0.03125 0.375 0
0.015625 0.359375 0
0.03125 0.34375 0
0.0625 0.3125 0
0.0625 0.375 0
0.046875 0.328125 0
0.0625 0.34375 0
0.046875 0.359375 0
0.09375 0.40625 0
0.0625 0.375 0
0.125 0.375 0
0.078125 0.390625 0
0.09375 0.375 0
0.109375 0.390625 0
0.09375 0.40625 0
0.0625 0.4375 0
0.0625 0.375 0
0.078125 0.421875 0
0.0625 0.40625 0
0.078125 0.390625 0
0.09375 0.40625 0
0.125 0.375 0
0.125 0.4375 0
0.109375 0.390625 0
0.125 0.40625 0
0.109375 0.421875 0
0.09375 0.40625 0
0.125 0.4375 0
0.0625 0.4375 0
0.109375 0.421875 0
0.09375 0.4375 0
0.078125 0.421875 0
0.03125 0.40625 0
0 0.375 0
0.0625 0.375 0
0.015625 0.390625 0
0.03125 0.375 0
0.046875 0.390625 0
0.03125 0.40625 0
0.0625 0.375 0
0.0625 0.4375 0
0.046875 0.390625 0
0.0625 0.40625 0
0.046875 0.421875 0
0.03125 0.40625 0
0 0.4375 0
0 0.375 0
0.015625 0.421875 0
0 0.40625 0
0.015625 0.390625 0
0.03125 0.40625 0
0.0625 0.4375 0
0 0.4375 0
0.046875 0.421875 0
0.03125 0.4375 0
0.015625 0.421875 0
0.21875 0.03125 0
0.1875 0 0
0.25 0 0
0.203125 0.015625 0
0.21875 0 0
0.234375 0.015625 0
0.21875 0.03125 0
0.1875 0.0625 0
0.1875 0 0
0.203125 0.046875 0
0.1875 0.03125 0
0.203125 0.015625 0
0.21875 0.03125 0
0.25 0 0
0.25 0.0625 0
0.234375 0.015625 0
0.25 0.03125 0
0.234375 0.046875 0
0.21875 0.03125 0
0.25 0.0625 0
0.1875 0.0625 0
0.234375 0.046875 0
0.21875 0.0625 0
0.203125 0.046875 0
0.28125 0.03125 0
0.25 0.0625 0
0.25 0 0
0.265625 0.046875 0
0.25 0.03125 0
0.265625 0.015625 0
0.28125 0.03125 0
0.3125 0.0625 0
0.25 0.0625 0
0.296875 0.046875 0
0.28125 0.0625 0
0.265625 0.046875 0
0.28125 0.03125 0
0.25 0 0
0.3125 0 0
0.265625 0.015625 0
0.28125 0 0
0.296875 0.015625 0
0.28125 0.03125 0
0.3125 0 0
0.3125 0.0625 0
0.296875 0.015625 0
0.3125 0.03125 0
0.296875 0.046875 0
0.28125 0.09375 0
0.25 0.125 0
0.25 0.0625 0
0.265625 0.109375 0
0.25 0.09375 0
0.265625 0.078125 0
0.28125 0.09375 0
0.25 0.0625 0
0.3125 0.0625 0
0.265625 0.078125 0
0.28125 0.0625 0
0.296875 0.078125 0
0.28125 0.09375 0
0.3125 0.125 0
0.25 0.125 0
0.296875 0.109375 0
0.28125 0.125 0
0.265625 0.109375 0
0.28125 0.09375 0
0.3125 0.0625 0
0.3125 0.125 0
0.296875 0.078125 0
0.3125 0.09375 0
0.296875 0.109375 0
0.34375 0.15625 0
0.3125 0.125 0
0.375 0.125 0
0.328125 0.140625 0
0.34375 0.125 0
0.359375 0.140625 0
0.34375 0.15625 0
0.3125 0.1875 0
0.3125 0.125 0
0.328125 0.171875 0
0.3125 0.15625 0
0.328125 0.140625 0
0.34375 0.15625 0
0.375 0.125 0
0.375 0.1875 0
0.359375 0.140625 0
0.375 0.15625 0
0.359375 0.171875 0
0.34375 0.15625 0
0.375 0.1875 0
0.3125 0.1875 0
0.359375 0.171875 0
0.34375 0.1875 0
0.328125 0.171875 0
0.34375 0.09375 0
0.375 0.125 0
0.3125 0.125 0
0.359375 0.109375 0
0.34375 0.125 0
0.328125 0.109375 0
0.34375 0.09375 0
0.3125 0.125 0
0.3125 0.0625 0
0.328125 0.109375 0
0.3125 0.09375 0
0.328125 0.078125 0
0.34375 0.09375 0
0.375 0.0625 0
0.375 0.125 0
0.359375 0.078125 0
0.375 0.09375 0
0.359375 0.109375 0
0.34375 0.09375 0
0.3125 0.0625 0
0.375 0.0625 0
0.328125 0.078125 0
0.34375 0.0625 0
0.359375 0.078125 0
0.34375 0.21875 0
0.375 0.25 0
0.3125 0.25 0
0.359375 0.234375 0
0.34375 0.25 0
0.328125 0.234375 0
0.34375 0.21875 0
0.3125 0.25 0
0.3125 0.1875 0
0.328125 0.234375 0
0.3125 0.21875 0
0.328125 0.203125 0
0.34375 0.21875 0
0.375 0.1875 0
0.375 0.25 0
0.359375 0.203125 0
0.375 0.21875 0
0.359375 0.234375 0
0.34375 0.21875 0
0.3125 0.1875 0
0.375 0.1875 0
0.328125 0.203125 0
0.34375 0.1875 0
0.359375 0.203125 0
0.34375 0.28125 0
0.3125 0.25 0
0.375 0.25 0
0.328125 0.265625 0
0.34375 0.25 0
0.359375 0.265625 0
0.34375 0.28125 0
0.3125 0.3125 0
0.3125 0.25 0
0.328125 0.296875 0
0.3125 0.28125 0
0.328125 0.265625 0
0.34375 0.28125 0
0.375 0.25 0
0.375 0.3125 0
0.359375 0.265625 0
0.375 0.28125 0
0.359375 0.296875 0
0.34375 0.28125 0
0.375 0.3125 0
0.3125 0.3125 0
0.359375 0.296875 0
0.34375 0.3125 0
0.328125 0.296875 0
0.40625 0.15625 0
0.375 0.1875 0
0.375 0.125 0
0.390625 0.171875 0
0.375 0.15625 0
0.390625 0.140625 0
0.40625 0.15625 0
0.4375 0.1875 0
0.375 0.1875 0
0.421875 0.171875 0
0.40625 0.1875 0
0.390625 0.171875 0
0.40625 0.15625 0
0.375 0.125 0
0.4375 0.125 0
0.390625 0.140625 0
0.40625 0.125 0
0.421875 0.140625 0
0.40625 0.15625 0
0.4375 0.125 0
0.4375 0.1875 0
0.421875 0.140625 0
0.4375 0.15625 0
0.421875 0.171875 0
0.40625 0.21875 0
0.375 0.25 0
0.375 0.1875 0
0.390625 0.234375 0
0.375 0.21875 0
0.390625 0.203125 0
0.40625 0.21875 0
0.375 0.1875 0
0.4375 0.1875 0
0.390625 0.203125 0
0.40625 0.1875 0
0.421875 0.203125 0
0.40625 0.21875 0
0.4375 0.25 0
0.375 0.25 0
0.421875 0.234375 0
0.40625 0.25 0
0.390625 0.234375 0
0.40625 0.21875 0
0.4375 0.1875 0
0.4375 0.25 0
0.421875 0.203125 0
0.4375 0.21875 0
0.421875 0.234375 0
0.34375 0.03125 0
0.3125 0 0
0.375 0 0
0.328125 0.015625 0
0.34375 0 0
0.359375 0.015625 0
0.34375 0.03125 0
0.3125 0.0625 0
0.3125 0 0
0.328125 0.046875 0
0.3125 0.03125 0
0.328125 0.015625 0
0.34375 0.03125 0
0.375 0 0
0.375 0.0625 0
0.359375 0.015625 0
0.375 0.03125 0
0.359375 0.046875 0
0.34375 0.03125 0
0.375 0.0625 0
0.3125 0.0625 0
0.359375 0.046875 0
0.34375 0.0625 0
0.328125 0.046875 0
0.40625 0.09375 0
0.375 0.125 0
0.375 0.0625 0
0.390625 0.109375 0
0.375 0.09375 0
0.390625 0.078125 0
0.40625 0.09375 0
0.375 0.0625 0
0.4375 0.0625 0
0.390625 0.078125 0
0.40625 0.0625 0
0.421875 0.078125 0
0.40625 0.09375 0
0.4375 0.125 0
0.375 0.125 0
0.421875 0.109375 0
0.40625 0.125 0
0.390625 0.109375 0
0.40625 0.09375 0
0.4375 0.0625 0
0.4375 0.125 0
0.421875 0.078125 0
0.4375 0.09375 0
0.421875 0.109375 0
0.40625 0.03125 0
0.375 0.0625 0
0.375 0 0
0.390625 0.046875 0
0.375 0.03125 0
0.390625 0.015625 0
0.40625 0.03125 0
0.4375 0.0625 0
0.375 0.0625 0
0.421875 0.046875 0
0.40625 0.0625 0
0.390625 0.046875 0
0.40625 0.03125 0
0.375 0 0
0.4375 0 0
0.390625 0.015625 0
0.40625 0 0
0.421875 0.015625 0
0.40625 0.03125 0
0.4375 0 0
0.4375 0.0625 0
0.421875 0.015625 0
0.4375 0.03125 0
0.421875 0.046875 0
0.03125 0.46875 0
0 0.5 0
0 0.4375 0
0.015625 0.484375 0
0 0.46875 0
0.015625 0.453125 0
0.03125 0.46875 0
0 0.4375 0
0.0625 0.4375 0
0.015625 0.453125 0
0.03125 0.4375 0
0.046875 0.453125 0
0.03125 0.46875 0
0.0625 0.5 0
0 0.5 0
0.046875 0.484375 0
0.03125 0.5 0
0.015625 0.484375 0
0.03125 0.46875 0
0.0625 0.4375 0
0.0625 0.5 0
0.046875 0.453125 0
0.0625 0.46875 0
0.046875 0.484375 0
0.09375 0.46875 0
0.125 0.5 0
0.0625 0.5 0
0.109375 0.484375 0
0.09375 0.5 0
0.078125 0.484375 0
0.09375 0.46875 0
0.0625 0.5 0
0.0625 0.4375 0
0.078125 0.484375 0
0.0625 0.46875 0
0.078125 0.453125 0
0.09375 0.46875 0
0.125 0.4375 0
0.125 0.5 0
0.109375 0.453125 0
0.125 0.46875 0
0.109375 0.484375 0
0.09375 0.46875 0
0.0625 0.4375 0
0.125 0.4375 0
0.078125 0.453125 0
0.09375 0.4375 0
0.109375 0.453125 0
0.03125 0.53125 0
0 0.5 0
0.0625 0.5 0
0.015625 0.515625 0
0.03125 0.5 0
0.046875 0.515625 0
0.03125 0.53125 0
0.0625 0.5 0
0.0625 0.5625 0
0.046875 0.515625 0
0.0625 0.53125 0
0.046875 0.546875 0
0.03125 0.53125 0
0 0.5625 0
0 0.5 0
0.015625 0.546875 0
0 0.53125 0
0.015625 0.515625 0
0.03125 0.53125 0
0.0625 0.5625 0
0 0.5625 0
0.046875 0.546875 0
0.03125 0.5625 0
0.015625 0.546875 0
0.09375 0.53125 0
0.0625 0.5 0
0.125 0.5 0
0.078125 0.515625 0
0.09375 0.5 0
0.109375 0.515625 0
0.09375 0.53125 0
0.0625 0.5625 0
0.0625 0.5 0
0.078125 0.546875 0
0.0625 0.53125 0
0.078125 0.515625 0
0.09375 0.53125 0
0.125 0.5 0
0.125 0.5625 0
0.109375 0.515625 0
0.125 0.53125 0
0.109375 0.546875 0
0.09375 0.53125 0
0.125 0.5625 0
0.0625 0.5625 0
0.109375 0.546875 0
0.09375 0.5625 0
0.078125 0.546875 0
0.15625 0.46875 0
0.125 0.5 0
0.125 0.4375 0
0.140625 0.484375 0
0.125 0.46875 0
0.140625 0.453125 0
0.15625 0.46875 0
0.125 0.4375 0
0.1875 0.4375 0
0.140625 0.453125 0
0.15625 0.4375 0
0.171875 0.453125 0
0.15625 0.46875 0
0.1875 0.5 0
0.125 0.5 0
0.171875 0.484375 0
0.15625 0.5 0
0.140625 0.484375 0
0.15625 0.46875 0
0.1875 0.4375 0
0.1875 0.5 0
0.171875 0.453125 0
0.1875 0.46875 0
0.171875 0.484375 0
0.21875 0.46875 0
0.25 0.5 0
0.1875 0.5 0
0.234375 0.484375 0
0.21875 0.5 0
0.203125 0.484375 0
0.21875 0.46875 0
0.1875 0.5 0
0.1875 0.4375 0
0.203125 0.484375 0
0.1875 0.46875 0
0.203125 0.453125 0
0.21875 0.46875 0
0.25 0.4375 0
0.25 0.5 0
0.234375 0.453125 0
0.25 0.46875 0
0.234375 0.484375 0
0.21875 0.46875 0
0.1875 0.4375 0
0.25 0.4375 0
0.203125 0.453125 0
0.21875 0.4375 0
0.234375 0.453125 0
0.21875 0.53125 0
0.1875 0.5 0
0.25 0.5 0
0.203125 0.515625 0
0.21875 0.5 0
0.234375 0.515625 0
0.21875 0.53125 0
0.1875 0.5625 0
0.1875 0.5 0
0.203125 0.546875 0
0.1875 0.53125 0
0.203125 0.515625 0
0.21875 0.53125 0
0.25 0.5 0
0.25 0.5625 0
0.234375 0.515625 0
0.25 0.53125 0
0.234375 0.546875 0
0.21875 0.53125 0
0.25 0.5625 0
0.1875 0.5625 0
0.234375 0.546875 0
0.21875 0.5625 0
0.203125 0.546875 0
0.15625 0.53125 0
0.125 0.5 0
0.1875 0.5 0
0.140625 0.515625 0
0.15625 0.5 0
0.171875 0.515625 0
0.15625 0.53125 0
0.1875 0.5 0
0.1875 0.5625 0
0.171875 0.515625 0
0.1875 0.53125 0
0.171875 0.546875 0
0.15625 0.53125 0
0.125 0.5625 0
0.125 0.5 0
0.140625 0.546875 0
0.125 0.53125 0
0.140625 0.515625 0
0.15625 0.53125 0
0.1875 0.5625 0
0.125 0.5625 0
0.171875 0.546875 0
0.15625 0.5625 0
0.140625 0.546875 0
0.28125 0.46875 0
0.25 0.5 0
0.25 0.4375 0
0.265625 0.484375 0
0.25 0.46875 0
0.265625 0.453125 0
0.28125 0.46875 0
0.25 0.4375 0
0.3125 0.4375 0
0.265625 0.453125 0
0.28125 0.4375 0
0.296875 0.453125 0
0.28125 0.46875 0
0.3125 0.5 0
0.25 0.5 0
0.296875 0.484375 0
0.28125 0.5 0
0.265625 0.484375 0
0.28125 0.46875 0
0.3125 0.4375 0
0.3125 0.5 0
0.296875 0.453125 0
0.3125 0.46875 0
0.296875 0.484375 0
0.28125 0.40625 0
0.25 0.4375 0
0.25 0.375 0
0.265625 0.421875 0
0.25 0.40625 0
0.265625 0.390625 0
0.28125 0.40625 0
0.3125 0.4375 0
0.25 0.4375 0
0.296875 0.421875 0
0.28125 0.4375 0
0.265625 0.421875 0
0.28125 0.40625 0
0.25 0.375 0
0.3125 0.375 0
0.265625 0.390625 0
0.28125 0.375 0
0.296875 0.390625 0
0.28125 0.40625 0
0.3125 0.375 0
0.3125 0.4375 0
0.296875 0.390625 0
0.3125 0.40625 0
0.296875 0.421875 0
0.09375 0.59375 0
0.125 0.5625 0
0.125 0.625 0
0.109375 0.578125 0
0.125 0.59375 0
0.109375 0.609375 0
0.09375 0.59375 0
0.0625 0.5625 0
0.125 0.5625 0
0.078125 0.578125 0
0.09375 0.5625 0
0.109375 0.578125 0
0.09375 0.59375 0
0.125 0.625 0
0.0625 0.625 0
0.109375 0.609375 0
0.09375 0.625 0
0.078125 0.609375 0
0.09375 0.59375 0
0.0625 0.625 0
0.0625 0.5625 0
0.078125 0.609375 0
0.0625 0.59375 0
0.078125 0.578125 0
0.15625 0.59375 0
0.125 0.625 0
0.125 0.5625 0
0.140625 0.609375 0
0.125 0.59375 0
0.140625 0.578125 0
0.15625 0.59375 0
0.125 0.5625 0
0.1875 0.5625 0
0.140625 0.578125 0
0.15625 0.5625 0
0.171875 0.578125 0
0.15625 0.59375 0
0.1875 0.625 0
0.125 0.625 0
0.171875 0.609375 0
0.15625 0.625 0
0.140625 0.609375 0
0.15625 0.59375 0
0.1875 0.5625 0
0.1875 0.625 0
0.171875 0.578125 0
0.1875 0.59375 0
0.171875 0.609375 0
0.03125 0.59375 0
0 0.625 0
0 0.5625 0
0.015625 0.609375 0
0 0.59375 0
0.015625 0.578125 0
0.03125 0.59375 0
0 0.5625 0
0.0625 0.5625 0
0.015625 0.578125 0
0.03125 0.5625 0
0.046875 0.578125 0
0.03125 0.59375 0
0.0625 0.625 0
0 0.625 0
0.046875 0.609375 0
0.03125 0.625 0
0.015625 0.609375 0
0.03125 0.59375 0
0.0625 0.5625 0
0.0625 0.625 0
0.046875 0.578125 0
0.0625 0.59375 0
0.046875 0.609375 0
0.09375 0.65625 0
0.0625 0.625 0
0.125 0.625 0
0.078125 0.640625 0
0.09375 0.625 0
0.109375 0.640625 0
0.09375 0.65625 0
0.0625 0.6875 0
0.0625 0.625 0
0.078125 0.671875 0
0.0625 0.65625 0
0.078125 0.640625 0
0.09375 0.65625 0
0.125 0.625 0
0.125 0.6875 0
0.109375 0.640625 0
0.125 0.65625 0
0.109375 0.671875 0
0.09375 0.65625 0
0.125 0.6875 0
0.0625 0.6875 0
0.109375 0.671875 0
0.09375 0.6875 0
0.078125 0.671875 0
0.03125 0.65625 0
0 0.625 0
0.0625 0.625 0
0.015625 0.640625 0
0.03125 0.625 0
0.046875 0.640625 0
0.03125 0.65625 0
0.0625 0.625 0
0.0625 0.6875 0
0.046875 0.640625 0
0.0625 0.65625 0
0.046875 0.671875 0
0.03125 0.65625 0
0 0.6875 0
0 0.625 0
0.015625 0.671875 0
0 0.65625 0
0.015625 0.640625 0
0.03125 0.65625 0
0.0625 0.6875 0
0 0.6875 0
0.046875 0.671875 0
0.03125 0.6875 0
0.015625 0.671875 0
0.21875 0.59375 0
0.25 0.5625 0
0.25 0.625 0
0.234375 0.578125 0
0.25 0.59375 0
0.234375 0.609375 0
0.21875 0.59375 0
0.1875 0.5625 0
0.25 0.5625 0
0.203125 0.578125 0
0.21875 0.5625 0
0.234375 0.578125 0
0.21875 0.59375 0
0.25 0.625 0
0.1875 0.625 0
0.234375 0.609375 0
0.21875 0.625 0
0.203125 0.609375 0
0.21875 0.59375 0
0.1875 0.625 0
0.1875 0.5625 0
0.203125 0.609375 0
0.1875 0.59375 0
0.203125 0.578125 0
0.28125 0.53125 0
0.25 0.5625 0
0.25 0.5 0
0.265625 0.546875 0
0.25 0.53125 0
0.265625 0.515625 0
0.28125 0.53125 0
0.3125 0.5625 0
0.25 0.5625 0
0.296875 0.546875 0
0.28125 0.5625 0
0.265625 0.546875 0
0.28125 0.53125 0
0.25 0.5 0
0.3125 0.5 0
0.265625 0.515625 0
0.28125 0.5 0
0.296875 0.515625 0
0.28125 0.53125 0
0.3125 0.5 0
0.3125 0.5625 0
0.296875 0.515625 0
0.3125 0.53125 0
0.296875 0.546875 0
0.28125 0.59375 0
0.25 0.625 0
0.25 0.5625 0
0.265625 0.609375 0
0.25 0.59375 0
0.265625 0.578125 0
0.28125 0.59375 0
0.25 0.5625 0
0.3125 0.5625 0
0.265625 0.578125 0
0.28125 0.5625 0
0.296875 0.578125 0
0.28125 0.59375 0
0.3125 0.625 0
0.25 0.625 0
0.296875 0.609375 0
0.28125 0.625 0
0.265625 0.609375 0
0.28125 0.59375 0
0.3125 0.5625 0
0.3125 0.625 0
0.296875 0.578125 0
0.3125 0.59375 0
0.296875 0.609375 0
0.15625 0.65625 0
0.125 0.625 0
0.1875 0.625 0
0.140625 0.640625 0
0.15625 0.625 0
0.171875 0.640625 0
0.15625 0.65625 0
0.1875 0.625 0
0.1875 0.6875 0
0.171875 0.640625 0
0.1875 0.65625 0
0.171875 0.671875 0
0.15625 0.65625 0
0.125 0.6875 0
0.125 0.625 0
0.140625 0.671875 0
0.125 0.65625 0
0.140625 0.640625 0
0.15625 0.65625 0
0.1875 0.6875 0
0.125 0.6875 0
0.171875 0.671875 0
0.15625 0.6875 0
0.140625 0.671875 0
0.21875 0.65625 0
0.1875 0.625 0
0.25 0.625 0
0.203125 0.640625 0
0.21875 0.625 0
0.234375 0.640625 0
0.21875 0.65625 0
0.1875 0.6875 0
0.1875 0.625 0
0.203125 0.671875 0
0.1875 0.65625 0
0.203125 0.640625 0
0.21875 0.65625 0
0.25 0.625 0
0.25 0.6875 0
0.234375 0.640625 0
0.25 0.65625 0
0.234375 0.671875 0
0.21875 0.65625 0
0.25 0.6875 0
0.1875 0.6875 0
0.234375 0.671875 0
0.21875 0.6875 0
0.203125 0.671875 0
0.34375 0.34375 0
0.375 0.375 0
0.3125 0.375 0
0.359375 0.359375 0
0.34375 0.375 0
0.328125 0.359375 0
0.34375 0.34375 0
0.3125 0.375 0
0.3125 0.3125 0
0.328125 0.359375 0
0.3125 0.34375 0
0.328125 0.328125 0
0.34375 0.34375 0
0.375 0.3125 0
0.375 0.375 0
0.359375 0.328125 0
0.375 0.34375 0
0.359375 0.359375 0
0.34375 0.34375 0
0.3125 0.3125 0
0.375 0.3125 0
0.328125 0.328125 0
0.34375 0.3125 0
0.359375 0.328125 0
0.34375 0.40625 0
0.3125 0.375 0
0.375 0.375 0
0.328125 0.390625 0
0.34375 0.375 0
0.359375 0.390625 0
0.34375 0.40625 0
0.3125 0.4375 0
0.3125 0.375 0
0.328125 0.421875 0
0.3125 0.40625 0
0.328125 0.390625 0
0.34375 0.40625 0
0.375 0.375 0
0.375 0.4375 0
0.359375 0.390625 0
0.375 0.40625 0
0.359375 0.421875 0
0.34375 0.40625 0
0.375 0.4375 0
0.3125 0.4375 0
0.359375 0.421875 0
0.34375 0.4375 0
0.328125 0.421875 0
0.40625 0.34375 0
0.375 0.375 0
0.375 0.3125 0
0.390625 0.359375 0
0.375 0.34375 0
0.390625 0.328125 0
0.40625 0.34375 0
0.375 0.3125 0
0.4375 0.3125 0
0.390625 0.328125 0
0.40625 0.3125 0
0.421875 0.328125 0
0.40625 0.34375 0
0.4375 0.375 0
0.375 0.375 0
0.421875 0.359375 0
0.40625 0.375 0
0.390625 0.359375 0
0.40625 0.34375 0
0.4375 0.3125 0
0.4375 0.375 0
0.421875 0.328125 0
0.4375 0.34375 0
0.421875 0.359375 0
0.40625 0.28125 0
0.375 0.3125 0
0.375 0.25 0
0.390625 0.296875 0
0.375 0.28125 0
0.390625 0.265625 0
0.40625 0.28125 0
0.4375 0.3125 0
0.375 0.3125 0
0.421875 0.296875 0
0.40625 0.3125 0
0.390625 0.296875 0
0.40625 0.28125 0
0.375 0.25 0
0.4375 0.25 0
0.390625 0.265625 0
0.40625 0.25 0
0.421875 0.265625 0
0.40625 0.28125 0
0.4375 0.25 0
0.4375 0.3125 0
0.421875 0.265625 0
0.4375 0.28125 0
0.421875 0.296875 0
0.34375 0.46875 0
0.375 0.5 0
0.3125 0.5 0
0.359375 0.484375 0
0.34375 0.5 0
0.328125 0.484375 0
0.34375 0.46875 0
0.3125 0.5 0
0.3125 0.4375 0
0.328125 0.484375 0
0.3125 0.46875 0
0.328125 0.453125 0
0.34375 0.46875 0
0.375 0.4375 0
0.375 0.5 0
0.359375 0.453125 0
0.375 0.46875 0
0.359375 0.484375 0
0.34375 0.46875 0
0.3125 0.4375 0
0.375 0.4375 0
0.328125 0.453125 0
0.34375 0.4375 0
0.359375 0.453125 0
0.34375 0.53125 0
0.3125 0.5 0
0.375 0.5 0
0.328125 0.515625 0
0.34375 0.5 0
0.359375 0.515625 0
0.34375 0.53125 0
0.3125 0.5625 0
0.3125 0.5 0
0.328125 0.546875 0
0.3125 0.53125 0
0.328125 0.515625 0
0.34375 0.53125 0
0.375 0.5 0
0.375 0.5625 0
0.359375 0.515625 0
0.375 0.53125 0
0.359375 0.546875 0
0.34375 0.53125 0
0.375 0.5625 0
0.3125 0.5625 0
0.359375 0.546875 0
0.34375 0.5625 0
0.328125 0.546875 0
0.40625 0.40625 0
0.375 0.4375 0
0.375 0.375 0
0.390625 0.421875 0
0.375 0.40625 0
0.390625 0.390625 0
0.40625 0.40625 0
0.4375 0.4375 0
0.375 0.4375 0
0.421875 0.421875 0
0.40625 0.4375 0
0.390625 0.421875 0
0.40625 0.40625 0
0.375 0.375 0
0.4375 0.375 0
0.390625 0.390625 0
0.40625 0.375 0
0.421875 0.390625 0
0.40625 0.40625 0
0.4375 0.375 0
0.4375 0.4375 0
0.421875 0.390625 0
0.4375 0.40625 0
0.421875 0.421875 0
0.40625 0.46875 0
0.375 0.5 0
0.375 0.4375 0
0.390625 0.484375 0
0.375 0.46875 0
0.390625 0.453125 0
0.40625 0.46875 0
0.375 0.4375 0
0.4375 0.4375 0
0.390625 0.453125 0
0.40625 0.4375 0
0.421875 0.453125 0
0.40625 0.46875 0
0.4375 0.5 0
0.375 0.5 0
0.421875 0.484375 0
0.40625 0.5 0
0.390625 0.484375 0
0.40625 0.46875 0
0.4375 0.4375 0
0.4375 0.5 0
0.421875 0.453125 0
0.4375 0.46875 0
0.421875 0.484375 0
0.46875 0.46875 0
0.5 0.5 0
0.4375 0.5 0
0.484375 0.484375 0
0.46875 0.5 0
0.453125 0.484375 0
0.46875 0.46875 0
0.4375 0.5 0
0.4375 0.4375 0
0.453125 0.484375 0
0.4375 0.46875 0
0.453125 0.453125 0
0.46875 0.46875 0
0.5 0.4375 0
0.5 0.5 0
0.484375 0.453125 0
0.5 0.46875 0
0.484375 0.484375 0
0.46875 0.46875 0
0.4375 0.4375 0
0.5 0.4375 0
0.453125 0.453125 0
0.46875 0.4375 0
0.484375 0.453125 0
0.46875 0.53125 0
0.4375 0.5 0
0.5 0.5 0
0.453125 0.515625 0
0.46875 0.5 0
0.484375 0.515625 0
0.46875 0.53125 0
0.4375 0.5625 0
0.4375 0.5 0
0.453125 0.546875 0
0.4375 0.53125 0
0.453125 0.515625 0
0.46875 0.53125 0
0.5 0.5 0
0.5 0.5625 0
0.484375 0.515625 0
0.5 0.53125 0
0.484375 0.546875 0
0.46875 0.53125 0
0.5 0.5625 0
0.4375 0.5625 0
0.484375 0.546875 0
0.46875 0.5625 0
0.453125 0.546875 0
0.40625 0.53125 0
0.375 0.5 0
0.4375 0.5 0
0.390625 0.515625 0
0.40625 0.5 0
0.421875 0.515625 0
0.40625 0.53125 0
0.4375 0.5 0
0.4375 0.5625 0
0.421875 0.515625 0
0.4375 0.53125 0
0.421875 0.546875 0
0.40625 0.53125 0
0.375 0.5625 0
0.375 0.5 0
0.390625 0.546875 0
0.375 0.53125 0
0.390625 0.515625 0
0.40625 0.53125 0
0.4375 0.5625 0
0.375 0.5625 0
0.421875 0.546875 0
0.40625 0.5625 0
0.390625 0.546875 0
0.46875 0.40625 0
0.5 0.375 0
0.5 0.4375 0
0.484375 0.390625 0
0.5 0.40625 0
0.484375 0.421875 0
0.46875 0.40625 0
0.5 0.4375 0
0.4375 0.4375 0
0.484375 0.421875 0
0.46875 0.4375 0
0.453125 0.421875 0
0.46875 0.40625 0
0.4375 0.375 0
0.5 0.375 0
0.453125 0.390625 0
0.46875 0.375 0
0.484375 0.390625 0
0.46875 0.40625 0
0.4375 0.4375 0
0.4375 0.375 0
0.453125 0.421875 0
0.4375 0.40625 0
0.453125 0.390625 0
0.53125 0.46875 0
0.5 0.5 0
0.5 0.4375 0
0.515625 0.484375 0
0.5 0.46875 0
0.515625 0.453125 0
0.53125 0.46875 0
0.5 0.4375 0
0.5625 0.4375 0
0.515625 0.453125 0
0.53125 0.4375 0
0.546875 0.453125 0
0.53125 0.46875 0
0.5625 0.5 0
0.5 0.5 0
0.546875 0.484375 0
0.53125 0.5 0
0.515625 0.484375 0
0.53125 0.46875 0
0.5625 0.4375 0
0.5625 0.5 0
0.546875 0.453125 0
0.5625 0.46875 0
0.546875 0.484375 0
0.53125 0.40625 0
0.5 0.4375 0
0.5 0.375 0
0.515625 0.421875 0
0.5 0.40625 0
0.515625 0.390625 0
0.53125 0.40625 0
0.5625 0.4375 0
0.5 0.4375 0
0.546875 0.421875 0
0.53125 0.4375 0
0.515625 0.421875 0
0.53125 0.40625 0
0.5 0.375 0
0.5625 0.375 0
0.515625 0.390625 0
0.53125 0.375 0
0.546875 0.390625 0
0.53125 0.40625 0
0.5625 0.375 0
0.5625 0.4375 0
0.546875 0.390625 0
0.5625 0.40625 0
0.546875 0.421875 0
0.46875 0.34375 0
0.5 0.375 0
0.4375 0.375 0
0.484375 0.359375 0
0.46875 0.375 0
0.453125 0.359375 0
0.46875 0.34375 0
0.4375 0.375 0
0.4375 0.3125 0
0.453125 0.359375 0
0.4375 0.34375 0
0.453125 0.328125 0
0.46875 0.34375 0
0.5 0.3125 0
0.5 0.375 0
0.484375 0.328125 0
0.5 0.34375 0
0.484375 0.359375 0
0.46875 0.34375 0
0.4375 0.3125 0
0.5 0.3125 0
0.453125 0.328125 0
0.46875 0.3125 0
0.484375 0.328125 0
0.40625 0.59375 0
0.375 0.625 0
0.375 0.5625 0
0.390625 0.609375 0
0.375 0.59375 0
0.390625 0.578125 0
0.40625 0.59375 0
0.375 0.5625 0
0.4375 0.5625 0
0.390625 0.578125 0
0.40625 0.5625 0
0.421875 0.578125 0
0.40625 0.59375 0
0.4375 0.625 0
0.375 0.625 0
0.421875 0.609375 0
0.40625 0.625 0
0.390625 0.609375 0
0.40625 0.59375 0
0.4375 0.5625 0
0.4375 0.625 0
0.421875 0.578125 0
0.4375 0.59375 0
0.421875 0.609375 0
0.34375 0.59375 0
0.375 0.5625 0
0.375 0.625 0
0.359375 0.578125 0
0.375 0.59375 0
0.359375 0.609375 0
0.34375 0.59375 0
0.3125 0.5625 0
0.375 0.5625 0
0.328125 0.578125 0
0.34375 0.5625 0
0.359375 0.578125 0
0.34375 0.59375 0
0.375 0.625 0
0.3125 0.625 0
0.359375 0.609375 0
0.34375 0.625 0
0.328125 0.609375 0
0.34375 0.59375 0
0.3125 0.625 0
0.3125 0.5625 0
0.328125 0.609375 0
0.3125 0.59375 0
0.328125 0.578125 0
0.46875 0.59375 0
0.5 0.5625 0
0.5 0.625 0
0.484375 0.578125 0
0.5 0.59375 0
0.484375 0.609375 0
0.46875 0.59375 0
0.4375 0.5625 0
0.5 0.5625 0
0.453125 0.578125 0
0.46875 0.5625 0
0.484375 0.578125 0
0.46875 0.59375 0
0.5 0.625 0
0.4375 0.625 0
0.484375 0.609375 0
0.46875 0.625 0
0.453125 0.609375 0
0.46875 0.59375 0
0.4375 0.625 0
0.4375 0.5625 0
0.453125 0.609375 0
0.4375 0.59375 0
0.453125 0.578125 0
0.53125 0.53125 0
0.5 0.5625 0
0.5 0.5 0
0.515625 0.546875 0
0.5 0.53125 0
0.515625 0.515625 0
0.53125 0.53125 0
0.5625 0.5625 0
0.5 0.5625 0
0.546875 0.546875 0
0.53125 0.5625 0
0.515625 0.546875 0
0.53125 0.53125 0
0.5 0.5 0
0.5625 0.5 0
0.515625 0.515625 0
0.53125 0.5 0
0.546875 0.515625 0
0.53125 0.53125 0
0.5625 0.5 0
0.5625 0.5625 0
0.546875 0.515625 0
0.5625 0.53125 0
0.546875 0.546875 0
0.53125 0.59375 0
0.5 0.625 0
0.5 0.5625 0
0.515625 0.609375 0
0.5 0.59375 0
0.515625 0.578125 0
0.53125 0.59375 0
0.5 0.5625 0
0.5625 0.5625 0
0.515625 0.578125 0
0.53125 0.5625 0
0.546875 0.578125 0
0.53125 0.59375 0
0.5625 0.625 0
0.5 0.625 0
0.546875 0.609375 0
0.53125 0.625 0
0.515625 0.609375 0
0.53125 0.59375 0
0.5625 0.5625 0
0.5625 0.625 0
0.546875 0.578125 0
0.5625 0.59375 0
0.546875 0.609375 0
0.40625 0.65625 0
0.375 0.625 0
0.4375 0.625 0
0.390625 0.640625 0
0.40625 0.625 0
0.421875 0.640625 0
0.40625 0.65625 0
0.4375 0.625 0
0.4375 0.6875 0
0.421875 0.640625 0
0.4375 0.65625 0
0.421875 0.671875 0
0.40625 0.65625 0
0.375 0.6875 0
0.375 0.625 0
0.390625 0.671875 0
0.375 0.65625 0
0.390625 0.640625 0
0.40625 0.65625 0
0.4375 0.6875 0
0.375 0.6875 0
0.421875 0.671875 0
0.40625 0.6875 0
0.390625 0.671875 0
0.46875 0.65625 0
0.4375 0.625 0
0.5 0.625 0
0.453125 0.640625 0
0.46875 0.625 0
0.484375 0.640625 0
0.46875 0.65625 0
0.4375 0.6875 0
0.4375 0.625 0
0.453125 0.671875 0
0.4375 0.65625 0
0.453125 0.640625 0
0.46875 0.65625 0
0.5 0.625 0
0.5 0.6875 0
0.484375 0.640625 0
0.5 0.65625 0
0.484375 0.671875 0
0.46875 0.65625 0
0.5 0.6875 0
0.4375 0.6875 0
0.484375 0.671875 0
0.46875 0.6875 0
0.453125 0.671875 0
0.34375 0.65625 0
0.3125 0.625 0
0.375 0.625 0
0.328125 0.640625 0
0.34375 0.625 0
0.359375 0.640625 0
0.34375 0.65625 0
0.3125 0.6875 0
0.3125 0.625 0
0.328125 0.671875 0
0.3125 0.65625 0
0.328125 0.640625 0
0.34375 0.65625 0
0.375 0.625 0
0.375 0.6875 0
0.359375 0.640625 0
0.375 0.65625 0
0.359375 0.671875 0
0.34375 0.65625 0
0.375 0.6875 0
0.3125 0.6875 0
0.359375 0.671875 0
0.34375 0.6875 0
0.328125 0.671875 0
0.28125 0.65625 0
0.25 0.625 0
0.3125 0.625 0
0.265625 0.640625 0
0.28125 0.625 0
0.296875 0.640625 0
0.28125 0.65625 0
0.3125 0.625 0
0.3125 0.6875 0
0.296875 0.640625 0
0.3125 0.65625 0
0.296875 0.671875 0
0.28125 0.65625 0
0.25 0.6875 0
0.25 0.625 0
0.265625 0.671875 0
0.25 0.65625 0
0.265625 0.640625 0
0.28125 0.65625 0
0.3125 0.6875 0
0.25 0.6875 0
0.296875 0.671875 0
0.28125 0.6875 0
0.265625 0.671875 0
0.46875 0.28125 0
0.5 0.25 0
0.5 0.3125 0
0.484375 0.265625 0
0.5 0.28125 0
0.484375 0.296875 0
0.46875 0.28125 0
0.5 0.3125 0
0.4375 0.3125 0
0.484375 0.296875 0
0.46875 0.3125 0
0.453125 0.296875 0
0.46875 0.28125 0
0.4375 0.25 0
0.5 0.25 0
0.453125 0.265625 0
0.46875 0.25 0
0.484375 0.265625 0
0.46875 0.28125 0
0.4375 0.3125 0
0.4375 0.25 0
0.453125 0.296875 0
0.4375 0.28125 0
0.453125 0.265625 0
0.53125 0.28125 0
0.5 0.3125 0
0.5 0.25 0
0.515625 0.296875 0
0.5 0.28125 0
0.515625 0.265625 0
0.53125 0.28125 0
0.5625 0.3125 0
0.5 0.3125 0
0.546875 0.296875 0
0.53125 0.3125 0
0.515625 0.296875 0
0.53125 0.28125 0
0.5 0.25 0
0.5625 0.25 0
0.515625 0.265625 0
0.53125 0.25 0
0.546875 0.265625 0
0.53125 0.28125 0
0.5625 0.25 0
0.5625 0.3125 0
0.546875 0.265625 0
0.5625 0.28125 0
0.546875 0.296875 0
0.53125 0.34375 0
0.5 0.375 0
0.5 0.3125 0
0.515625 0.359375 0
0.5 0.34375 0
0.515625 0.328125 0
0.53125 0.34375 0
0.5 0.3125 0
0.5625 0.3125 0
0.515625 0.328125 0
0.53125 0.3125 0
0.546875 0.328125 0
0.53125 0.34375 0
0.5625 0.375 0
0.5 0.375 0
0.546875 0.359375 0
0.53125 0.375 0
0.515625 0.359375 0
0.53125 0.34375 0
0.5625 0.3125 0
0.5625 0.375 0
0.546875 0.328125 0
0.5625 0.34375 0
0.546875 0.359375 0
0.46875 0.21875 0
0.5 0.25 0
0.4375 0.25 0
0.484375 0.234375 0
0.46875 0.25 0
0.453125 0.234375 0
0.46875 0.21875 0
0.4375 0.25 0
0.4375 0.1875 0
0.453125 0.234375 0
0.4375 0.21875 0
0.453125 0.203125 0
0.46875 0.21875 0
0.5 0.1875 0
0.5 0.25 0
0.484375 0.203125 0
0.5 0.21875 0
0.484375 0.234375 0
0.46875 0.21875 0
0.4375 0.1875 0
0.5 0.1875 0
0.453125 0.203125 0
0.46875 0.1875 0
0.484375 0.203125 0
0.59375 0.40625 0
0.5625 0.375 0
0.625 0.375 0
0.578125 0.390625 0
0.59375 0.375 0
0.609375 0.390625 0
0.59375 0.40625 0
0.5625 0.4375 0
0.5625 0.375 0
0.578125 0.421875 0
0.5625 0.40625 0
0.578125 0.390625 0
0.59375 0.40625 0
0.625 0.375 0
0.625 0.4375 0
0.609375 0.390625 0
0.625 0.40625 0
0.609375 0.421875 0
0.59375 0.40625 0
0.625 0.4375 0
0.5625 0.4375 0
0.609375 0.421875 0
0.59375 0.4375 0
0.578125 0.421875 0
0.59375 0.34375 0
0.625 0.375 0
0.5625 0.375 0
0.609375 0.359375 0
0.59375 0.375 0
0.578125 0.359375 0
0.59375 0.34375 0
0.5625 0.375 0
0.5625 0.3125 0
0.578125 0.359375 0
0.5625 0.34375 0
0.578125 0.328125 0
0.59375 0.34375 0
0.625 0.3125 0
0.625 0.375 0
0.609375 0.328125 0
0.625 0.34375 0
0.609375 0.359375 0
0.59375 0.34375 0
0.5625 0.3125 0
0.625 0.3125 0
0.578125 0.328125 0
0.59375 0.3125 0
0.609375 0.328125 0
0.59375 0.46875 0
0.625 0.5 0
0.5625 0.5 0
0.609375 0.484375 0
0.59375 0.5 0
0.578125 0.484375 0
0.59375 0.46875 0
0.5625 0.5 0
0.5625 0.4375 0
0.578125 0.484375 0
0.5625 0.46875 0
0.578125 0.453125 0
0.59375 0.46875 0
0.625 0.4375 0
0.625 0.5 0
0.609375 0.453125 0
0.625 0.46875 0
0.609375 0.484375 0
0.59375 0.46875 0
0.5625 0.4375 0
0.625 0.4375 0
0.578125 0.453125 0
0.59375 0.4375 0
0.609375 0.453125 0
0.59375 0.53125 0
0.5625 0.5 0
0.625 0.5 0
0.578125 0.515625 0
0.59375 0.5 0
0.609375 0.515625 0
0.59375 0.53125 0
0.5625 0.5625 0
0.5625 0.5 0
0.578125 0.546875 0
0.5625 0.53125 0
0.578125 0.515625 0
0.59375 0.53125 0
0.625 0.5 0
0.625 0.5625 0
0.609375 0.515625 0
0.625 0.53125 0
0.609375 0.546875 0
0.59375 0.53125 0
0.625 0.5625 0
0.5625 0.5625 0
0.609375 0.546875 0
0.59375 0.5625 0
0.578125 0.546875 0
0.65625 0.40625 0
0.625 0.4375 0
0.625 0.375 0
0.640625 0.421875 0
0.625 0.40625 0
0.640625 0.390625 0
0.65625 0.40625 0
0.6875 0.4375 0
0.625 0.4375 0
0.671875 0.421875 0
0.65625 0.4375 0
0.640625 0.421875 0
0.65625 0.40625 0
0.625 0.375 0
0.6875 0.375 0
0.640625 0.390625 0
0.65625 0.375 0
0.671875 0.390625 0
0.65625 0.40625 0
0.6875 0.375 0
0.6875 0.4375 0
0.671875 0.390625 0
0.6875 0.40625 0
0.671875 0.421875 0
0.65625 0.46875 0
0.625 0.5 0
0.625 0.4375 0
0.640625 0.484375 0
0.625 0.46875 0
0.640625 0.453125 0
0.65625 0.46875 0
0.625 0.4375 0
0.6875 0.4375 0
0.640625 0.453125 0
0.65625 0.4375 0
0.671875 0.453125 0
0.65625 0.46875 0
0.6875 0.5 0
0.625 0.5 0
0.671875 0.484375 0
0.65625 0.5 0
0.640625 0.484375 0
0.65625 0.46875 0
0.6875 0.4375 0
0.6875 0.5 0
0.671875 0.453125 0
0.6875 0.46875 0
0.671875 0.484375 0
0.59375 0.28125 0
0.5625 0.25 0
0.625 0.25 0
0.578125 0.265625 0
0.59375 0.25 0
0.609375 0.265625 0
0.59375 0.28125 0
0.5625 0.3125 0
0.5625 0.25 0
0.578125 0.296875 0
0.5625 0.28125 0
0.578125 0.265625 0
0.59375 0.28125 0
0.625 0.25 0
0.625 0.3125 0
0.609375 0.265625 0
0.625 0.28125 0
0.609375 0.296875 0
0.59375 0.28125 0
0.625 0.3125 0
0.5625 0.3125 0
0.609375 0.296875 0
0.59375 0.3125 0
0.578125 0.296875 0
0.53125 0.21875 0
0.5625 0.25 0
0.5 0.25 0
0.546875 0.234375 0
0.53125 0.25 0
0.515625 0.234375 0
0.53125 0.21875 0
0.5625 0.1875 0
0.5625 0.25 0
0.546875 0.203125 0
0.5625 0.21875 0
0.546875 0.234375 0
0.53125 0.21875 0
0.5 0.25 0
0.5 0.1875 0
0.515625 0.234375 0
0.5 0.21875 0
0.515625 0.203125 0
0.53125 0.21875 0
0.5 0.1875 0
0.5625 0.1875 0
0.515625 0.203125 0
0.53125 0.1875 0
0.546875 0.203125 0
0.59375 0.21875 0
0.625 0.25 0
0.5625 0.25 0
0.609375 0.234375 0
0.59375 0.25 0
0.578125 0.234375 0
0.59375 0.21875 0
0.5625 0.25 0
0.5625 0.1875 0
0.578125 0.234375 0
0.5625 0.21875 0
0.578125 0.203125 0
0.59375 0.21875 0
0.625 0.1875 0
0.625 0.25 0
0.609375 0.203125 0
0.625 0.21875 0
0.609375 0.234375 0
0.59375 0.21875 0
0.5625 0.1875 0
0.625 0.1875 0
0.578125 0.203125 0
0.59375 0.1875 0
0.609375 0.203125 0
0.65625 0.34375 0
0.625 0.375 0
0.625 0.3125 0
0.640625 0.359375 0
0.625 0.34375 0
0.640625 0.328125 0
0.65625 0.34375 0
0.625 0.3125 0
0.6875 0.3125 0
0.640625 0.328125 0
0.65625 0.3125 0
0.671875 0.328125 0
0.65625 0.34375 0
0.6875 0.375 0
0.625 0.375 0
0.671875 0.359375 0
0.65625 0.375 0
0.640625 0.359375 0
0.65625 0.34375 0
0.6875 0.3125 0
0.6875 0.375 0
0.671875 0.328125 0
0.6875 0.34375 0
0.671875 0.359375 0
0.65625 0.28125 0
0.625 0.3125 0
0.625 0.25 0
0.640625 0.296875 0
0.625 0.28125 0
0.640625 0.265625 0
0.65625 0.28125 0
0.6875 0.3125 0
0.625 0.3125 0
0.671875 0.296875 0
0.65625 0.3125 0
0.640625 0.296875 0
0.65625 0.28125 0
0.625 0.25 0
0.6875 0.25 0
0.640625 0.265625 0
0.65625 0.25 0
0.671875 0.265625 0
0.65625 0.28125 0
0.6875 0.25 0
0.6875 0.3125 0
0.671875 0.265625 0
0.6875 0.28125 0
0.671875 0.296875 0
0.46875 0.15625 0
0.5 0.125 0
0.5 0.1875 0
0.484375 0.140625 0
0.5 0.15625 0
0.484375 0.171875 0
0.46875 0.15625 0
0.5 0.1875 0
0.4375 0.1875 0
0.484375 0.171875 0
0.46875 0.1875 0
0.453125 0.171875 0
0.46875 0.15625 0
0.4375 0.125 0
0.5 0.125 0
0.453125 0.140625 0
0.46875 0.125 0
0.484375 0.140625 0
0.46875 0.15625 0
0.4375 0.1875 0
0.4375 0.125 0
0.453125 0.171875 0
0.4375 0.15625 0
0.453125 0.140625 0
0.53125 0.15625 0
0.5 0.1875 0
0.5 0.125 0
0.515625 0.171875 0
0.5 0.15625 0
0.515625 0.140625 0
0.53125 0.15625 0
0.5625 0.1875 0
0.5 0.1875 0
0.546875 0.171875 0
0.53125 0.1875 0
0.515625 0.171875 0
0.53125 0.15625 0
0.5 0.125 0
0.5625 0.125 0
0.515625 0.140625 0
0.53125 0.125 0
0.546875 0.140625 0
0.53125 0.15625 0
0.5625 0.125 0
0.5625 0.1875 0
0.546875 0.140625 0
0.5625 0.15625 0
0.546875 0.171875 0
0.46875 0.09375 0
0.5 0.125 0
0.4375 0.125 0
0.484375 0.109375 0
0.46875 0.125 0
0.453125 0.109375 0
0.46875 0.09375 0
0.4375 0.125 0
0.4375 0.0625 0
0.453125 0.109375 0
0.4375 0.09375 0
0.453125 0.078125 0
0.46875 0.09375 0
0.5 0.0625 0
0.5 0.125 0
0.484375 0.078125 0
0.5 0.09375 0
0.484375 0.109375 0
0.46875 0.09375 0
0.4375 0.0625 0
0.5 0.0625 0
0.453125 0.078125 0
0.46875 0.0625 0
0.484375 0.078125 0
0.28125 0.71875 0
0.25 0.75 0
0.25 0.6875 0
0.265625 0.734375 0
0.25 0.71875 0
0.265625 0.703125 0
0.28125 0.71875 0
0.25 0.6875 0
0.3125 0.6875 0
0.265625 0.703125 0
0.28125 0.6875 0
0.296875 0.703125 0
0.28125 0.71875 0
0.3125 0.75 0
0.25 0.75 0
0.296875 0.734375 0
0.28125 0.75 0
0.265625 0.734375 0
0.28125 0.71875 0
0.3125 0.6875 0
0.3125 0.75 0
0.296875 0.703125 0
0.3125 0.71875 0
0.296875 0.734375 0
0.21875 0.71875 0
0.25 0.6875 0
0.25 0.75 0
0.234375 0.703125 0
0.25 0.71875 0
0.234375 0.734375 0
0.21875 0.71875 0
0.1875 0.6875 0
0.25 0.6875 0
0.203125 0.703125 0
0.21875 0.6875 0
0.234375 0.703125 0
0.21875 0.71875 0
0.25 0.75 0
0.1875 0.75 0
0.234375 0.734375 0
0.21875 0.75 0
0.203125 0.734375 0
0.21875 0.71875 0
0.1875 0.75 0
0.1875 0.6875 0
0.203125 0.734375 0
0.1875 0.71875 0
0.203125 0.703125 0
0.34375 0.71875 0
0.375 0.75 0
0.3125 0.75 0
0.359375 0.734375 0
0.34375 0.75 0
0.328125 0.734375 0
0.34375 0.71875 0
0.3125 0.75 0
0.3125 0.6875 0
0.328125 0.734375 0
0.3125 0.71875 0
0.328125 0.703125 0
0.34375 0.71875 0
0.375 0.6875 0
0.375 0.75 0
0.359375 0.703125 0
0.375 0.71875 0
0.359375 0.734375 0
0.34375 0.71875 0
0.3125 0.6875 0
0.375 0.6875 0
0.328125 0.703125 0
0.34375 0.6875 0
0.359375 0.703125 0
0.28125 0.78125 0
0.25 0.75 0
0.3125 0.75 0
0.265625 0.765625 0
0.28125 0.75 0
0.296875 0.765625 0
0.28125 0.78125 0
0.3125 0.75 0
0.3125 0.8125 0
0.296875 0.765625 0
0.3125 0.78125 0
0.296875 0.796875 0
0.28125 0.78125 0
0.25 0.8125 0
0.25 0.75 0
0.265625 0.796875 0
0.25 0.78125 0
0.265625 0.765625 0
0.28125 0.78125 0
0.3125 0.8125 0
0.25 0.8125 0
0.296875 0.796875 0
0.28125 0.8125 0
0.265625 0.796875 0
0.34375 0.78125 0
0.3125 0.75 0
0.375 0.75 0
0.328125 0.765625 0
0.34375 0.75 0
0.359375 0.765625 0
0.34375 0.78125 0
0.3125 0.8125 0
0.3125 0.75 0
0.328125 0.796875 0
0.3125 0.78125 0
0.328125 0.765625 0
0.34375 0.78125 0
0.375 0.75 0
0.375 0.8125 0
0.359375 0.765625 0
0.375 0.78125 0
0.359375 0.796875 0
0.34375 0.78125 0
0.375 0.8125 0
0.3125 0.8125 0
0.359375 0.796875 0
0.34375 0.8125 0
0.328125 0.796875 0
0.40625 0.71875 0
0.375 0.75 0
0.375 0.6875 0
0.390625 0.734375 0
0.375 0.71875 0
0.390625 0.703125 0
0.40625 0.71875 0
0.375 0.6875 0
0.4375 0.6875 0
0.390625 0.703125 0
0.40625 0.6875 0
0.421875 0.703125 0
0.40625 0.71875 0
0.4375 0.75 0
0.375 0.75 0
0.421875 0.734375 0
0.40625 0.75 0
0.390625 0.734375 0
0.40625 0.71875 0
0.4375 0.6875 0
0.4375 0.75 0
0.421875 0.703125 0
0.4375 0.71875 0
0.421875 0.734375 0
0.15625 0.71875 0
0.1875 0.75 0
0.125 0.75 0
0.171875 0.734375 0
0.15625 0.75 0
0.140625 0.734375 0
0.15625 0.71875 0
0.1875 0.6875 0
0.1875 0.75 0
0.171875 0.703125 0
0.1875 0.71875 0
0.171875 0.734375 0
0.15625 0.71875 0
0.125 0.75 0
0.125 0.6875 0
0.140625 0.734375 0
0.125 0.71875 0
0.140625 0.703125 0
0.15625 0.71875 0
0.125 0.6875 0
0.1875 0.6875 0
0.140625 0.703125 0
0.15625 0.6875 0
0.171875 0.703125 0
0.21875 0.78125 0
0.1875 0.75 0
0.25 0.75 0
0.203125 0.765625 0
0.21875 0.75 0
0.234375 0.765625 0
0.21875 0.78125 0
0.1875 0.8125 0
0.1875 0.75 0
0.203125 0.796875 0
0.1875 0.78125 0
0.203125 0.765625 0
0.21875 0.78125 0
0.25 0.75 0
0.25 0.8125 0
0.234375 0.765625 0
0.25 0.78125 0
0.234375 0.796875 0
0.21875 0.78125 0
0.25 0.8125 0
0.1875 0.8125 0
0.234375 0.796875 0
0.21875 0.8125 0
0.203125 0.796875 0
0.15625 0.78125 0
0.125 0.75 0
0.1875 0.75 0
0.140625 0.765625 0
0.15625 0.75 0
0.171875 0.765625 0
0.15625 0.78125 0
0.1875 0.75 0
0.1875 0.8125 0
0.171875 0.765625 0
0.1875 0.78125 0
0.171875 0.796875 0
0.15625 0.78125 0
0.125 0.8125 0
0.125 0.75 0
0.140625 0.796875 0
0.125 0.78125 0
0.140625 0.765625 0
0.15625 0.78125 0
0.1875 0.8125 0
0.125 0.8125 0
0.171875 0.796875 0
0.15625 0.8125 0
0.140625 0.796875 0
0.09375 0.71875 0
0.125 0.6875 0
0.125 0.75 0
0.109375 0.703125 0
0.125 0.71875 0
0.109375 0.734375 0
0.09375 0.71875 0
0.0625 0.6875 0
0.125 0.6875 0
0.078125 0.703125 0
0.09375 0.6875 0
0.109375 0.703125 0
0.09375 0.71875 0
0.125 0.75 0
0.0625 0.75 0
0.109375 0.734375 0
0.09375 0.75 0
0.078125 0.734375 0
0.09375 0.71875 0
0.0625 0.75 0
0.0625 0.6875 0
0.078125 0.734375 0
0.0625 0.71875 0
0.078125 0.703125 0
0.46875 0.71875 0
0.5 0.6875 0
0.5 0.75 0
0.484375 0.703125 0
0.5 0.71875 0
0.484375 0.734375 0
0.46875 0.71875 0
0.4375 0.6875 0
0.5 0.6875 0
0.453125 0.703125 0
0.46875 0.6875 0
0.484375 0.703125 0
0.46875 0.71875 0
0.5 0.75 0
0.4375 0.75 0
0.484375 0.734375 0
0.46875 0.75 0
0.453125 0.734375 0
0.46875 0.71875 0
0.4375 0.75 0
0.4375 0.6875 0
0.453125 0.734375 0
0.4375 0.71875 0
0.453125 0.703125 0
0.53125 0.71875 0
0.5 0.75 0
0.5 0.6875 0
0.515625 0.734375 0
0.5 0.71875 0
0.515625 0.703125 0
0.53125 0.71875 0
0.5 0.6875 0
0.5625 0.6875 0
0.515625 0.703125 0
0.53125 0.6875 0
0.546875 0.703125 0
0.53125 0.71875 0
0.5625 0.75 0
0.5 0.75 0
0.546875 0.734375 0
0.53125 0.75 0
0.515625 0.734375 0
0.53125 0.71875 0
0.5625 0.6875 0
0.5625 0.75 0
0.546875 0.703125 0
0.5625 0.71875 0
0.546875 0.734375 0
0.53125 0.65625 0
0.5 0.6875 0
0.5 0.625 0
0.515625 0.671875 0
0.5 0.65625 0
0.515625 0.640625 0
0.53125 0.65625 0
0.5625 0.6875 0
0.5 0.6875 0
0.546875 0.671875 0
0.53125 0.6875 0
0.515625 0.671875 0
0.53125 0.65625 0
0.5 0.625 0
0.5625 0.625 0
0.515625 0.640625 0
0.53125 0.625 0
0.546875 0.640625 0
0.53125 0.65625 0
0.5625 0.625 0
0.5625 0.6875 0
0.546875 0.640625 0
0.5625 0.65625 0
0.546875 0.671875 0
0.46875 0.78125 0
0.4375 0.75 0
0.5 0.75 0
0.453125 0.765625 0
0.46875 0.75 0
0.484375 0.765625 0
0.46875 0.78125 0
0.4375 0.8125 0
0.4375 0.75 0
0.453125 0.796875 0
0.4375 0.78125 0
0.453125 0.765625 0
0.46875 0.78125 0
0.5 0.75 0
0.5 0.8125 0
0.484375 0.765625 0
0.5 0.78125 0
0.484375 0.796875 0
0.46875 0.78125 0
0.5 0.8125 0
0.4375 0.8125 0
0.484375 0.796875 0
0.46875 0.8125 0
0.453125 0.796875 0
0.40625 0.78125 0
0.375 0.75 0
0.4375 0.75 0
0.390625 0.765625 0
0.40625 0.75 0
0.421875 0.765625 0
0.40625 0.78125 0
0.4375 0.75 0
0.4375 0.8125 0
0.421875 0.765625 0
0.4375 0.78125 0
0.421875 0.796875 0
0.40625 0.78125 0
0.375 0.8125 0
0.375 0.75 0
0.390625 0.796875 0
0.375 0.78125 0
0.390625 0.765625 0
0.40625 0.78125 0
0.4375 0.8125 0
0.375 0.8125 0
0.421875 0.796875 0
0.40625 0.8125 0
0.390625 0.796875 0
0.59375 0.59375 0
0.625 0.625 0
0.5625 0.625 0
0.609375 0.609375 0
0.59375 0.625 0
0.578125 0.609375 0
0.59375 0.59375 0
0.5625 0.625 0
0.5625 0.5625 0
0.578125 0.609375 0
0.5625 0.59375 0
0.578125 0.578125 0
0.59375 0.59375 0
0.625 0.5625 0
0.625 0.625 0
0.609375 0.578125 0
0.625 0.59375 0
0.609375 0.609375 0
0.59375 0.59375 0
0.5625 0.5625 0
0.625 0.5625 0
0.578125 0.578125 0
0.59375 0.5625 0
0.609375 0.578125 0
0.59375 0.65625 0
0.5625 0.625 0
0.625 0.625 0
0.578125 0.640625 0
0.59375 0.625 0
0.609375 0.640625 0
0.59375 0.65625 0
0.5625 0.6875 0
0.5625 0.625 0
0.578125 0.671875 0
0.5625 0.65625 0
0.578125 0.640625 0
0.59375 0.65625 0
0.625 0.625 0
0.625 0.6875 0
0.609375 0.640625 0
0.625 0.65625 0
0.609375 0.671875 0
0.59375 0.65625 0
0.625 0.6875 0
0.5625 0.6875 0
0.609375 0.671875 0
0.59375 0.6875 0
0.578125 0.671875 0
0.65625 0.59375 0
0.625 0.625 0
0.625 0.5625 0
0.640625 0.609375 0
0.625 0.59375 0
0.640625 0.578125 0
0.65625 0.59375 0
0.625 0.5625 0
0.6875 0.5625 0
0.640625 0.578125 0
0.65625 0.5625 0
0.671875 0.578125 0
0.65625 0.59375 0
0.6875 0.625 0
0.625 0.625 0
0.671875 0.609375 0
0.65625 0.625 0
0.640625 0.609375 0
0.65625 0.59375 0
0.6875 0.5625 0
0.6875 0.625 0
0.671875 0.578125 0
0.6875 0.59375 0
0.671875 0.609375 0
0.65625 0.53125 0
0.625 0.5625 0
0.625 0.5 0
0.640625 0.546875 0
0.625 0.53125 0
0.640625 0.515625 0
0.65625 0.53125 0
0.6875 0.5625 0
0.625 0.5625 0
0.671875 0.546875 0
0.65625 0.5625 0
0.640625 0.546875 0
0.65625 0.53125 0
0.625 0.5 0
0.6875 0.5 0
0.640625 0.515625 0
0.65625 0.5 0
0.671875 0.515625 0
0.65625 0.53125 0
0.6875 0.5 0
0.6875 0.5625 0
0.671875 0.515625 0
0.6875 0.53125 0
0.671875 0.546875 0
0.59375 0.71875 0
0.625 0.75 0
0.5625 0.75 0
0.609375 0.734375 0
0.59375 0.75 0
0.578125 0.734375 0
0.59375 0.71875 0
0.5625 0.75 0
0.5625 0.6875 0
0.578125 0.734375 0
0.5625 0.71875 0
0.578125 0.703125 0
0.59375 0.71875 0
0.625 0.6875 0
0.625 0.75 0
0.609375 0.703125 0
0.625 0.71875 0
0.609375 0.734375 0
0.59375 0.71875 0
0.5625 0.6875 0
0.625 0.6875 0
0.578125 0.703125 0
0.59375 0.6875 0
0.609375 0.703125 0
0.53125 0.78125 0
0.5 0.75 0
0.5625 0.75 0
0.515625 0.765625 0
0.53125 0.75 0
0.546875 0.765625 0
0.53125 0.78125 0
0.5625 0.75 0
0.5625 0.8125 0
0.546875 0.765625 0
0.5625 0.78125 0
0.546875 0.796875 0
0.53125 0.78125 0
0.5 0.8125 0
0.5 0.75 0
0.515625 0.796875 0
0.5 0.78125 0
0.515625 0.765625 0
0.53125 0.78125 0
0.5625 0.8125 0
0.5 0.8125 0
0.546875 0.796875 0
0.53125 0.8125 0
0.515625 0.796875 0
0.59375 0.78125 0
0.5625 0.75 0
0.625 0.75 0
0.578125 0.765625 0
0.59375 0.75 0
0.609375 0.765625 0
0.59375 0.78125 0
0.5625 0.8125 0
0.5625 0.75 0
0.578125 0.796875 0
0.5625 0.78125 0
0.578125 0.765625 0
0.59375 0.78125 0
0.625 0.75 0
0.625 0.8125 0
0.609375 0.765625 0
0.625 0.78125 0
0.609375 0.796875 0
0.59375 0.78125 0
0.625 0.8125 0
0.5625 0.8125 0
0.609375 0.796875 0
0.59375 0.8125 0
0.578125 0.796875 0
0.65625 0.65625 0
0.625 0.6875 0
0.625 0.625 0
0.640625 0.671875 0
0.625 0.65625 0
0.640625 0.640625 0
0.65625 0.65625 0
0.6875 0.6875 0
0.625 0.6875 0
0.671875 0.671875 0
0.65625 0.6875 0
0.640625 0.671875 0
0.65625 0.65625 0
0.625 0.625 0
0.6875 0.625 0
0.640625 0.640625 0
0.65625 0.625 0
0.671875 0.640625 0
0.65625 0.65625 0
0.6875 0.625 0
0.6875 0.6875 0
0.671875 0.640625 0
0.6875 0.65625 0
0.671875 0.671875 0
0.65625 0.71875 0
0.625 0.75 0
0.625 0.6875 0
0.640625 0.734375 0
0.625 0.71875 0
0.640625 0.703125 0
0.65625 0.71875 0
0.625 0.6875 0
0.6875 0.6875 0
0.640625 0.703125 0
0.65625 0.6875 0
0.671875 0.703125 0
0.65625 0.71875 0
0.6875 0.75 0
0.625 0.75 0
0.671875 0.734375 0
0.65625 0.75 0
0.640625 0.734375 0
0.65625 0.71875 0
0.6875 0.6875 0
0.6875 0.75 0
0.671875 0.703125 0
0.6875 0.71875 0
0.671875 0.734375 0
0.34375 0.84375 0
0.375 0.8125 0
0.375 0.875 0
0.359375 0.828125 0
0.375 0.84375 0
0.359375 0.859375 0
0.34375 0.84375 0
0.3125 0.8125 0
0.375 0.8125 0
0.328125 0.828125 0
0.34375 0.8125 0
0.359375 0.828125 0
0.34375 0.84375 0
0.375 0.875 0
0.3125 0.875 0
0.359375 0.859375 0
0.34375 0.875 0
0.328125 0.859375 0
0.34375 0.84375 0
0.3125 0.875 0
0.3125 0.8125 0
0.328125 0.859375 0
0.3125 0.84375 0
0.328125 0.828125 0
0.40625 0.84375 0
0.375 0.875 0
0.375 0.8125 0
0.390625 0.859375 0
0.375 0.84375 0
0.390625 0.828125 0
0.40625 0.84375 0
0.375 0.8125 0
0.4375 0.8125 0
0.390625 0.828125 0
0.40625 0.8125 0
0.421875 0.828125 0
0.40625 0.84375 0
0.4375 0.875 0
0.375 0.875 0
0.421875 0.859375 0
0.40625 0.875 0
0.390625 0.859375 0
0.40625 0.84375 0
0.4375 0.8125 0
0.4375 0.875 0
0.421875 0.828125 0
0.4375 0.84375 0
0.421875 0.859375 0
0.28125 0.84375 0
0.25 0.875 0
0.25 0.8125 0
0.265625 0.859375 0
0.25 0.84375 0
0.265625 0.828125 0
0.28125 0.84375 0
0.25 0.8125 0
0.3125 0.8125 0
0.265625 0.828125 0
0.28125 0.8125 0
0.296875 0.828125 0
0.28125 0.84375 0
0.3125 0.875 0
0.25 0.875 0
0.296875 0.859375 0
0.28125 0.875 0
0.265625 0.859375 0
0.28125 0.84375 0
0.3125 0.8125 0
0.3125 0.875 0
0.296875 0.828125 0
0.3125 0.84375 0
0.296875 0.859375 0
0.21875 0.84375 0
0.25 0.8125 0
0.25 0.875 0
0.234375 0.828125 0
0.25 0.84375 0
0.234375 0.859375 0
0.21875 0.84375 0
0.1875 0.8125 0
0.25 0.8125 0
0.203125 0.828125 0
0.21875 0.8125 0
0.234375 0.828125 0
0.21875 0.84375 0
0.25 0.875 0
0.1875 0.875 0
0.234375 0.859375 0
0.21875 0.875 0
0.203125 0.859375 0
0.21875 0.84375 0
0.1875 0.875 0
0.1875 0.8125 0
0.203125 0.859375 0
0.1875 0.84375 0
0.203125 0.828125 0
0.34375 0.90625 0
0.3125 0.875 0
0.375 0.875 0
0.328125 0.890625 0
0.34375 0.875 0
0.359375 0.890625 0
0.34375 0.90625 0
0.3125 0.9375 0
0.3125 0.875 0
0.328125 0.921875 0
0.3125 0.90625 0
0.328125 0.890625 0
0.34375 0.90625 0
0.375 0.875 0
0.375 0.9375 0
0.359375 0.890625 0
0.375 0.90625 0
0.359375 0.921875 0
0.34375 0.90625 0
0.375 0.9375 0
0.3125 0.9375 0
0.359375 0.921875 0
0.34375 0.9375 0
0.328125 0.921875 0
0.28125 0.90625 0
0.25 0.875 0
0.3125 0.875 0
0.265625 0.890625 0
0.28125 0.875 0
0.296875 0.890625 0
0.28125 0.90625 0
0.3125 0.875 0
0.3125 0.9375 0
0.296875 0.890625 0
0.3125 0.90625 0
0.296875 0.921875 0
0.28125 0.90625 0
0.25 0.9375 0
0.25 0.875 0
0.265625 0.921875 0
0.25 0.90625 0
0.265625 0.890625 0
0.28125 0.90625 0
0.3125 0.9375 0
0.25 0.9375 0
0.296875 0.921875 0
0.28125 0.9375 0
0.265625 0.921875 0
0.46875 0.84375 0
0.5 0.8125 0
0.5 0.875 0
0.484375 0.828125 0
0.5 0.84375 0
0.484375 0.859375 0
0.46875 0.84375 0
0.4375 0.8125 0
0.5 0.8125 0
0.453125 0.828125 0
0.46875 0.8125 0
0.484375 0.828125 0
0.46875 0.84375 0
0.5 0.875 0
0.4375 0.875 0
0.484375 0.859375 0
0.46875 0.875 0
0.453125 0.859375 0
0.46875 0.84375 0
0.4375 0.875 0
0.4375 0.8125 0
0.453125 0.859375 0
0.4375 0.84375 0
0.453125 0.828125 0
0.53125 0.84375 0
0.5 0.875 0
0.5 0.8125 0
0.515625 0.859375 0
0.5 0.84375 0
0.515625 0.828125 0
0.53125 0.84375 0
0.5 0.8125 0
0.5625 0.8125 0
0.515625 0.828125 0
0.53125 0.8125 0
0.546875 0.828125 0
0.53125 0.84375 0
0.5625 0.875 0
0.5 0.875 0
0.546875 0.859375 0
0.53125 0.875 0
0.515625 0.859375 0
0.53125 0.84375 0
0.5625 0.8125 0
0.5625 0.875 0
0.546875 0.828125 0
0.5625 0.84375 0
0.546875 0.859375 0
0.40625 0.90625 0
0.375 0.875 0
0.4375 0.875 0
0.390625 0.890625 0
0.40625 0.875 0
0.421875 0.890625 0
0.40625 0.90625 0
0.4375 0.875 0
0.4375 0.9375 0
0.421875 0.890625 0
0.4375 0.90625 0
0.421875 0.921875 0
0.40625 0.90625 0
0.375 0.9375 0
0.375 0.875 0
0.390625 0.921875 0
0.375 0.90625 0
0.390625 0.890625 0
0.40625 0.90625 0
0.4375 0.9375 0
0.375 0.9375 0
0.421875 0.921875 0
0.40625 0.9375 0
0.390625 0.921875 0
0.46875 0.90625 0
0.4375 0.875 0
0.5 0.875 0
0.453125 0.890625 0
0.46875 0.875 0
0.484375 0.890625 0
0.46875 0.90625 0
0.4375 0.9375 0
0.4375 0.875 0
0.453125 0.921875 0
0.4375 0.90625 0
0.453125 0.890625 0
0.46875 0.90625 0
0.5 0.875 0
0.5 0.9375 0
0.484375 0.890625 0
0.5 0.90625 0
0.484375 0.921875 0
0.46875 0.90625 0
0.5 0.9375 0
0.4375 0.9375 0
0.484375 0.921875 0
0.46875 0.9375 0
0.453125 0.921875 0
0.03125 0.71875 0
0 0.75 0
0 0.6875 0
0.015625 0.734375 0
0 0.71875 0
0.015625 0.703125 0
0.03125 0.71875 0
0 0.6875 0
0.0625 0.6875 0
0.015625 0.703125 0
0.03125 0.6875 0
0.046875 0.703125 0
0.03125 0.71875 0
0.0625 0.75 0
0 0.75 0
0.046875 0.734375 0
0.03125 0.75 0
0.015625 0.734375 0
0.03125 0.71875 0
0.0625 0.6875 0
0.0625 0.75 0
0.046875 0.703125 0
0.0625 0.71875 0
0.046875 0.734375 0
0.03125 0.78125 0
0 0.75 0
0.0625 0.75 0
0.015625 0.765625 0
0.03125 0.75 0
0.046875 0.765625 0
0.03125 0.78125 0
0.0625 0.75 0
0.0625 0.8125 0
0.046875 0.765625 0
0.0625 0.78125 0
0.046875 0.796875 0
0.03125 0.78125 0
0 0.8125 0
0 0.75 0
0.015625 0.796875 0
0 0.78125 0
0.015625 0.765625 0
0.03125 0.78125 0
0.0625 0.8125 0
0 0.8125 0
0.046875 0.796875 0
0.03125 0.8125 0
0.015625 0.796875 0
0.09375 0.78125 0
0.0625 0.75 0
0.125 0.75 0
0.078125 0.765625 0
0.09375 0.75 0
0.109375 0.765625 0
0.09375 0.78125 0
0.0625 0.8125 0
0.0625 0.75 0
0.078125 0.796875 0
0.0625 0.78125 0
0.078125 0.765625 0
0.09375 0.78125 0
0.125 0.75 0
0.125 0.8125 0
0.109375 0.765625 0
0.125 0.78125 0
0.109375 0.796875 0
0.09375 0.78125 0
0.125 0.8125 0
0.0625 0.8125 0
0.109375 0.796875 0
0.09375 0.8125 0
0.078125 0.796875 0
0.15625 0.84375 0
0.125 0.875 0
0.125 0.8125 0
0.140625 0.859375 0
0.125 0.84375 0
0.140625 0.828125 0
0.15625 0.84375 0
0.125 0.8125 0
0.1875 0.8125 0
0.140625 0.828125 0
0.15625 0.8125 0
0.171875 0.828125 0
0.15625 0.84375 0
0.1875 0.875 0
0.125 0.875 0
0.171875 0.859375 0
0.15625 0.875 0
0.140625 0.859375 0
0.15625 0.84375 0
0.1875 0.8125 0
0.1875 0.875 0
0.171875 0.828125 0
0.1875 0.84375 0
0.171875 0.859375 0
0.09375 0.84375 0
0.125 0.8125 0
0.125 0.875 0
0.109375 0.828125 0
0.125 0.84375 0
0.109375 0.859375 0
0.09375 0.84375 0
0.0625 0.8125 0
0.125 0.8125 0
0.078125 0.828125 0
0.09375 0.8125 0
0.109375 0.828125 0
0.09375 0.84375 0
0.125 0.875 0
0.0625 0.875 0
0.109375 0.859375 0
0.09375 0.875 0
0.078125 0.859375 0
0.09375 0.84375 0
0.0625 0.875 0
0.0625 0.8125 0
0.078125 0.859375 0
0.0625 0.84375 0
0.078125 0.828125 0
0.15625 0.90625 0
0.125 0.875 0
0.1875 0.875 0
0.140625 0.890625 0
0.15625 0.875 0
0.171875 0.890625 0
0.15625 0.90625 0
0.1875 0.875 0
0.1875 0.9375 0
0.171875 0.890625 0
0.1875 0.90625 0
0.171875 0.921875 0
0.15625 0.90625 0
0.125 0.9375 0
0.125 0.875 0
0.140625 0.921875 0
0.125 0.90625 0
0.140625 0.890625 0
0.15625 0.90625 0
0.1875 0.9375 0
0.125 0.9375 0
0.171875 0.921875 0
0.15625 0.9375 0
0.140625 0.921875 0
0.21875 0.90625 0
0.1875 0.875 0
0.25 0.875 0
0.203125 0.890625 0
0.21875 0.875 0
0.234375 0.890625 0
0.21875 0.90625 0
0.1875 0.9375 0
0.1875 0.875 0
0.203125 0.921875 0
0.1875 0.90625 0
0.203125 0.890625 0
0.21875 0.90625 0
0.25 0.875 0
0.25 0.9375 0
0.234375 0.890625 0
0.25 0.90625 0
0.234375 0.921875 0
0.21875 0.90625 0
0.25 0.9375 0
0.1875 0.9375 0
0.234375 0.921875 0
0.21875 0.9375 0
0.203125 0.921875 0
0.03125 0.84375 0
0 0.875 0
0 0.8125 0
0.015625 0.859375 0
0 0.84375 0
0.015625 0.828125 0
0.03125 0.84375 0
0 0.8125 0
0.0625 0.8125 0
0.015625 0.828125 0
0.03125 0.8125 0
0.046875 0.828125 0
0.03125 0.84375 0
0.0625 0.875 0
0 0.875 0
0.046875 0.859375 0
0.03125 0.875 0
0.015625 0.859375 0
0.03125 0.84375 0
0.0625 0.8125 0
0.0625 0.875 0
0.046875 0.828125 0
0.0625 0.84375 0
0.046875 0.859375 0
0.09375 0.90625 0
0.0625 0.875 0
0.125 0.875 0
0.078125 0.890625 0
0.09375 0.875 0
0.109375 0.890625 0
0.09375 0.90625 0
0.0625 0.9375 0
0.0625 0.875 0
0.078125 0.921875 0
0.0625 0.90625 0
0.078125 0.890625 0
0.09375 0.90625 0
0.125 0.875 0
0.125 0.9375 0
0.109375 0.890625 0
0.125 0.90625 0
0.109375 0.921875 0
0.09375 0.90625 0
0.125 0.9375 0
0.0625 0.9375 0
0.109375 0.921875 0
0.09375 0.9375 0
0.078125 0.921875 0
0.03125 0.90625 0
0 0.875 0
0.0625 0.875 0
0.015625 0.890625 0
0.03125 0.875 0
0.046875 0.890625 0
0.03125 0.90625 0
0.0625 0.875 0
0.0625 0.9375 0
0.046875 0.890625 0
0.0625 0.90625 0
0.046875 0.921875 0
0.03125 0.90625 0
0 0.9375 0
0 0.875 0
0.015625 0.921875 0
0 0.90625 0
0.015625 0.890625 0
0.03125 0.90625 0
0.0625 0.9375 0
0 0.9375 0
0.046875 0.921875 0
0.03125 0.9375 0
0.015625 0.921875 0
0.46875 0.03125 0
0.4375 0 0
0.5 0 0
0.453125 0.015625 0
0.46875 0 0
0.484375 0.015625 0
0.46875 0.03125 0
0.4375 0.0625 0
0.4375 0 0
0.453125 0.046875 0
0.4375 0.03125 0
0.453125 0.015625 0
0.46875 0.03125 0
0.5 0 0
0.5 0.0625 0
0.484375 0.015625 0
0.5 0.03125 0
0.484375 0.046875 0
0.46875 0.03125 0
0.5 0.0625 0
0.4375 0.0625 0
0.484375 0.046875 0
0.46875 0.0625 0
0.453125 0.046875 0
0.53125 0.03125 0
0.5 0.0625 0
0.5 0 0
0.515625 0.046875 0
0.5 0.03125 0
0.515625 0.015625 0
0.53125 0.03125 0
0.5625 0.0625 0
0.5 0.0625 0
0.546875 0.046875 0
0.53125 0.0625 0
0.515625 0.046875 0
0.53125 0.03125 0
0.5 0 0
0.5625 0 0
0.515625 0.015625 0
0.53125 0 0
0.546875 0.015625 0
0.53125 0.03125 0
0.5625 0 0
0.5625 0.0625 0
0.546875 0.015625 0
0.5625 0.03125 0
0.546875 0.046875 0
0.53125 0.09375 0
0.5 0.125 0
0.5 0.0625 0
0.515625 0.109375 0
0.5 0.09375 0
0.515625 0.078125 0
0.53125 0.09375 0
0.5 0.0625 0
0.5625 0.0625 0
0.515625 0.078125 0
0.53125 0.0625 0
0.546875 0.078125 0
0.53125 0.09375 0
0.5625 0.125 0
0.5 0.125 0
0.546875 0.109375 0
0.53125 0.125 0
0.515625 0.109375 0
0.53125 0.09375 0
0.5625 0.0625 0
0.5625 0.125 0
0.546875 0.078125 0
0.5625 0.09375 0
0.546875 0.109375 0
0.59375 0.09375 0
0.625 0.125 0
0.5625 0.125 0
0.609375 0.109375 0
0.59375 0.125 0
0.578125 0.109375 0
0.59375 0.09375 0
0.5625 0.125 0
0.5625 0.0625 0
0.578125 0.109375 0
0.5625 0.09375 0
0.578125 0.078125 0
0.59375 0.09375 0
0.625 0.0625 0
0.625 0.125 0
0.609375 0.078125 0
0.625 0.09375 0
0.609375 0.109375 0
0.59375 0.09375 0
0.5625 0.0625 0
0.625 0.0625 0
0.578125 0.078125 0
0.59375 0.0625 0
0.609375 0.078125 0
0.59375 0.15625 0
0.5625 0.125 0
0.625 0.125 0
0.578125 0.140625 0
0.59375 0.125 0
0.609375 0.140625 0
0.59375 0.15625 0
0.5625 0.1875 0
0.5625 0.125 0
0.578125 0.171875 0
0.5625 0.15625 0
0.578125 0.140625 0
0.59375 0.15625 0
0.625 0.125 0
0.625 0.1875 0
0.609375 0.140625 0
0.625 0.15625 0
0.609375 0.171875 0
0.59375 0.15625 0
0.625 0.1875 0
0.5625 0.1875 0
0.609375 0.171875 0
0.59375 0.1875 0
0.578125 0.171875 0
0.59375 0.03125 0
0.5625 0 0
0.625 0 0
0.578125 0.015625 0
0.59375 0 0
0.609375 0.015625 0
0.59375 0.03125 0
0.5625 0.0625 0
0.5625 0 0
0.578125 0.046875 0
0.5625 0.03125 0
0.578125 0.015625 0
0.59375 0.03125 0
0.625 0 0
0.625 0.0625 0
0.609375 0.015625 0
0.625 0.03125 0
0.609375 0.046875 0
0.59375 0.03125 0
0.625 0.0625 0
0.5625 0.0625 0
0.609375 0.046875 0
0.59375 0.0625 0
0.578125 0.046875 0
0.65625 0.09375 0
0.625 0.125 0
0.625 0.0625 0
0.640625 0.109375 0
0.625 0.09375 0
0.640625 0.078125 0
0.65625 0.09375 0
0.625 0.0625 0
0.6875 0.0625 0
0.640625 0.078125 0
0.65625 0.0625 0
0.671875 0.078125 0
0.65625 0.09375 0
0.6875 0.125 0
0.625 0.125 0
0.671875 0.109375 0
0.65625 0.125 0
0.640625 0.109375 0
0.65625 0.09375 0
0.6875 0.0625 0
0.6875 0.125 0
0.671875 0.078125 0
0.6875 0.09375 0
0.671875 0.109375 0
0.65625 0.03125 0
0.625 0.0625 0
0.625 0 0
0.640625 0.046875 0
0.625 0.03125 0
0.640625 0.015625 0
0.65625 0.03125 0
0.6875 0.0625 0
0.625 0.0625 0
0.671875 0.046875 0
0.65625 0.0625 0
0.640625 0.046875 0
0.65625 0.03125 0
0.625 0 0
0.6875 0 0
0.640625 0.015625 0
0.65625 0 0
0.671875 0.015625 0
0.65625 0.03125 0
0.6875 0 0
0.6875 0.0625 0
0.671875 0.015625 0
0.6875 0.03125 0
0.671875 0.046875 0
0.65625 0.15625 0
0.625 0.1875 0
0.625 0.125 0
0.640625 0.171875 0
0.625 0.15625 0
0.640625 0.140625 0
0.65625 0.15625 0
0.6875 0.1875 0
0.625 0.1875 0
0.671875 0.171875 0
0.65625 0.1875 0
0.640625 0.171875 0
0.65625 0.15625 0
0.625 0.125 0
0.6875 0.125 0
0.640625 0.140625 0
0.65625 0.125 0
0.671875 0.140625 0
0.65625 0.15625 0
0.6875 0.125 0
0.6875 0.1875 0
0.671875 0.140625 0
0.6875 0.15625 0
0.671875 0.171875 0
0.65625 0.21875 0
0.625 0.25 0
0.625 0.1875 0
0.640625 0.234375 0
0.625 0.21875 0
0.640625 0.203125 0
0.65625 0.21875 0
0.625 0.1875 0
0.6875 0.1875 0
0.640625 0.203125 0
0.65625 0.1875 0
0.671875 0.203125 0
0.65625 0.21875 0
0.6875 0.25 0
0.625 0.25 0
0.671875 0.234375 0
0.65625 0.25 0
0.640625 0.234375 0
0.65625 0.21875 0
0.6875 0.1875 0
0.6875 0.25 0
0.671875 0.203125 0
0.6875 0.21875 0
0.671875 0.234375 0
0.71875 0.28125 0
0.6875 0.25 0
0.75 0.25 0
0.703125 0.265625 0
0.71875 0.25 0
0.734375 0.265625 0
0.71875 0.28125 0
0.6875 0.3125 0
0.6875 0.25 0
0.703125 0.296875 0
0.6875 0.28125 0
0.703125 0.265625 0
0.71875 0.28125 0
0.75 0.25 0
0.75 0.3125 0
0.734375 0.265625 0
0.75 0.28125 0
0.734375 0.296875 0
0.71875 0.28125 0
0.75 0.3125 0
0.6875 0.3125 0
0.734375 0.296875 0
0.71875 0.3125 0
0.703125 0.296875 0
0.71875 0.21875 0
0.75 0.25 0
0.6875 0.25 0
0.734375 0.234375 0
0.71875 0.25 0
0.703125 0.234375 0
0.71875 0.21875 0
0.6875 0.25 0
0.6875 0.1875 0
0.703125 0.234375 0
0.6875 0.21875 0
0.703125 0.203125 0
0.71875 0.21875 0
0.75 0.1875 0
0.75 0.25 0
0.734375 0.203125 0
0.75 0.21875 0
0.734375 0.234375 0
0.71875 0.21875 0
0.6875 0.1875 0
0.75 0.1875 0
0.703125 0.203125 0
0.71875 0.1875 0
0.734375 0.203125 0
0.71875 0.34375 0
0.75 0.3125 0
0.75 0.375 0
0.734375 0.328125 0
0.75 0.34375 0
0.734375 0.359375 0
0.71875 0.34375 0
0.6875 0.3125 0
0.75 0.3125 0
0.703125 0.328125 0
0.71875 0.3125 0
0.734375 0.328125 0
0.71875 0.34375 0
0.75 0.375 0
0.6875 0.375 0
0.734375 0.359375 0
0.71875 0.375 0
0.703125 0.359375 0
0.71875 0.34375 0
0.6875 0.375 0
0.6875 0.3125 0
0.703125 0.359375 0
0.6875 0.34375 0
0.703125 0.328125 0
0.78125 0.28125 0
0.75 0.3125 0
0.75 0.25 0
0.765625 0.296875 0
0.75 0.28125 0
0.765625 0.265625 0
0.78125 0.28125 0
0.8125 0.3125 0
0.75 0.3125 0
0.796875 0.296875 0
0.78125 0.3125 0
0.765625 0.296875 0
0.78125 0.28125 0
0.75 0.25 0
0.8125 0.25 0
0.765625 0.265625 0
0.78125 0.25 0
0.796875 0.265625 0
0.78125 0.28125 0
0.8125 0.25 0
0.8125 0.3125 0
0.796875 0.265625 0
0.8125 0.28125 0
0.796875 0.296875 0
0.78125 0.34375 0
0.75 0.375 0
0.75 0.3125 0
0.765625 0.359375 0
0.75 0.34375 0
0.765625 0.328125 0
0.78125 0.34375 0
0.75 0.3125 0
0.8125 0.3125 0
0.765625 0.328125 0
0.78125 0.3125 0
0.796875 0.328125 0
0.78125 0.34375 0
0.8125 0.375 0
0.75 0.375 0
0.796875 0.359375 0
0.78125 0.375 0
0.765625 0.359375 0
0.78125 0.34375 0
0.8125 0.3125 0
0.8125 0.375 0
0.796875 0.328125 0
0.8125 0.34375 0
0.796875 0.359375 0
0.71875 0.40625 0
0.6875 0.375 0
0.75 0.375 0
0.703125 0.390625 0
0.71875 0.375 0
0.734375 0.390625 0
0.71875 0.40625 0
0.6875 0.4375 0
0.6875 0.375 0
0.703125 0.421875 0
0.6875 0.40625 0
0.703125 0.390625 0
0.71875 0.40625 0
0.75 0.375 0
0.75 0.4375 0
0.734375 0.390625 0
0.75 0.40625 0
0.734375 0.421875 0
0.71875 0.40625 0
0.75 0.4375 0
0.6875 0.4375 0
0.734375 0.421875 0
0.71875 0.4375 0
0.703125 0.421875 0
0.71875 0.15625 0
0.75 0.125 0
0.75 0.1875 0
0.734375 0.140625 0
0.75 0.15625 0
0.734375 0.171875 0
0.71875 0.15625 0
0.75 0.1875 0
0.6875 0.1875 0
0.734375 0.171875 0
0.71875 0.1875 0
0.703125 0.171875 0
0.71875 0.15625 0
0.6875 0.125 0
0.75 0.125 0
0.703125 0.140625 0
0.71875 0.125 0
0.734375 0.140625 0
0.71875 0.15625 0
0.6875 0.1875 0
0.6875 0.125 0
0.703125 0.171875 0
0.6875 0.15625 0
0.703125 0.140625 0
0.78125 0.21875 0
0.75 0.25 0
0.75 0.1875 0
0.765625 0.234375 0
0.75 0.21875 0
0.765625 0.203125 0
0.78125 0.21875 0
0.75 0.1875 0
0.8125 0.1875 0
0.765625 0.203125 0
0.78125 0.1875 0
0.796875 0.203125 0
0.78125 0.21875 0
0.8125 0.25 0
0.75 0.25 0
0.796875 0.234375 0
0.78125 0.25 0
0.765625 0.234375 0
0.78125 0.21875 0
0.8125 0.1875 0
0.8125 0.25 0
0.796875 0.203125 0
0.8125 0.21875 0
0.796875 0.234375 0
0.78125 0.15625 0
0.75 0.1875 0
0.75 0.125 0
0.765625 0.171875 0
0.75 0.15625 0
0.765625 0.140625 0
0.78125 0.15625 0
0.8125 0.1875 0
0.75 0.1875 0
0.796875 0.171875 0
0.78125 0.1875 0
0.765625 0.171875 0
0.78125 0.15625 0
0.75 0.125 0
0.8125 0.125 0
0.765625 0.140625 0
0.78125 0.125 0
0.796875 0.140625 0
0.78125 0.15625 0
0.8125 0.125 0
0.8125 0.1875 0
0.796875 0.140625 0
0.8125 0.15625 0
0.796875 0.171875 0
0.71875 0.09375 0
0.75 0.125 0
0.6875 0.125 0
0.734375 0.109375 0
0.71875 0.125 0
0.703125 0.109375 0
0.71875 0.09375 0
0.6875 0.125 0
0.6875 0.0625 0
0.703125 0.109375 0
0.6875 0.09375 0
0.703125 0.078125 0
0.71875 0.09375 0
0.75 0.0625 0
0.75 0.125 0
0.734375 0.078125 0
0.75 0.09375 0
0.734375 0.109375 0
0.71875 0.09375 0
0.6875 0.0625 0
0.75 0.0625 0
0.703125 0.078125 0
0.71875 0.0625 0
0.734375 0.078125 0
0.71875 0.46875 0
0.75 0.5 0
0.6875 0.5 0
0.734375 0.484375 0
0.71875 0.5 0
0.703125 0.484375 0
0.71875 0.46875 0
0.6875 0.5 0
0.6875 0.4375 0
0.703125 0.484375 0
0.6875 0.46875 0
0.703125 0.453125 0
0.71875 0.46875 0
0.75 0.4375 0
0.75 0.5 0
0.734375 0.453125 0
0.75 0.46875 0
0.734375 0.484375 0
0.71875 0.46875 0
0.6875 0.4375 0
0.75 0.4375 0
0.703125 0.453125 0
0.71875 0.4375 0
0.734375 0.453125 0
0.71875 0.53125 0
0.6875 0.5 0
0.75 0.5 0
0.703125 0.515625 0
0.71875 0.5 0
0.734375 0.515625 0
0.71875 0.53125 0
0.6875 0.5625 0
0.6875 0.5 0
0.703125 0.546875 0
0.6875 0.53125 0
0.703125 0.515625 0
0.71875 0.53125 0
0.75 0.5 0
0.75 0.5625 0
0.734375 0.515625 0
0.75 0.53125 0
0.734375 0.546875 0
0.71875 0.53125 0
0.75 0.5625 0
0.6875 0.5625 0
0.734375 0.546875 0
0.71875 0.5625 0
0.703125 0.546875 0
0.78125 0.46875 0
0.75 0.5 0
0.75 0.4375 0
0.765625 0.484375 0
0.75 0.46875 0
0.765625 0.453125 0
0.78125 0.46875 0
0.75 0.4375 0
0.8125 0.4375 0
0.765625 0.453125 0
0.78125 0.4375 0
0.796875 0.453125 0
0.78125 0.46875 0
0.8125 0.5 0
0.75 0.5 0
0.796875 0.484375 0
0.78125 0.5 0
0.765625 0.484375 0
0.78125 0.46875 0
0.8125 0.4375 0
0.8125 0.5 0
0.796875 0.453125 0
0.8125 0.46875 0
0.796875 0.484375 0
0.78125 0.40625 0
0.75 0.4375 0
0.75 0.375 0
0.765625 0.421875 0
0.75 0.40625 0
0.765625 0.390625 0
0.78125 0.40625 0
0.8125 0.4375 0
0.75 0.4375 0
0.796875 0.421875 0
0.78125 0.4375 0
0.765625 0.421875 0
0.78125 0.40625 0
0.75 0.375 0
0.8125 0.375 0
0.765625 0.390625 0
0.78125 0.375 0
0.796875 0.390625 0
0.78125 0.40625 0
0.8125 0.375 0
0.8125 0.4375 0
0.796875 0.390625 0
0.8125 0.40625 0
0.796875 0.421875 0
0.71875 0.59375 0
0.75 0.5625 0
0.75 0.625 0
0.734375 0.578125 0
0.75 0.59375 0
0.734375 0.609375 0
0.71875 0.59375 0
0.6875 0.5625 0
0.75 0.5625 0
0.703125 0.578125 0
0.71875 0.5625 0
0.734375 0.578125 0
0.71875 0.59375 0
0.75 0.625 0
0.6875 0.625 0
0.734375 0.609375 0
0.71875 0.625 0
0.703125 0.609375 0
0.71875 0.59375 0
0.6875 0.625 0
0.6875 0.5625 0
0.703125 0.609375 0
0.6875 0.59375 0
0.703125 0.578125 0
0.78125 0.53125 0
0.75 0.5625 0
0.75 0.5 0
0.765625 0.546875 0
0.75 0.53125 0
0.765625 0.515625 0
0.78125 0.53125 0
0.8125 0.5625 0
0.75 0.5625 0
0.796875 0.546875 0
0.78125 0.5625 0
0.765625 0.546875 0
0.78125 0.53125 0
0.75 0.5 0
0.8125 0.5 0
0.765625 0.515625 0
0.78125 0.5 0
0.796875 0.515625 0
0.78125 0.53125 0
0.8125 0.5 0
0.8125 0.5625 0
0.796875 0.515625 0
0.8125 0.53125 0
0.796875 0.546875 0
0.78125 0.59375 0
0.75 0.625 0
0.75 0.5625 0
0.765625 0.609375 0
0.75 0.59375 0
0.765625 0.578125 0
0.78125 0.59375 0
0.75 0.5625 0
0.8125 0.5625 0
0.765625 0.578125 0
0.78125 0.5625 0
0.796875 0.578125 0
0.78125 0.59375 0
0.8125 0.625 0
0.75 0.625 0
0.796875 0.609375 0
0.78125 0.625 0
0.765625 0.609375 0
0.78125 0.59375 0
0.8125 0.5625 0
0.8125 0.625 0
0.796875 0.578125 0
0.8125 0.59375 0
0.796875 0.609375 0
0.71875 0.65625 0
0.6875 0.625 0
0.75 0.625 0
0.703125 0.640625 0
0.71875 0.625 0
0.734375 0.640625 0
0.71875 0.65625 0
0.6875 0.6875 0
0.6875 0.625 0
0.703125 0.671875 0
0.6875 0.65625 0
0.703125 0.640625 0
0.71875 0.65625 0
0.75 0.625 0
0.75 0.6875 0
0.734375 0.640625 0
0.75 0.65625 0
0.734375 0.671875 0
0.71875 0.65625 0
0.75 0.6875 0
0.6875 0.6875 0
0.734375 0.671875 0
0.71875 0.6875 0
0.703125 0.671875 0
0.84375 0.34375 0
0.875 0.375 0
0.8125 0.375 0
0.859375 0.359375 0
0.84375 0.375 0
0.828125 0.359375 0
0.84375 0.34375 0
0.8125 0.375 0
0.8125 0.3125 0
0.828125 0.359375 0
0.8125 0.34375 0
0.828125 0.328125 0
0.84375 0.34375 0
0.875 0.3125 0
0.875 0.375 0
0.859375 0.328125 0
0.875 0.34375 0
0.859375 0.359375 0
0.84375 0.34375 0
0.8125 0.3125 0
0.875 0.3125 0
0.828125 0.328125 0
0.84375 0.3125 0
0.859375 0.328125 0
0.84375 0.40625 0
0.8125 0.375 0
0.875 0.375 0
0.828125 0.390625 0
0.84375 0.375 0
0.859375 0.390625 0
0.84375 0.40625 0
0.8125 0.4375 0
0.8125 0.375 0
0.828125 0.421875 0
0.8125 0.40625 0
0.828125 0.390625 0
0.84375 0.40625 0
0.875 0.375 0
0.875 0.4375 0
0.859375 0.390625 0
0.875 0.40625 0
0.859375 0.421875 0
0.84375 0.40625 0
0.875 0.4375 0
0.8125 0.4375 0
0.859375 0.421875 0
0.84375 0.4375 0
0.828125 0.421875 0
0.84375 0.28125 0
0.8125 0.25 0
0.875 0.25 0
0.828125 0.265625 0
0.84375 0.25 0
0.859375 0.265625 0
0.84375 0.28125 0
0.8125 0.3125 0
0.8125 0.25 0
0.828125 0.296875 0
0.8125 0.28125 0
0.828125 0.265625 0
0.84375 0.28125 0
0.875 0.25 0
0.875 0.3125 0
0.859375 0.265625 0
0.875 0.28125 0
0.859375 0.296875 0
0.84375 0.28125 0
0.875 0.3125 0
0.8125 0.3125 0
0.859375 0.296875 0
0.84375 0.3125 0
0.828125 0.296875 0
0.84375 0.21875 0
0.875 0.25 0
0.8125 0.25 0
0.859375 0.234375 0
0.84375 0.25 0
0.828125 0.234375 0
0.84375 0.21875 0
0.8125 0.25 0
0.8125 0.1875 0
0.828125 0.234375 0
0.8125 0.21875 0
0.828125 0.203125 0
0.84375 0.21875 0
0.875 0.1875 0
0.875 0.25 0
0.859375 0.203125 0
0.875 0.21875 0
0.859375 0.234375 0
0.84375 0.21875 0
0.8125 0.1875 0
0.875 0.1875 0
0.828125 0.203125 0
0.84375 0.1875 0
0.859375 0.203125 0
0.90625 0.34375 0
0.875 0.375 0
0.875 0.3125 0
0.890625 0.359375 0
0.875 0.34375 0
0.890625 0.328125 0
0.90625 0.34375 0
0.875 0.3125 0
0.9375 0.3125 0
0.890625 0.328125 0
0.90625 0.3125 0
0.921875 0.328125 0
0.90625 0.34375 0
0.9375 0.375 0
0.875 0.375 0
0.921875 0.359375 0
0.90625 0.375 0
0.890625 0.359375 0
0.90625 0.34375 0
0.9375 0.3125 0
0.9375 0.375 0
0.921875 0.328125 0
0.9375 0.34375 0
0.921875 0.359375 0
0.90625 0.28125 0
0.875 0.3125 0
0.875 0.25 0
0.890625 0.296875 0
0.875 0.28125 0
0.890625 0.265625 0
0.90625 0.28125 0
0.9375 0.3125 0
0.875 0.3125 0
0.921875 0.296875 0
0.90625 0.3125 0
0.890625 0.296875 0
0.90625 0.28125 0
0.875 0.25 0
0.9375 0.25 0
0.890625 0.265625 0
0.90625 0.25 0
0.921875 0.265625 0
0.90625 0.28125 0
0.9375 0.25 0
0.9375 0.3125 0
0.921875 0.265625 0
0.9375 0.28125 0
0.921875 0.296875 0
0.84375 0.46875 0
0.875 0.5 0
0.8125 0.5 0
0.859375 0.484375 0
0.84375 0.5 0
0.828125 0.484375 0
0.84375 0.46875 0
0.8125 0.5 0
0.8125 0.4375 0
0.828125 0.484375 0
0.8125 0.46875 0
0.828125 0.453125 0
0.84375 0.46875 0
0.875 0.4375 0
0.875 0.5 0
0.859375 0.453125 0
0.875 0.46875 0
0.859375 0.484375 0
0.84375 0.46875 0
0.8125 0.4375 0
0.875 0.4375 0
0.828125 0.453125 0
0.84375 0.4375 0
0.859375 0.453125 0
0.84375 0.53125 0
0.8125 0.5 0
0.875 0.5 0
0.828125 0.515625 0
0.84375 0.5 0
0.859375 0.515625 0
0.84375 0.53125 0
0.8125 0.5625 0
0.8125 0.5 0
0.828125 0.546875 0
0.8125 0.53125 0
0.828125 0.515625 0
0.84375 0.53125 0
0.875 0.5 0
0.875 0.5625 0
0.859375 0.515625 0
0.875 0.53125 0
0.859375 0.546875 0
0.84375 0.53125 0
0.875 0.5625 0
0.8125 0.5625 0
0.859375 0.546875 0
0.84375 0.5625 0
0.828125 0.546875 0
0.90625 0.40625 0
0.875 0.4375 0
0.875 0.375 0
0.890625 0.421875 0
0.875 0.40625 0
0.890625 0.390625 0
0.90625 0.40625 0
0.9375 0.4375 0
0.875 0.4375 0
0.921875 0.421875 0
0.90625 0.4375 0
0.890625 0.421875 0
0.90625 0.40625 0
0.875 0.375 0
0.9375 0.375 0
0.890625 0.390625 0
0.90625 0.375 0
0.921875 0.390625 0
0.90625 0.40625 0
0.9375 0.375 0
0.9375 0.4375 0
0.921875 0.390625 0
0.9375 0.40625 0
0.921875 0.421875 0
0.90625 0.46875 0
0.875 0.5 0
0.875 0.4375 0
0.890625 0.484375 0
0.875 0.46875 0
0.890625 0.453125 0
0.90625 0.46875 0
0.875 0.4375 0
0.9375 0.4375 0
0.890625 0.453125 0
0.90625 0.4375 0
0.921875 0.453125 0
0.90625 0.46875 0
0.9375 0.5 0
0.875 0.5 0
0.921875 0.484375 0
0.90625 0.5 0
0.890625 0.484375 0
0.90625 0.46875 0
0.9375 0.4375 0
0.9375 0.5 0
0.921875 0.453125 0
0.9375 0.46875 0
0.921875 0.484375 0
0.71875 0.03125 0
0.6875 0 0
0.75 0 0
0.703125 0.015625 0
0.71875 0 0
0.734375 0.015625 0
0.71875 0.03125 0
0.6875 0.0625 0
0.6875 0 0
0.703125 0.046875 0
0.6875 0.03125 0
0.703125 0.015625 0
0.71875 0.03125 0
0.75 0 0
0.75 0.0625 0
0.734375 0.015625 0
0.75 0.03125 0
0.734375 0.046875 0
0.71875 0.03125 0
0.75 0.0625 0
0.6875 0.0625 0
0.734375 0.046875 0
0.71875 0.0625 0
0.703125 0.046875 0
0.78125 0.03125 0
0.75 0.0625 0
0.75 0 0
0.765625 0.046875 0
0.75 0.03125 0
0.765625 0.015625 0
0.78125 0.03125 0
0.8125 0.0625 0
0.75 0.0625 0
0.796875 0.046875 0
0.78125 0.0625 0
0.765625 0.046875 0
0.78125 0.03125 0
0.75 0 0
0.8125 0 0
0.765625 0.015625 0
0.78125 0 0
0.796875 0.015625 0
0.78125 0.03125 0
0.8125 0 0
0.8125 0.0625 0
0.796875 0.015625 0
0.8125 0.03125 0
0.796875 0.046875 0
0.78125 0.09375 0
0.75 0.125 0
0.75 0.0625 0
0.765625 0.109375 0
0.75 0.09375 0
0.765625 0.078125 0
0.78125 0.09375 0
0.75 0.0625 0
0.8125 0.0625 0
0.765625 0.078125 0
0.78125 0.0625 0
0.796875 0.078125 0
0.78125 0.09375 0
0.8125 0.125 0
0.75 0.125 0
0.796875 0.109375 0
0.78125 0.125 0
0.765625 0.109375 0
0.78125 0.09375 0
0.8125 0.0625 0
0.8125 0.125 0
0.796875 0.078125 0
0.8125 0.09375 0
0.796875 0.109375 0
0.84375 0.15625 0
0.8125 0.125 0
0.875 0.125 0
0.828125 0.140625 0
0.84375 0.125 0
0.859375 0.140625 0
0.84375 0.15625 0
0.8125 0.1875 0
0.8125 0.125 0
0.828125 0.171875 0
0.8125 0.15625 0
0.828125 0.140625 0
0.84375 0.15625 0
0.875 0.125 0
0.875 0.1875 0
0.859375 0.140625 0
0.875 0.15625 0
0.859375 0.171875 0
0.84375 0.15625 0
0.875 0.1875 0
0.8125 0.1875 0
0.859375 0.171875 0
0.84375 0.1875 0
0.828125 0.171875 0
0.84375 0.09375 0
0.875 0.125 0
0.8125 0.125 0
0.859375 0.109375 0
0.84375 0.125 0
0.828125 0.109375 0
0.84375 0.09375 0
0.8125 0.125 0
0.8125 0.0625 0
0.828125 0.109375 0
0.8125 0.09375 0
0.828125 0.078125 0
0.84375 0.09375 0
0.875 0.0625 0
0.875 0.125 0
0.859375 0.078125 0
0.875 0.09375 0
0.859375 0.109375 0
0.84375 0.09375 0
0.8125 0.0625 0
0.875 0.0625 0
0.828125 0.078125 0
0.84375 0.0625 0
0.859375 0.078125 0
0.90625 0.15625 0
0.875 0.1875 0
0.875 0.125 0
0.890625 0.171875 0
0.875 0.15625 0
0.890625 0.140625 0
0.90625 0.15625 0
0.9375 0.1875 0
0.875 0.1875 0
0.921875 0.171875 0
0.90625 0.1875 0
0.890625 0.171875 0
0.90625 0.15625 0
0.875 0.125 0
0.9375 0.125 0
0.890625 0.140625 0
0.90625 0.125 0
0.921875 0.140625 0
0.90625 0.15625 0
0.9375 0.125 0
0.9375 0.1875 0
0.921875 0.140625 0
0.9375 0.15625 0
0.921875 0.171875 0
0.90625 0.21875 0
0.875 0.25 0
0.875 0.1875 0
0.890625 0.234375 0
0.875 0.21875 0
0.890625 0.203125 0
0.90625 0.21875 0
0.875 0.1875 0
0.9375 0.1875 0
0.890625 0.203125 0
0.90625 0.1875 0
0.921875 0.203125 0
0.90625 0.21875 0
0.9375 0.25 0
0.875 0.25 0
0.921875 0.234375 0
0.90625 0.25 0
0.890625 0.234375 0
0.90625 0.21875 0
0.9375 0.1875 0
0.9375 0.25 0
0.921875 0.203125 0
0.9375 0.21875 0
0.921875 0.234375 0
0.84375 0.03125 0
0.8125 0 0
0.875 0 0
0.828125 0.015625 0
0.84375 0 0
0.859375 0.015625 0
0.84375 0.03125 0
0.8125 0.0625 0
0.8125 0 0
0.828125 0.046875 0
0.8125 0.03125 0
0.828125 0.015625 0
0.84375 0.03125 0
0.875 0 0
0.875 0.0625 0
0.859375 0.015625 0
0.875 0.03125 0
0.859375 0.046875 0
0.84375 0.03125 0
0.875 0.0625 0
0.8125 0.0625 0
0.859375 0.046875 0
0.84375 0.0625 0
0.828125 0.046875 0
0.90625 0.09375 0
0.875 0.125 0
0.875 0.0625 0
0.890625 0.109375 0
0.875 0.09375 0
0.890625 0.078125 0
0.90625 0.09375 0
0.875 0.0625 0
0.9375 0.0625 0
0.890625 0.078125 0
0.90625 0.0625 0
0.921875 0.078125 0
0.90625 0.09375 0
0.9375 0.125 0
0.875 0.125 0
0.921875 0.109375 0
0.90625 0.125 0
0.890625 0.109375 0
0.90625 0.09375 0
0.9375 0.0625 0
0.9375 0.125 0
0.921875 0.078125 0
0.9375 0.09375 0
0.921875 0.109375 0
0.90625 0.03125 0
0.875 0.0625 0
0.875 0 0
0.890625 0.046875 0
0.875 0.03125 0
0.890625 0.015625 0
0.90625 0.03125 0
0.9375 0.0625 0
0.875 0.0625 0
0.921875 0.046875 0
0.90625 0.0625 0
0.890625 0.046875 0
0.90625 0.03125 0
0.875 0 0
0.9375 0 0
0.890625 0.015625 0
0.90625 0 0
0.921875 0.015625 0
0.90625 0.03125 0
0.9375 0 0
0.9375 0.0625 0
0.921875 0.015625 0
0.9375 0.03125 0
0.921875 0.046875 0
0.03125 0.96875 0
0 1 0
0 0.9375 0
0.015625 0.984375 0
0 0.96875 0
0.015625 0.953125 0
0.03125 0.96875 0
0 0.9375 0
0.0625 0.9375 0
0.015625 0.953125 0
0.03125 0.9375 0
0.046875 0.953125 0
0.03125 0.96875 0
0.0625 1 0
0 1 0
0.046875 0.984375 0
0.03125 1 0
0.015625 0.984375 0
0.03125 0.96875 0
0.0625 0.9375 0
0.0625 1 0
0.046875 0.953125 0
0.0625 0.96875 0
0.046875 0.984375 0
0.09375 0.96875 0
0.125 1 0
0.0625 1 0
0.109375 0.984375 0
0.09375 1 0
0.078125 0.984375 0
0.09375 0.96875 0
0.0625 1 0
0.0625 0.9375 0
0.078125 0.984375 0
0.0625 0.96875 0
0.078125 0.953125 0
0.09375 0.96875 0
0.125 0.9375 0
0.125 1 0
0.109375 0.953125 0
0.125 0.96875 0
0.109375 0.984375 0
0.09375 0.96875 0
0.0625 0.9375 0
0.125 0.9375 0
0.078125 0.953125 0
0.09375 0.9375 0
0.109375 0.953125 0
0.15625 0.96875 0
0.125 1 0
0.125 0.9375 0
0.140625 0.984375 0
0.125 0.96875 0
0.140625 0.953125 0
0.15625 0.96875 0
0.125 0.9375 0
0.1875 0.9375 0
0.140625 0.953125 0
0.15625 0.9375 0
0.171875 0.953125 0
0.15625 0.96875 0
0.1875 1 0
0.125 1 0
0.171875 0.984375 0
0.15625 1 0
0.140625 0.984375 0
0.15625 0.96875 0
0.1875 0.9375 0
0.1875 1 0
0.171875 0.953125 0
0.1875 0.96875 0
0.171875 0.984375 0
0.21875 0.96875 0
0.25 1 0
0.1875 1 0
0.234375 0.984375 0
0.21875 1 0
0.203125 0.984375 0
0.21875 0.96875 0
0.1875 1 0
0.1875 0.9375 0
0.203125 0.984375 0
0.1875 0.96875 0
0.203125 0.953125 0
0.21875 0.96875 0
0.25 0.9375 0
0.25 1 0
0.234375 0.953125 0
0.25 0.96875 0
0.234375 0.984375 0
0.21875 0.96875 0
0.1875 0.9375 0
0.25 0.9375 0
0.203125 0.953125 0
0.21875 0.9375 0
0.234375 0.953125 0
0.28125 0.96875 0
0.25 1 0
0.25 0.9375 0
0.265625 0.984375 0
0.25 0.96875 0
0.265625 0.953125 0
0.28125 0.96875 0
0.25 0.9375 0
0.3125 0.9375 0
0.265625 0.953125 0
0.28125 0.9375 0
0.296875 0.953125 0
0.28125 0.96875 0
0.3125 1 0
0.25 1 0
0.296875 0.984375 0
0.28125 1 0
0.265625 0.984375 0
0.28125 0.96875 0
0.3125 0.9375 0
0.3125 1 0
0.296875 0.953125 0
0.3125 0.96875 0
0.296875 0.984375 0
0.34375 0.96875 0
0.375 1 0
0.3125 1 0
0.359375 0.984375 0
0.34375 1 0
0.328125 0.984375 0
0.34375 0.96875 0
0.3125 1 0
0.3125 0.9375 0
0.328125 0.984375 0
0.3125 0.96875 0
0.328125 0.953125 0
0.34375 0.96875 0
0.375 0.9375 0
0.375 1 0
0.359375 0.953125 0
0.375 0.96875 0
0.359375 0.984375 0
0.34375 0.96875 0
0.3125 0.9375 0
0.375 0.9375 0
0.328125 0.953125 0
0.34375 0.9375 0
0.359375 0.953125 0
0.40625 0.96875 0
0.375 1 0
0.375 0.9375 0
0.390625 0.984375 0
0.375 0.96875 0
0.390625 0.953125 0
0.40625 0.96875 0
0.375 0.9375 0
0.4375 0.9375 0
0.390625 0.953125 0
0.40625 0.9375 0
0.421875 0.953125 0
0.40625 0.96875 0
0.4375 1 0
0.375 1 0
0.421875 0.984375 0
0.40625 1 0
0.390625 0.984375 0
0.40625 0.96875 0
0.4375 0.9375 0
0.4375 1 0
0.421875 0.953125 0
0.4375 0.96875 0
0.421875 0.984375 0
0.46875 0.96875 0
0.5 1 0
0.4375 1 0
0.484375 0.984375 0
0.46875 1 0
0.453125 0.984375 0
0.46875 0.96875 0
0.4375 1 0
0.4375 0.9375 0
0.453125 0.984375 0
0.4375 0.96875 0
0.453125 0.953125 0
0.46875 0.96875 0
0.5 0.9375 0
0.5 1 0
0.484375 0.953125 0
0.5 0.96875 0
0.484375 0.984375 0
0.46875 0.96875 0
0.4375 0.9375 0
0.5 0.9375 0
0.453125 0.953125 0
0.46875 0.9375 0
0.484375 0.953125 0
0.53125 0.96875 0
0.5 1 0
0.5 0.9375 0
0.515625 0.984375 0
0.5 0.96875 0
0.515625 0.953125 0
0.53125 0.96875 0
0.5 0.9375 0
0.5625 0.9375 0
0.515625 0.953125 0
0.53125 0.9375 0
0.546875 0.953125 0
0.53125 0.96875 0
0.5625 1 0
0.5 1 0
0.546875 0.984375 0
0.53125 1 0
0.515625 0.984375 0
0.53125 0.96875 0
0.5625 0.9375 0
0.5625 1 0
0.546875 0.953125 0
0.5625 0.96875 0
0.546875 0.984375 0
0.53125 0.90625 0
0.5 0.9375 0
0.5 0.875 0
0.515625 0.921875 0
0.5 0.90625 0
0.515625 0.890625 0
0.53125 0.90625 0
0.5625 0.9375 0
0.5 0.9375 0
0.546875 0.921875 0
0.53125 0.9375 0
0.515625 0.921875 0
0.53125 0.90625 0
0.5 0.875 0
0.5625 0.875 0
0.515625 0.890625 0
0.53125 0.875 0
0.546875 0.890625 0
0.53125 0.90625 0
0.5625 0.875 0
0.5625 0.9375 0
0.546875 0.890625 0
0.5625 0.90625 0
0.546875 0.921875 0
0.59375 0.90625 0
0.5625 0.875 0
0.625 0.875 0
0.578125 0.890625 0
0.59375 0.875 0
0.609375 0.890625 0
0.59375 0.90625 0
0.5625 0.9375 0
0.5625 0.875 0
0.578125 0.921875 0
0.5625 0.90625 0
0.578125 0.890625 0
0.59375 0.90625 0
0.625 0.875 0
0.625 0.9375 0
0.609375 0.890625 0
0.625 0.90625 0
0.609375 0.921875 0
0.59375 0.90625 0
0.625 0.9375 0
0.5625 0.9375 0
0.609375 0.921875 0
0.59375 0.9375 0
0.578125 0.921875 0
0.59375 0.84375 0
0.625 0.875 0
0.5625 0.875 0
0.609375 0.859375 0
0.59375 0.875 0
0.578125 0.859375 0
0.59375 0.84375 0
0.5625 0.875 0
0.5625 0.8125 0
0.578125 0.859375 0
0.5625 0.84375 0
0.578125 0.828125 0
0.59375 0.84375 0
0.625 0.8125 0
0.625 0.875 0
0.609375 0.828125 0
0.625 0.84375 0
0.609375 0.859375 0
0.59375 0.84375 0
0.5625 0.8125 0
0.625 0.8125 0
0.578125 0.828125 0
0.59375 0.8125 0
0.609375 0.828125 0
0.59375 0.96875 0
0.625 1 0
0.5625 1 0
0.609375 0.984375 0
0.59375 1 0
0.578125 0.984375 0
0.59375 0.96875 0
0.5625 1 0
0.5625 0.9375 0
0.578125 0.984375 0
0.5625 0.96875 0
0.578125 0.953125 0
0.59375 0.96875 0
0.625 0.9375 0
0.625 1 0
0.609375 0.953125 0
0.625 0.96875 0
0.609375 0.984375 0
0.59375 0.96875 0
0.5625 0.9375 0
0.625 0.9375 0
0.578125 0.953125 0
0.59375 0.9375 0
0.609375 0.953125 0
0.65625 0.90625 0
0.625 0.9375 0
0.625 0.875 0
0.640625 0.921875 0
0.625 0.90625 0
0.640625 0.890625 0
0.65625 0.90625 0
0.6875 0.9375 0
0.625 0.9375 0
0.671875 0.921875 0
0.65625 0.9375 0
0.640625 0.921875 0
0.65625 0.90625 0
0.625 0.875 0
0.6875 0.875 0
0.640625 0.890625 0
0.65625 0.875 0
0.671875 0.890625 0
0.65625 0.90625 0
0.6875 0.875 0
0.6875 0.9375 0
0.671875 0.890625 0
0.6875 0.90625 0
0.671875 0.921875 0
0.65625 0.96875 0
0.625 1 0
0.625 0.9375 0
0.640625 0.984375 0
0.625 0.96875 0
0.640625 0.953125 0
0.65625 0.96875 0
0.625 0.9375 0
0.6875 0.9375 0
0.640625 0.953125 0
0.65625 0.9375 0
0.671875 0.953125 0
0.65625 0.96875 0
0.6875 1 0
0.625 1 0
0.671875 0.984375 0
0.65625 1 0
0.640625 0.984375 0
0.65625 0.96875 0
0.6875 0.9375 0
0.6875 1 0
0.671875 0.953125 0
0.6875 0.96875 0
0.671875 0.984375 0
0.65625 0.84375 0
0.625 0.875 0
0.625 0.8125 0
0.640625 0.859375 0
0.625 0.84375 0
0.640625 0.828125 0
0.65625 0.84375 0
0.625 0.8125 0
0.6875 0.8125 0
0.640625 0.828125 0
0.65625 0.8125 0
0.671875 0.828125 0
0.65625 0.84375 0
0.6875 0.875 0
0.625 0.875 0
0.671875 0.859375 0
0.65625 0.875 0
0.640625 0.859375 0
0.65625 0.84375 0
0.6875 0.8125 0
0.6875 0.875 0
0.671875 0.828125 0
0.6875 0.84375 0
0.671875 0.859375 0
0.65625 0.78125 0
0.625 0.8125 0
0.625 0.75 0
0.640625 0.796875 0
0.625 0.78125 0
0.640625 0.765625 0
0.65625 0.78125 0
0.6875 0.8125 0
0.625 0.8125 0
0.671875 0.796875 0
0.65625 0.8125 0
0.640625 0.796875 0
0.65625 0.78125 0
0.625 0.75 0
0.6875 0.75 0
0.640625 0.765625 0
0.65625 0.75 0
0.671875 0.765625 0
0.65625 0.78125 0
0.6875 0.75 0
0.6875 0.8125 0
0.671875 0.765625 0
0.6875 0.78125 0
0.671875 0.796875 0
0.71875 0.71875 0
0.75 0.75 0
0.6875 0.75 0
0.734375 0.734375 0
0.71875 0.75 0
0.703125 0.734375 0
0.71875 0.71875 0
0.6875 0.75 0
0.6875 0.6875 0
0.703125 0.734375 0
0.6875 0.71875 0
0.703125 0.703125 0
0.71875 0.71875 0
0.75 0.6875 0
0.75 0.75 0
0.734375 0.703125 0
0.75 0.71875 0
0.734375 0.734375 0
0.71875 0.71875 0
0.6875 0.6875 0
0.75 0.6875 0
0.703125 0.703125 0
0.71875 0.6875 0
0.734375 0.703125 0
0.71875 0.78125 0
0.6875 0.75 0
0.75 0.75 0
0.703125 0.765625 0
0.71875 0.75 0
0.734375 0.765625 0
0.71875 0.78125 0
0.6875 0.8125 0
0.6875 0.75 0
0.703125 0.796875 0
0.6875 0.78125 0
0.703125 0.765625 0
0.71875 0.78125 0
0.75 0.75 0
0.75 0.8125 0
0.734375 0.765625 0
0.75 0.78125 0
0.734375 0.796875 0
0.71875 0.78125 0
0.75 0.8125 0
0.6875 0.8125 0
0.734375 0.796875 0
0.71875 0.8125 0
0.703125 0.796875 0
0.78125 0.71875 0
0.75 0.75 0
0.75 0.6875 0
0.765625 0.734375 0
0.75 0.71875 0
0.765625 0.703125 0
0.78125 0.71875 0
0.75 0.6875 0
0.8125 0.6875 0
0.765625 0.703125 0
0.78125 0.6875 0
0.796875 0.703125 0
0.78125 0.71875 0
0.8125 0.75 0
0.75 0.75 0
0.796875 0.734375 0
0.78125 0.75 0
0.765625 0.734375 0
0.78125 0.71875 0
0.8125 0.6875 0
0.8125 0.75 0
0.796875 0.703125 0
0.8125 0.71875 0
0.796875 0.734375 0
0.78125 0.65625 0
0.75 0.6875 0
0.75 0.625 0
0.765625 0.671875 0
0.75 0.65625 0
0.765625 0.640625 0
0.78125 0.65625 0
0.8125 0.6875 0
0.75 0.6875 0
0.796875 0.671875 0
0.78125 0.6875 0
0.765625 0.671875 0
0.78125 0.65625 0
0.75 0.625 0
0.8125 0.625 0
0.765625 0.640625 0
0.78125 0.625 0
0.796875 0.640625 0
0.78125 0.65625 0
0.8125 0.625 0
0.8125 0.6875 0
0.796875 0.640625 0
0.8125 0.65625 0
0.796875 0.671875 0
0.71875 0.84375 0
0.75 0.8125 0
0.75 0.875 0
0.734375 0.828125 0
0.75 0.84375 0
0.734375 0.859375 0
0.71875 0.84375 0
0.6875 0.8125 0
0.75 0.8125 0
0.703125 0.828125 0
0.71875 0.8125 0
0.734375 0.828125 0
0.71875 0.84375 0
0.75 0.875 0
0.6875 0.875 0
0.734375 0.859375 0
0.71875 0.875 0
0.703125 0.859375 0
0.71875 0.84375 0
0.6875 0.875 0
0.6875 0.8125 0
0.703125 0.859375 0
0.6875 0.84375 0
0.703125 0.828125 0
0.78125 0.78125 0
0.75 0.8125 0
0.75 0.75 0
0.765625 0.796875 0
0.75 0.78125 0
0.765625 0.765625 0
0.78125 0.78125 0
0.8125 0.8125 0
0.75 0.8125 0
0.796875 0.796875 0
0.78125 0.8125 0
0.765625 0.796875 0
0.78125 0.78125 0
0.75 0.75 0
0.8125 0.75 0
0.765625 0.765625 0
0.78125 0.75 0
0.796875 0.765625 0
0.78125 0.78125 0
0.8125 0.75 0
0.8125 0.8125 0
0.796875 0.765625 0
0.8125 0.78125 0
0.796875 0.796875 0
0.78125 0.84375 0
0.75 0.875 0
0.75 0.8125 0
0.765625 0.859375 0
0.75 0.84375 0
0.765625 0.828125 0
0.78125 0.84375 0
0.75 0.8125 0
0.8125 0.8125 0
0.765625 0.828125 0
0.78125 0.8125 0
0.796875 0.828125 0
0.78125 0.84375 0
0.8125 0.875 0
0.75 0.875 0
0.796875 0.859375 0
0.78125 0.875 0
0.765625 0.859375 0
0.78125 0.84375 0
0.8125 0.8125 0
0.8125 0.875 0
0.796875 0.828125 0
0.8125 0.84375 0
0.796875 0.859375 0
0.71875 0.90625 0
0.6875 0.875 0
0.75 0.875 0
0.703125 0.890625 0
0.71875 0.875 0
0.734375 0.890625 0
0.71875 0.90625 0
0.6875 0.9375 0
0.6875 0.875 0
0.703125 0.921875 0
0.6875 0.90625 0
0.703125 0.890625 0
0.71875 0.90625 0
0.75 0.875 0
0.75 0.9375 0
0.734375 0.890625 0
0.75 0.90625 0
0.734375 0.921875 0
0.71875 0.90625 0
0.75 0.9375 0
0.6875 0.9375 0
0.734375 0.921875 0
0.71875 0.9375 0
0.703125 0.921875 0
0.84375 0.65625 0
0.8125 0.625 0
0.875 0.625 0
0.828125 0.640625 0
0.84375 0.625 0
0.859375 0.640625 0
0.84375 0.65625 0
0.8125 0.6875 0
0.8125 0.625 0
0.828125 0.671875 0
0.8125 0.65625 0
0.828125 0.640625 0
0.84375 0.65625 0
0.875 0.625 0
0.875 0.6875 0
0.859375 0.640625 0
0.875 0.65625 0
0.859375 0.671875 0
0.84375 0.65625 0
0.875 0.6875 0
0.8125 0.6875 0
0.859375 0.671875 0
0.84375 0.6875 0
0.828125 0.671875 0
0.84375 0.59375 0
0.875 0.625 0
0.8125 0.625 0
0.859375 0.609375 0
0.84375 0.625 0
0.828125 0.609375 0
0.84375 0.59375 0
0.8125 0.625 0
0.8125 0.5625 0
0.828125 0.609375 0
0.8125 0.59375 0
0.828125 0.578125 0
0.84375 0.59375 0
0.875 0.5625 0
0.875 0.625 0
0.859375 0.578125 0
0.875 0.59375 0
0.859375 0.609375 0
0.84375 0.59375 0
0.8125 0.5625 0
0.875 0.5625 0
0.828125 0.578125 0
0.84375 0.5625 0
0.859375 0.578125 0
0.84375 0.71875 0
0.875 0.75 0
0.8125 0.75 0
0.859375 0.734375 0
0.84375 0.75 0
0.828125 0.734375 0
0.84375 0.71875 0
0.8125 0.75 0
0.8125 0.6875 0
0.828125 0.734375 0
0.8125 0.71875 0
0.828125 0.703125 0
0.84375 0.71875 0
0.875 0.6875 0
0.875 0.75 0
0.859375 0.703125 0
0.875 0.71875 0
0.859375 0.734375 0
0.84375 0.71875 0
0.8125 0.6875 0
0.875 0.6875 0
0.828125 0.703125 0
0.84375 0.6875 0
0.859375 0.703125 0
0.84375 0.78125 0
0.8125 0.75 0
0.875 0.75 0
0.828125 0.765625 0
0.84375 0.75 0
0.859375 0.765625 0
0.84375 0.78125 0
0.8125 0.8125 0
0.8125 0.75 0
0.828125 0.796875 0
0.8125 0.78125 0
0.828125 0.765625 0
0.84375 0.78125 0
0.875 0.75 0
0.875 0.8125 0
0.859375 0.765625 0
0.875 0.78125 0
0.859375 0.796875 0
0.84375 0.78125 0
0.875 0.8125 0
0.8125 0.8125 0
0.859375 0.796875 0
0.84375 0.8125 0
0.828125 0.796875 0
0.90625 0.65625 0
0.875 0.6875 0
0.875 0.625 0
0.890625 0.671875 0
0.875 0.65625 0
0.890625 0.640625 0
0.90625 0.65625 0
0.9375 0.6875 0
0.875 0.6875 0
0.921875 0.671875 0
0.90625 0.6875 0
0.890625 0.671875 0
0.90625 0.65625 0
0.875 0.625 0
0.9375 0.625 0
0.890625 0.640625 0
0.90625 0.625 0
0.921875 0.640625 0
0.90625 0.65625 0
0.9375 0.625 0
0.9375 0.6875 0
0.921875 0.640625 0
0.9375 0.65625 0
0.921875 0.671875 0
0.90625 0.71875 0
0.875 0.75 0
0.875 0.6875 0
0.890625 0.734375 0
0.875 0.71875 0
0.890625 0.703125 0
0.90625 0.71875 0
0.875 0.6875 0
0.9375 0.6875 0
0.890625 0.703125 0
0.90625 0.6875 0
0.921875 0.703125 0
0.90625 0.71875 0
0.9375 0.75 0
0.875 0.75 0
0.921875 0.734375 0
0.90625 0.75 0
0.890625 0.734375 0
0.90625 0.71875 0
0.9375 0.6875 0
0.9375 0.75 0
0.921875 0.703125 0
0.9375 0.71875 0
0.921875 0.734375 0
0.90625 0.59375 0
0.875 0.625 0
0.875 0.5625 0
0.890625 0.609375 0
0.875 0.59375 0
0.890625 0.578125 0
0.90625 0.59375 0
0.875 0.5625 0
0.9375 0.5625 0
0.890625 0.578125 0
0.90625 0.5625 0
0.921875 0.578125 0
0.90625 0.59375 0
0.9375 0.625 0
0.875 0.625 0
0.921875 0.609375 0
0.90625 0.625 0
0.890625 0.609375 0
0.90625 0.59375 0
0.9375 0.5625 0
0.9375 0.625 0
0.921875 0.578125 0
0.9375 0.59375 0
0.921875 0.609375 0
0.90625 0.53125 0
0.875 0.5625 0
0.875 0.5 0
0.890625 0.546875 0
0.875 0.53125 0
0.890625 0.515625 0
0.90625 0.53125 0
0.9375 0.5625 0
0.875 0.5625 0
0.921875 0.546875 0
0.90625 0.5625 0
0.890625 0.546875 0
0.90625 0.53125 0
0.875 0.5 0
0.9375 0.5 0
0.890625 0.515625 0
0.90625 0.5 0
0.921875 0.515625 0
0.90625 0.53125 0
0.9375 0.5 0
0.9375 0.5625 0
0.921875 0.515625 0
0.9375 0.53125 0
0.921875 0.546875 0
0.71875 0.96875 0
0.75 1 0
0.6875 1 0
0.734375 0.984375 0
0.71875 1 0
0.703125 0.984375 0
0.71875 0.96875 0
0.6875 1 0
0.6875 0.9375 0
0.703125 0.984375 0
0.6875 0.96875 0
0.703125 0.953125 0
0.71875 0.96875 0
0.75 0.9375 0
0.75 1 0
0.734375 0.953125 0
0.75 0.96875 0
0.734375 0.984375 0
0.71875 0.96875 0
0.6875 0.9375 0
0.75 0.9375 0
0.703125 0.953125 0
0.71875 0.9375 0
0.734375 0.953125 0
0.78125 0.96875 0
0.75 1 0
0.75 0.9375 0
0.765625 0.984375 0
0.75 0.96875 0
0.765625 0.953125 0
0.78125 0.96875 0
0.75 0.9375 0
0.8125 0.9375 0
0.765625 0.953125 0
0.78125 0.9375 0
0.796875 0.953125 0
0.78125 0.96875 0
0.8125 1 0
0.75 1 0
0.796875 0.984375 0
0.78125 1 0
0.765625 0.984375 0
0.78125 0.96875 0
0.8125 0.9375 0
0.8125 1 0
0.796875 0.953125 0
0.8125 0.96875 0
0.796875 0.984375 0
0.78125 0.90625 0
0.75 0.9375 0
0.75 0.875 0
0.765625 0.921875 0
0.75 0.90625 0
0.765625 0.890625 0
0.78125 0.90625 0
0.8125 0.9375 0
0.75 0.9375 0
0.796875 0.921875 0
0.78125 0.9375 0
0.765625 0.921875 0
0.78125 0.90625 0
0.75 0.875 0
0.8125 0.875 0
0.765625 0.890625 0
0.78125 0.875 0
0.796875 0.890625 0
0.78125 0.90625 0
0.8125 0.875 0
0.8125 0.9375 0
0.796875 0.890625 0
0.8125 0.90625 0
0.796875 0.921875 0
0.84375 0.84375 0
0.875 0.875 0
0.8125 0.875 0
0.859375 0.859375 0
0.84375 0.875 0
0.828125 0.859375 0
0.84375 0.84375 0
0.8125 0.875 0
0.8125 0.8125 0
0.828125 0.859375 0
0.8125 0.84375 0
0.828125 0.828125 0
0.84375 0.84375 0
0.875 0.8125 0
0.875 0.875 0
0.859375 0.828125 0
0.875 0.84375 0
0.859375 0.859375 0
0.84375 0.84375 0
0.8125 0.8125 0
0.875 0.8125 0
0.828125 0.828125 0
0.84375 0.8125 0
0.859375 0.828125 0
0.84375 0.90625 0
0.8125 0.875 0
0.875 0.875 0
0.828125 0.890625 0
0.84375 0.875 0
0.859375 0.890625 0
0.84375 0.90625 0
0.8125 0.9375 0
0.8125 0.875 0
0.828125 0.921875 0
0.8125 0.90625 0
0.828125 0.890625 0
0.84375 0.90625 0
0.875 0.875 0
0.875 0.9375 0
0.859375 0.890625 0
0.875 0.90625 0
0.859375 0.921875 0
0.84375 0.90625 0
0.875 0.9375 0
0.8125 0.9375 0
0.859375 0.921875 0
0.84375 0.9375 0
0.828125 0.921875 0
0.90625 0.84375 0
0.875 0.875 0
0.875 0.8125 0
0.890625 0.859375 0
0.875 0.84375 0
0.890625 0.828125 0
0.90625 0.84375 0
0.875 0.8125 0
0.9375 0.8125 0
0.890625 0.828125 0
0.90625 0.8125 0
0.921875 0.828125 0
0.90625 0.84375 0
0.9375 0.875 0
0.875 0.875 0
0.921875 0.859375 0
0.90625 0.875 0
0.890625 0.859375 0
0.90625 0.84375 0
0.9375 0.8125 0
0.9375 0.875 0
0.921875 0.828125 0
0.9375 0.84375 0
0.921875 0.859375 0
0.90625 0.78125 0
0.875 0.8125 0
0.875 0.75 0
0.890625 0.796875 0
0.875 0.78125 0
0.890625 0.765625 0
0.90625 0.78125 0
0.9375 0.8125 0
0.875 0.8125 0
0.921875 0.796875 0
0.90625 0.8125 0
0.890625 0.796875 0
0.90625 0.78125 0
0.875 0.75 0
0.9375 0.75 0
0.890625 0.765625 0
0.90625 0.75 0
0.921875 0.765625 0
0.90625 0.78125 0
0.9375 0.75 0
0.9375 0.8125 0
0.921875 0.765625 0
0.9375 0.78125 0
0.921875 0.796875 0
0.84375 0.96875 0
0.875 1 0
0.8125 1 0
0.859375 0.984375 0
0.84375 1 0
0.828125 0.984375 0
0.84375 0.96875 0
0.8125 1 0
0.8125 0.9375 0
0.828125 0.984375 0
0.8125 0.96875 0
0.828125 0.953125 0
0.84375 0.96875 0
0.875 0.9375 0
0.875 1 0
0.859375 0.953125 0
0.875 0.96875 0
0.859375 0.984375 0
0.84375 0.96875 0
0.8125 0.9375 0
0.875 0.9375 0
0.828125 0.953125 0
0.84375 0.9375 0
0.859375 0.953125 0
0.90625 0.90625 0
0.875 0.9375 0
0.875 0.875 0
0.890625 0.921875 0
0.875 0.90625 0
0.890625 0.890625 0
0.90625 0.90625 0
0.9375 0.9375 0
0.875 0.9375 0
0.921875 0.921875 0
0.90625 0.9375 0
0.890625 0.921875 0
0.90625 0.90625 0
0.875 0.875 0
0.9375 0.875 0
0.890625 0.890625 0
0.90625 0.875 0
0.921875 0.890625 0
0.90625 0.90625 0
0.9375 0.875 0
0.9375 0.9375 0
0.921875 0.890625 0
0.9375 0.90625 0
0.921875 0.921875 0
0.90625 0.96875 0
0.875 1 0
0.875 0.9375 0
0.890625 0.984375 0
0.875 0.96875 0
0.890625 0.953125 0
0.90625 0.96875 0
0.875 0.9375 0
0.9375 0.9375 0
0.890625 0.953125 0
0.90625 0.9375 0
0.921875 0.953125 0
0.90625 0.96875 0
0.9375 1 0
0.875 1 0
0.921875 0.984375 0
0.90625 1 0
0.890625 0.984375 0
0.90625 0.96875 0
0.9375 0.9375 0
0.9375 1 0
0.921875 0.953125 0
0.9375 0.96875 0
0.921875 0.984375 0
0.96875 0.96875 0
1 1 0
0.9375 1 0
0.984375 0.984375 0
0.96875 1 0
0.953125 0.984375 0
0.96875 0.96875 0
0.9375 1 0
0.9375 0.9375 0
0.953125 0.984375 0
0.9375 0.96875 0
0.953125 0.953125 0
0.96875 0.96875 0
1 0.9375 0
1 1 0
0.984375 0.953125 0
1 0.96875 0
0.984375 0.984375 0
0.96875 0.96875 0
0.9375 0.9375 0
1 0.9375 0
0.953125 0.953125 0
0.96875 0.9375 0
0.984375 0.953125 0
0.96875 0.90625 0
1 0.875 0
1 0.9375 0
0.984375 0.890625 0
1 0.90625 0
0.984375 0.921875 0
0.96875 0.90625 0
1 0.9375 0
0.9375 0.9375 0
0.984375 0.921875 0
0.96875 0.9375 0
0.953125 0.921875 0
0.96875 0.90625 0
0.9375 0.875 0
1 0.875 0
0.953125 0.890625 0
0.96875 0.875 0
0.984375 0.890625 0
0.96875 0.90625 0
0.9375 0.9375 0
0.9375 0.875 0
0.953125 0.921875 0
0.9375 0.90625 0
0.953125 0.890625 0
0.96875 0.84375 0
1 0.875 0
0.9375 0.875 0
0.984375 0.859375 0
0.96875 0.875 0
0.953125 0.859375 0
0.96875 0.84375 0
0.9375 0.875 0
0.9375 0.8125 0
0.953125 0.859375 0
0.9375 0.84375 0
0.953125 0.828125 0
0.96875 0.84375 0
1 0.8125 0
1 0.875 0
0.984375 0.828125 0
1 0.84375 0
0.984375 0.859375 0
0.96875 0.84375 0
0.9375 0.8125 0
1 0.8125 0
0.953125 0.828125 0
0.96875 0.8125 0
0.984375 0.828125 0
0.96875 0.78125 0
1 0.75 0
1 0.8125 0
0.984375 0.765625 0
1 0.78125 0
0.984375 0.796875 0
0.96875 0.78125 0
1 0.8125 0
0.9375 0.8125 0
0.984375 0.796875 0
0.96875 0.8125 0
0.953125 0.796875 0
0.96875 0.78125 0
0.9375 0.75 0
1 0.75 0
0.953125 0.765625 0
0.96875 0.75 0
0.984375 0.765625 0
0.96875 0.78125 0
0.9375 0.8125 0
0.9375 0.75 0
0.953125 0.796875 0
0.9375 0.78125 0
0.953125 0.765625 0
0.96875 0.71875 0
1 0.75 0
0.9375 0.75 0
0.984375 0.734375 0
0.96875 0.75 0
0.953125 0.734375 0
0.96875 0.71875 0
0.9375 0.75 0
0.9375 0.6875 0
0.953125 0.734375 0
0.9375 0.71875 0
0.953125 0.703125 0
0.96875 0.71875 0
1 0.6875 0
1 0.75 0
0.984375 0.703125 0
1 0.71875 0
0.984375 0.734375 0
0.96875 0.71875 0
0.9375 0.6875 0
1 0.6875 0
0.953125 0.703125 0
0.96875 0.6875 0
0.984375 0.703125 0
0.96875 0.65625 0
1 0.625 0
1 0.6875 0
0.984375 0.640625 0
1 0.65625 0
0.984375 0.671875 0
0.96875 0.65625 0
1 0.6875 0
0.9375 0.6875 0
0.984375 0.671875 0
0.96875 0.6875 0
0.953125 0.671875 0
0.96875 0.65625 0
0.9375 0.625 0
1 0.625 0
0.953125 0.640625 0
0.96875 0.625 0
0.984375 0.640625 0
0.96875 0.65625 0
0.9375 0.6875 0
0.9375 0.625 0
0.953125 0.671875 0
0.9375 0.65625 0
0.953125 0.640625 0
0.96875 0.59375 0
1 0.625 0
0.9375 0.625 0
0.984375 0.609375 0
0.96875 0.625 0
0.953125 0.609375 0
0.96875 0.59375 0
0.9375 0.625 0
0.9375 0.5625 0
0.953125 0.609375 0
0.9375 0.59375 0
0.953125 0.578125 0
0.96875 0.59375 0
1 0.5625 0
1 0.625 0
0.984375 0.578125 0
1 0.59375 0
0.984375 0.609375 0
0.96875 0.59375 0
0.9375 0.5625 0
1 0.5625 0
0.953125 0.578125 0
0.96875 0.5625 0
0.984375 0.578125 0
0.96875 0.53125 0
1 0.5 0
1 0.5625 0
0.984375 0.515625 0
1 0.53125 0
0.984375 0.546875 0
0.96875 0.53125 0
1 0.5625 0
0.9375 0.5625 0
0.984375 0.546875 0
0.96875 0.5625 0
0.953125 0.546875 0
0.96875 0.53125 0
0.9375 0.5 0
1 0.5 0
0.953125 0.515625 0
0.96875 0.5 0
0.984375 0.515625 0
0.96875 0.53125 0
0.9375 0.5625 0
0.9375 0.5 0
0.953125 0.546875 0
0.9375 0.53125 0
0.953125 0.515625 0
0.96875 0.46875 0
1 0.5 0
0.9375 0.5 0
0.984375 0.484375 0
0.96875 0.5 0
0.953125 0.484375 0
0.96875 0.46875 0
0.9375 0.5 0
0.9375 0.4375 0
0.953125 0.484375 0
0.9375 0.46875 0
0.953125 0.453125 0
0.96875 0.46875 0
1 0.4375 0
1 0.5 0
0.984375 0.453125 0
1 0.46875 0
0.984375 0.484375 0
0.96875 0.46875 0
0.9375 0.4375 0
1 0.4375 0
0.953125 0.453125 0
0.96875 0.4375 0
0.984375 0.453125 0
0.96875 0.40625 0
1 0.375 0
1 0.4375 0
0.984375 0.390625 0
1 0.40625 0
0.984375 0.421875 0
0.96875 0.40625 0
1 0.4375 0
0.9375 0.4375 0
0.984375 0.421875 0
0.96875 0.4375 0
0.953125 0.421875 0
0.96875 0.40625 0
0.9375 0.375 0
1 0.375 0
0.953125 0.390625 0
0.96875 0.375 0
0.984375 0.390625 0
0.96875 0.40625 0
0.9375 0.4375 0
0.9375 0.375 0
0.953125 0.421875 0
0.9375 0.40625 0
0.953125 0.390625 0
0.96875 0.34375 0
1 0.375 0
0.9375 0.375 0
0.984375 0.359375 0
0.96875 0.375 0
0.953125 0.359375 0
0.96875 0.34375 0
0.9375 0.375 0
0.9375 0.3125 0
0.953125 0.359375 0
0.9375 0.34375 0
0.953125 0.328125 0
0.96875 0.34375 0
1 0.3125 0
1 0.375 0
0.984375 0.328125 0
1 0.34375 0
0.984375 0.359375 0
0.96875 0.34375 0
0.9375 0.3125 0
1 0.3125 0
0.953125 0.328125 0
0.96875 0.3125 0
0.984375 0.328125 0
0.96875 0.28125 0
1 0.25 0
1 0.3125 0
0.984375 0.265625 0
1 0.28125 0
0.984375 0.296875 0
0.96875 0.28125 0
1 0.3125 0
0.9375 0.3125 0
0.984375 0.296875 0
0.96875 0.3125 0
0.953125 0.296875 0
0.96875 0.28125 0
0.9375 0.25 0
1 0.25 0
0.953125 0.265625 0
0.96875 0.25 0
0.984375 0.265625 0
0.96875 0.28125 0
0.9375 0.3125 0
0.9375 0.25 0
0.953125 0.296875 0
0.9375 0.28125 0
0.953125 0.265625 0
0.96875 0.21875 0
1 0.25 0
0.9375 0.25 0
0.984375 0.234375 0
0.96875 0.25 0
0.953125 0.234375 0
0.96875 0.21875 0
0.9375 0.25 0
0.9375 0.1875 0
0.953125 0.234375 0
0.9375 0.21875 0
0.953125 0.203125 0
0.96875 0.21875 0
1 0.1875 0
1 0.25 0
0.984375 0.203125 0
1 0.21875 0
0.984375 0.234375 0
0.96875 0.21875 0
0.9375 0.1875 0
1 0.1875 0
0.953125 0.203125 0
0.96875 0.1875 0
0.984375 0.203125 0
0.96875 0.15625 0
1 0.125 0
1 0.1875 0
0.984375 0.140625 0
1 0.15625 0
0.984375 0.171875 0
0.96875 0.15625 0
1 0.1875 0
0.9375 0.1875 0
0.984375 0.171875 0
0.96875 0.1875 0
0.953125 0.171875 0
0.96875 0.15625 0
0.9375 0.125 0
1 0.125 0
0.953125 0.140625 0
0.96875 0.125 0
0.984375 0.140625 0
0.96875 0.15625 0
0.9375 0.1875 0
0.9375 0.125 0
0.953125 0.171875 0
0.9375 0.15625 0
0.953125 0.140625 0
0.96875 0.09375 0
1 0.125 0
0.9375 0.125 0
0.984375 0.109375 0
0.96875 0.125 0
0.953125 0.109375 0
0.96875 0.09375 0
0.9375 0.125 0
0.9375 0.0625 0
0.953125 0.109375 0
0.9375 0.09375 0
0.953125 0.078125 0
0.96875 0.09375 0
1 0.0625 0
1 0.125 0
0.984375 0.078125 0
1 0.09375 0
0.984375 0.109375 0
0.96875 0.09375 0
0.9375 0.0625 0
1 0.0625 0
0.953125 0.078125 0
0.96875 0.0625 0
0.984375 0.078125 0
0.96875 0.03125 0
0.9375 0 0
1 0 0
0.953125 0.015625 0
0.96875 0 0
0.984375 0.015625 0
0.96875 0.03125 0
0.9375 0.0625 0
0.9375 0 0
0.953125 0.046875 0
0.9375 0.03125 0
0.953125 0.015625 0
0.96875 0.03125 0
1 0 0
1 0.0625 0
0.984375 0.015625 0
1 0.03125 0
0.984375 0.046875 0
0.96875 0.03125 0
1 0.0625 0
0.9375 0.0625 0
0.984375 0.046875 0
0.96875 0.0625 0
0.953125 0.046875 0

CELLS 1024 7168
6 0 1 2 3 4 5
6 6 7 8 9 10 11
6 12 13 14 15 16 17
6 18 19 20 21 22 23
6 24 25 26 27 28 29
6 30 31 32 33 34 35
6 36 37 38 39 40 41
6 42 43 44 45 46 47
6 48 49 50 51 52 53
6 54 55 56 57 58 59
6 60 61 62 63 64 65
6 66 67 68 69 70 71
6 72 73 74 75 76 77
6 78 79 80 81 82 83
6 84 85 86 87 88 89
6 90 91 92 93 94 95
6 96 97 98 99 100 101
6 102 103 104 105 106 107
6 108 109 110 111 112 113
6 114 115 116 117 118 119
6 120 121 122 123 124 125
6 126 127 128 129 130 131
6 132 133 134 135 136 137
6 138 139 140 141 142 143
6 144 145 146 147 148 149
6 150 151 152 153 154 155
6 156 157 158 159 160 161
6 162 163 164 165 166 167
6 168 169 170 171 172 173
6 174 175 176 177 178 179
6 180 181 182 183 184 185
6 186 187 188 189 190 191
6 192 193 194 195 196 197
6 198 199 200 201 202 203
6 204 205 206 207 208 209
6 210 211 212 213 214 215
6 216 217 218 219 220 221
6 222 223 224 225 226 227
6 228 229 230 231 232 233
6 234 235 236 237 238 239
6 240 241 242 243 244 245
6 246 247 248 249 250 251
6 252 253 254 255 256 257
6 258 259 260 261 262 263
6 264 265 266 267 268 269
6 270 271 272 273 274 275
6 276 277 278 279 280 281
6 282 283 284 285 286 287
6 288 289 290 291 292 293
6 294 295 296 297 298 299
6 300 301 302 303 304 305
6 306 307 308 309 310 311
6 312 313 314 315 316 317
6 318 319 320 321 322 323
6 324 325 326 327 328 329
6 330 331 332 333 334 335
6 336 337 338 339 340 341
6 342 343 344 345 346 347
6 348 349 350 351 352 353
6 354 355 356 357 358 359
6 360 361 362 363 364 365
6 366 367 368 369 370 371
6 372 373 374 375 376 377
6 378 379 380 381 382 383
6 384 385 386 387 388 389
6 390 391 392 393 394 395
6 396 397 398 399 400 401
6 402 403 404 405 406 407
6 408 409 410 411 412 413
6 414 415 416 417 418 419
6 420 421 422 423 424 425
6 426 427 428 429 430 431
6 432 433 434 435 436 437
6 438 439 440 441 442 443
6 444 445 446 447 448 449
6 450 451 452 453 454 455
6 456 457 458 459 460 461
6 462 463 464 465 466 467
6 468 469 470 471 472 473
6 474 475 476 477 478 479
6 480 481 482 483 484 485
6 486 487 488 489 490 491
6 492 493 494 495 496 497
6 498 499 500 501 502 503
6 504 505 506 507 508 509
6 510 511 512 513 514 515
6 516 517 518 519 520 521
6 522 523 524 525 526 527
6 528 529 530 531 532 533
6 534 535 536 537 538 539
6 540 541 542 543 544 545
6 546 547 548 549 550 551
6 552 553 554 555 556 557
6 558 559 560 561 562 563
6 564 565 566 567 568 569
6 570 571 572 573 574 575
6 576 577 578 579 580 581
6 582 583 584 585 586 587
6 588 589 590 591 592 593
6 594 595 596 597 598 599
6 600 601 602 603 604 605
6 606 607 608 609 610 611
6 612 613 614 615 616 617
6 618 619 620 621 622 623
6 624 625 626 627 628 629
6 630 631 632 633 634 635
6 636 637 638 639 640 641
6 642 643 644 645 646 647
6 648 649 650 651 652 653
6 654 655 656 657 658 659
6 660 661 662 663 664 665
6 666 667 668 669 670 671
6 672 673 674 675 676 677
6 678 679 680 681 682 683
6 684 685 686 687 688 689
6 690 691 692 693 694 695
6 696 697 698 699 700 701
6 702 703 704 705 706 707
6 708 709 710 711 712 713
6 714 715 716 717 718 719
6 720 721 722 723 724 725
6 726 727 728 729 730 731
6 732 733 734 735 736 737
6 738 739 740 741 742 743
6 744 745 746 747 748 749
6 750 751 752 753 754 755
6 756 757 758 759 760 761
6 762 763 764 765 766 767
6 768 769 770 771 772 773
6 774 775 776 777 778 779
6 780 781 782 783 784 785
6 786 787 788 789 790 791
6 792 793 794 795 796 797
6 798 799 800 801 802 803
6 804 805 806 807 808 809
6 810 811 812 813 814 815
6 816 817 818 819 820 821
6 822 823 824 825 826 827
6 828 829 830 831 832 833
6 834 835 836 837 838 839
6 840 841 842 843 844 845
6 846 847 848 849 850 851
6 852 853 854 855 856 857
6 858 859 860 861 862 863
6 864 865 866 867 868 869
6 870 871 872 873 874 875
6 876 877 878 879 880 881
6 882 883 884 885 886 887
6 888 889 890 891 892 893
6 894 895 896 897 898 899
6 900 901 902 903 904 905
6 906 907 908 909 910 911
6 912 913 914 915 916 917
6 918 919 920 921 922 923
6 924 925 926 927 928 929
6 930 931 932 933 934 935
6 936 937 938 939 940 941
6 942 943 944 945 946 947
6 948 949 950 951 952 953
6 954 955 956 957 958 959
6 960 961 962 963 964 965
6 966 967 968 969 970 971
6 972 973 974 975 976 977
6 978 979 980 981 982 983
6 984 985 986 987 988 989
6 990 991 992 993 994 995
6 996 997 998 999 1000 1001
6 1002 1003 1004 1005 1006 1007
6 1008 1009 1010 1011 1012 1013
6 1014 1015 1016 1017 1018 1019
6 1020 1021 1022 1023 1024 1025
6 1026 1027 1028 1029 1030 1031
6 1032 1033 1034 1035 1036 1037
6 1038 1039 1040 1041 1042 1043
6 1044 1045 1046 1047 1048 1049
6 1050 1051 1052 1053 1054 1055
6 1056 1057 1058 1059 1060 1061
6 1062 1063 1064 1065 1066 1067
6 1068 1069 1070 1071 1072 1073
6 1074 1075 1076 1077 1078 1079
6 1080 1081 1082 1083 1084 1085
6 1086 1087 1088 1089 1090 1091
6 1092 1093 1094 1095 1096 1097
6 1098 1099 1100 1101 1102 1103
6 1104 1105 1106 1107 1108 1109
6 1110 1111 1112 1113 1114 1115
6 1116 1117 1118 1119 1120 1121
6 1122 1123 1124 1125 1126 1127
6 1128 1129 1130 1131 1132 1133
6 1134 1135 1136 1137 1138 1139
6 1140 1141 1142 1143 1144 1145
6 1146 1147 1148 1149 1150 1151
6 1152 1153 1154 1155 1156 1157
6 1158 1159 1160 1161 1162 1163
6 1164 1165 1166 1167 1168 1169
6 1170 1171 1172 1173 1174 1175
6 1176 1177 1178 1179 1180 1181
6 1182 1183 1184 1185 1186 1187
6 1188 1189 1190 1191 1192 1193
6 1194 1195 1196 1197 1198 1199
6 1200 1201 1202 1203 1204 1205
6 1206 1207 1208 1209 1210 1211
6 1212 1213 1214 1215 1216 1217
6 1218 1219 1220 1221 1222 1223
6 1224 1225 1226 1227 1228 1229
6 1230 1231 1232 1233 1234 1235
6 1236 1237 1238 1239 1240 1241
6 1242 1243 1244 1245 1246 1247
6 1248 1249 1250 1251 1252 1253
6 1254 1255 1256 1257 1258 1259
6 1260 1261 1262 1263 1264 1265
6 1266 1267 1268 1269 1270 1271
6 1272 1273 1274 1275 1276 1277
6 1278 1279 1280 1281 1282 1283
6 1284 1285 1286 1287 1288 1289
6 1290 1291 1292 1293 1294 1295
6 1296 1297 1298 1299 1300 1301
6 1302 1303 1304 1305 1306 1307
6 1308 1309 1310 1311 1312 1313
6 1314 1315 1316 1317 1318 1319
6 1320 1321 1322 1323 1324 1325
6 1326 1327 1328 1329 1330 1331
6 1332 1333 1334 1335 1336 1337
6 1338 1339 1340 1341 1342 1343
6 1344 1345 1346 1347 1348 1349
6 1350 1351 1352 1353 1354 1355
6 1356 1357 1358 1359 1360 1361
6 1362 1363 1364 1365 1366 1367
6 1368 1369 1370 1371 1372 1373
6 1374 1375 1376 1377 1378 1379
6 1380 1381 1382 1383 1384 1385
6 1386 1387 1388 1389 1390 1391
6 1392 1393 1394 1395 1396 1397
6 1398 1399 1400 1401 1402 1403
6 1404 1405 1406 1407 1408 1409
6 1410 1411 1412 1413 1414 1415
6 1416 1417 1418 1419 1420 1421
6 1422 1423 1424 1425 1426 1427
6 1428 1429 1430 1431 1432 1433
6 1434 1435 1436 1437 1438 1439
6 1440 1441 1442 1443 1444 1445
6 1446 1447 1448 1449 1450 1451
6 1452 1453 1454 1455 1456 1457
6 1458 1459 1460 1461 1462 1463
6 1464 1465 1466 1467 1468 1469
6 1470 1471 1472 1473 1474 1475
6 1476 1477 1478 1479 1480 1481
6 1482 1483 1484 1485 1486 1487
6 1488 1489 1490 1491 1492 1493
6 1494 1495 1496 1497 1498 1499
6 1500 1501 1502 1503 1504 1505
6 1506 1507 1508 1509 1510 1511
6 1512 1513 1514 1515 1516 1517
6 1518 1519 1520 1521 1522 1523
6 1524 1525 1526 1527 1528 1529
6 1530 1531 1532 1533 1534 1535
6 1536 1537 1538 1539 1540 1541
6 1542 1543 1544 1545 1546 1547
6 1548 1549 1550 1551 1552 1553
6 1554 1555 1556 1557 1558 1559
6 1560 1561 1562 1563 1564 1565
6 1566 1567 1568 1569 1570 1571
6 1572 1573 1574 1575 1576 1577
6 1578 1579 1580 1581 1582 1583
6 1584 1585 1586 1587 1588 1589
6 1590 1591 1592 1593 1594 1595
6 1596 1597 1598 1599 1600 1601
6 1602 1603 1604 1605 1606 1607
6 1608 1609 1610 1611 1612 1613
6 1614 1615 1616 1617 1618 1619
6 1620 1621 1622 1623 1624 1625
6 1626 1627 1628 1629 1630 1631
6 1632 1633 1634 1635 1636 1637
6 1638 1639 1640 1641 1642 1643
6 1644 1645 1646 1647 1648 1649
6 1650 1651 1652 1653 1654 1655
6 1656 1657 1658 1659 1660 1661
6 1662 1663 1664 1665 1666 1667
6 1668 1669 1670 1671 1672 1673
6 1674 1675 1676 1677 1678 1679
6 1680 1681 1682 1683 1684 1685
6 1686 1687 1688 1689 1690 1691
6 1692 1693 1694 1695 1696 1697
6 1698 1699 1700 1701 1702 1703
6 1704 1705 1706 1707 1708 1709
6 1710 1711 1712 1713 1714 1715
6 1716 1717 1718 1719 1720 1721
6 1722 1723 1724 1725 1726 1727
6 1728 1729 1730 1731 1732 1733
6 1734 1735 1736 1737 1738 1739
6 1740 1741 1742 1743 1744 1745
6 1746 1747 1748 1749 1750 1751
6 1752 1753 1754 1755 1756 1757
6 1758 1759 1760 1761 1762 1763
6 1764 1765 1766 1767 1768 1769
6 1770 1771 1772 1773 1774 1775
6 1776 1777 1778 1779 1780 1781
6 1782 1783 1784 1785 1786 1787
6 1788 1789 1790 1791 1792 1793
6 1794 1795 1796 1797 1798 1799
6 1800 1801 1802 1803 1804 1805
6 1806 1807 1808 1809 1810 1811
6 1812 1813 1814 1815 1816 1817
6 1818 1819 1820 1821 1822 1823
6 1824 1825 1826 1827 1828 1829
6 1830 1831 1832 1833 1834 1835
6 1836 1837 1838 1839 1840 1841
6 1842 1843 1844 1845 1846 1847
6 1848 1849 1850 1851 1852 1853
6 1854 1855 1856 1857 1858 1859
6 1860 1861 1862 1863 1864 1865
6 1866 1867 1868 1869 1870 1871
6 1872 1873 1874 1875 1876 1877
6 1878 1879 1880 1881 1882 1883
6 1884 1885 1886 1887 1888 1889
6 1890 1891 1892 1893 1894 1895
6 1896 1897 1898 1899 1900 1901
6 1902 1903 1904 1905 1906 1907
6 1908 1909 1910 1911 1912 1913
6 1914 1915 1916 1917 1918 1919
6 1920 1921 1922 1923 1924 1925
6 1926 1927 1928 1929 1930 1931
6 1932 1933 1934 1935 1936 1937
6 1938 1939 1940 1941 1942 1943
6 1944 1945 1946 1947 1948 1949
6 1950 1951 1952 1953 1954 1955
6 1956 1957 1958 1959 1960 1961
6 1962 1963 1964 1965 1966 1967
6 1968 1969 1970 1971 1972 1973
6 1974 1975 1976 1977 1978 1979
6 1980 1981 1982 1983 1984 1985
6 1986 1987 1988 1989 1990 1991
6 1992 1993 1994 1995 1996 1997
6 1998 1999 2000 2001 2002 2003
6 2004 2005 2006 2007 2008 2009
6 2010 2011 2012 2013 2014 2015
6 2016 2017 2018 2019 2020 2021
6 2022 2023 2024 2025 2026 2027
6 2028 2029 2030 2031 2032 2033
6 2034 2035 2036 2037 2038 2039
6 2040 2041 2042 2043 2044 2045
6 2046 2047 2048 2049 2050 2051
6 2052 2053 2054 2055 2056 2057
6 2058 2059 2060 2061 2062 2063
6 2064 2065 2066 2067 2068 2069
6 2070 2071 2072 2073 2074 2075
6 2076 2077 2078 2079 2080 2081
6 2082 2083 2084 2085 2086 2087
6 2088 2089 2090 2091 2092 2093
6 2094 2095 2096 2097 2098 2099
6 2100 2101 2102 2103 2104 2105
6 2106 2107 2108 2109 2110 2111
6 2112 2113 2114 2115 2116 2117
6 2118 2119 2120 2121 2122 2123
6 2124 2125 2126 2127 2128 2129
6 2130 2131 2132 2133 2134 2135
6 2136 2137 2138 2139 2140 2141
6 2142 2143 2144 2145 2146 2147
6 2148 2149 2150 2151 2152 2153
6 2154 2155 2156 2157 2158 2159
6 2160 2161 2162 2163 2164 2165
6 2166 2167 2168 2169 2170 2171
6 2172 2173 2174 2175 2176 2177
6 2178 2179 2180 2181 2182 2183
6 2184 2185 2186 2187 2188 2189
6 2190 2191 2192 2193 2194 2195
6 2196 2197 2198 2199 2200 2201
6 2202 2203 2204 2205 2206 2207
6 2208 2209 2210 2211 2212 2213
6 2214 2215 2216 2217 2218 2219
6 2220 2221 2222 2223 2224 2225
6 2226 2227 2228 2229 2230 2231
6 2232 2233 2234 2235 2236 2237
6 2238 2239 2240 2241 2242 2243
6 2244 2245 2246 2247 2248 2249
6 2250 2251 2252 2253 2254 2255
6 2256 2257 2258 2259 2260 2261
6 2262 2263 2264 2265 2266 2267
6 2268 2269 2270 2271 2272 2273
6 2274 2275 2276 2277 2278 2279
6 2280 2281 2282 2283 2284 2285
6 2286 2287 2288 2289 2290 2291
6 2292 2293 2294 2295 2296 2297
6 2298 2299 2300 2301 2302 2303
6 2304 2305 2306 2307 2308 2309
6 2310 2311 2312 2313 2314 2315
6 2316 2317 2318 2319 2320 2321
6 2322 2323 2324 2325 2326 2327
6 2328 2329 2330 2331 2332 2333
6 2334 2335 2336 2337 2338 2339
6 2340 2341 2342 2343 2344 2345
6 2346 2347 2348 2349 2350 2351
6 2352 2353 2354 2355 2356 2357
6 2358 2359 2360 2361 2362 2363
6 2364 2365 2366 2367 2368 2369
6 2370 2371 2372 2373 2374 2375
6 2376 2377 2378 2379 2380 2381
6 2382 2383 2384 2385 2386 2387
6 2388 2389 2390 2391 2392 2393
6 2394 2395 2396 2397 2398 2399
6 2400 2401 2402 2403 2404 2405
6 2406 2407 2408 2409 2410 2411
6 2412 2413 2414 2415 2416 2417
6 2418 2419 2420 2421 2422 2423
6 2424 2425 2426 2427 2428 2429
6 2430 2431 2432 2433 2434 2435
6 2436 2437 2438 2439 2440 2441
6 2442 2443 2444 2445 2446 2447
6 2448 2449 2450 2451 2452 2453
6 2454 2455 2456 2457 2458 2459
6 2460 2461 2462 2463 2464 2465
6 2466 2467 2468 2469 2470 2471
6 2472 2473 2474 2475 2476 2477
6 2478 2479 2480 2481 2482 2483
6 2484 2485 2486 2487 2488 2489
6 2490 2491 2492 2493 2494 2495
6 2496 2497 2498 2499 2500 2501
6 2502 2503 2504 2505 2506 2507
6 2508 2509 2510 2511 2512 2513
6 2514 2515 2516 2517 2518 2519
6 2520 2521 2522 2523 2524 2525
6 2526 2527 2528 2529 2530 2531
6 2532 2533 2534 2535 2536 2537
6 2538 2539 2540 2541 2542 2543
6 2544 2545 2546 2547 2548 2549
6 2550 2551 2552 2553 2554 2555
6 2556 2557 2558 2559 2560 2561
6 2562 2563 2564 2565 2566 2567
6 2568 2569 2570 2571 2572 2573
6 2574 2575 2576 2577 2578 2579
6 2580 2581 2582 2583 2584 2585
6 2586 2587 2588 2589 2590 2591
6 2592 2593 2594 2595 2596 2597
6 2598 2599 2600 2601 2602 2603
6 2604 2605 2606 2607 2608 2609
6 2610 2611 2612 2613 2614 2615
6 2616 2617 2618 2619 2620 2621
6 2622 2623 2624 2625 2626 2627
6 2628 2629 2630 2631 2632 2633
6 2634 2635 2636 2637 2638 2639
6 2640 2641 2642 2643 2644 2645
6 2646 2647 2648 2649 2650 2651
6 2652 2653 2654 2655 2656 2657
6 2658 2659 2660 2661 2662 2663
6 2664 2665 2666 2667 2668 2669
6 2670 2671 2672 2673 2674 2675
6 2676 2677 2678 2679 2680 2681
6 2682 2683 2684 2685 2686 2687
6 2688 2689 2690 2691 2692 2693
6 2694 2695 2696 2697 2698 2699
6 2700 2701 2702 2703 2704 2705
6 2706 2707 2708 2709 2710 2711
6 2712 2713 2714 2715 2716 2717
6 2718 2719 2720 2721 2722 2723
6 2724 2725 2726 2727 2728 2729
6 2730 2731 2732 2733 2734 2735
6 2736 2737 2738 2739 2740 2741
6 2742 2743 2744 2745 2746 2747
6 2748 2749 2750 2751 2752 2753
6 2754 2755 2756 2757 2758 2759
6 2760 2761 2762 2763 2764 2765
6 2766 2767 2768 2769 2770 2771
6 2772 2773 2774 2775 2776 2777
6 2778 2779 2780 2781 2782 2783
6 2784 2785 2786 2787 2788 2789
6 2790 2791 2792 2793 2794 2795
6 2796 2797 2798 2799 2800 2801
6 2802 2803 2804 2805 2806 2807
6 2808 2809 2810 2811 2812 2813
6 2814 2815 2816 2817 2818 2819
6 2820 2821 2822 2823 2824 2825
6 2826 2827 2828 2829 2830 2831
6 2832 2833 2834 2835 2836 2837
6 2838 2839 2840 2841 2842 2843
6 2844 2845 2846 2847 2848 2849
6 2850 2851 2852 2853 2854 2855
6 2856 2857 2858 2859 2860 2861
6 2862 2863 2864 2865 2866 2867
6 2868 2869 2870 2871 2872 2873
6 2874 2875 2876 2877 2878 2879
6 2880 2881 2882 2883 2884 2885
6 2886 2887 2888 2889 2890 2891
6 2892 2893 2894 2895 2896 2897
6 2898 2899 2900 2901 2902 2903
6 2904 2905 2906 2907 2908 2909
6 2910 2911 2912 2913 2914 2915
6 2916 2917 2918 2919 2920 2921
6 2922 2923 2924 2925 2926 2927
6 2928 2929 2930 2931 2932 2933
6 2934 2935 2936 2937 2938 2939
6 2940 2941 2942 2943 2944 2945
6 2946 2947 2948 2949 2950 2951
6 2952 2953 2954 2955 2956 2957
6 2958 2959 2960 2961 2962 2963
6 2964 2965 2966 2967 2968 2969
6 2970 2971 2972 2973 2974 2975
6 2976 2977 2978 2979 2980 2981
6 2982 2983 2984 2985 2986 2987
6 2988 2989 2990 2991 2992 2993
6 2994 2995 2996 2997 2998 2999
6 3000 3001 3002 3003 3004 3005
6 3006 3007 3008 3009 3010 3011
6 3012 3013 3014 3015 3016 3017
6 3018 3019 3020 3021 3022 3023
6 3024 3025 3026 3027 3028 3029
6 3030 3031 3032 3033 3034 3035
6 3036 3037 3038 3039 3040 3041
6 3042 3043 3044 3045 3046 3047
6 3048 3049 3050 3051 3052 3053
6 3054 3055 3056 3057 3058 3059
6 3060 3061 3062 3063 3064 3065
6 3066 3067 3068 3069 3070 3071
6 3072 3073 3074 3075 3076 3077
6 3078 3079 3080 3081 3082 3083
6 3084 3085 3086 3087 3088 3089
6 3090 3091 3092 3093 3094 3095
6 3096 3097 3098 3099 3100 3101
6 3102 3103 3104 3105 3106 3107
6 3108 3109 3110 3111 3112 3113
6 3114 3115 3116 3117 3118 3119
6 3120 3121 3122 3123 3124 3125
6 3126 3127 3128 3129 3130 3131
6 3132 3133 3134 3135 3136 3137
6 3138 3139 3140 3141 3142 3143
6 3144 3145 3146 3147 3148 3149
6 3150 3151 3152 3153 3154 3155
6 3156 3157 3158 3159 3160 3161
6 3162 3163 3164 3165 3166 3167
6 3168 3169 3170 3171 3172 3173
6 3174 3175 3176 3177 3178 3179
6 3180 3181 3182 3183 3184 3185
6 3186 3187 3188 3189 3190 3191
6 3192 3193 3194 3195 3196 3197
6 3198 3199 3200 3201 3202 3203
6 3204 3205 3206 3207 3208 3209
6 3210 3211 3212 3213 3214 3215
6 3216 3217 3218 3219 3220 3221
6 3222 3223 3224 3225 3226 3227
6 3228 3229 3230 3231 3232 3233
6 3234 3235 3236 3237 3238 3239
6 3240 3241 3242 3243 3244 3245
6 3246 3247 3248 3249 3250 3251
6 3252 3253 3254 3255 3256 3257
6 3258 3259 3260 3261 3262 3263
6 3264 3265 3266 3267 3268 3269
6 3270 3271 3272 3273 3274 3275
6 3276 3277 3278 3279 3280 3281
6 3282 3283 3284 3285 3286 3287
6 3288 3289 3290 3291 3292 3293
6 3294 3295 3296 3297 3298 3299
6 3300 3301 3302 3303 3304 3305
6 3306 3307 3308 3309 3310 3311
6 3312 3313 3314 3315 3316 3317
6 3318 3319 3320 3321 3322 3323
6 3324 3325 3326 3327 3328 3329
6 3330 3331 3332 3333 3334 3335
6 3336 3337 3338 3339 3340 3341
6 3342 3343 3344 3345 3346 3347
6 3348 3349 3350 3351 3352 3353
6 3354 3355 3356 3357 3358 3359
6 3360 3361 3362 3363 3364 3365
6 3366 3367 3368 3369 3370 3371
6 3372 3373 3374 3375 3376 3377
6 3378 3379 3380 3381 3382 3383
6 3384 3385 3386 3387 3388 3389
6 3390 3391 3392 3393 3394 3395
6 3396 3397 3398 3399 3400 3401
6 3402 3403 3404 3405 3406 3407
6 3408 3409 3410 3411 3412 3413
6 3414 3415 3416 3417 3418 3419
6 3420 3421 3422 3423 3424 3425
6 3426 3427 3428 3429 3430 3431
6 3432 3433 3434 3435 3436 3437
6 3438 3439 3440 3441 3442 3443
6 3444 3445 3446 3447 3448 3449
6 3450 3451 3452 3453 3454 3455
6 3456 3457 3458 3459 3460 3461
6 3462 3463 3464 3465 3466 3467
6 3468 3469 3470 3471 3472 3473
6 3474 3475 3476 3477 3478 3479
6 3480 3481 3482 3483 3484 3485
6 3486 3487 3488 3489 3490 3491
6 3492 3493 3494 3495 3496 3497
6 3498 3499 3500 3501 3502 3503
6 3504 3505 3506 3507 3508 3509
6 3510 3511 3512 3513 3514 3515
6 3516 3517 3518 3519 3520 3521
6 3522 3523 3524 3525 3526 3527
6 3528 3529 3530 3531 3532 3533
6 3534 3535 3536 3537 3538 3539
6 3540 3541 3542 3543 3544 3545
6 3546 3547 3548 3549 3550 3551
6 3552 3553 3554 3555 3556 3557
6 3558 3559 3560 3561 3562 3563
6 3564 3565 3566 3567 3568 3569
6 3570 3571 3572 3573 3574 3575
6 3576 3577 3578 3579 3580 3581
6 3582 3583 3584 3585 3586 3587
6 3588 3589 3590 3591 3592 3593
6 3594 3595 3596 3597 3598 3599
6 3600 3601 3602 3603 3604 3605
6 3606 3607 3608 3609 3610 3611
6 3612 3613 3614 3615 3616 3617
6 3618 3619 3620 3621 3622 3623
6 3624 3625 3626 3627 3628 3629
6 3630 3631 3632 3633 3634 3635
6 3636 3637 3638 3639 3640 3641
6 3642 3643 3644 3645 3646 3647
6 3648 3649 3650 3651 3652 3653
6 3654 3655 3656 3657 3658 3659
6 3660 3661 3662 3663 3664 3665
6 3666 3667 3668 3669 3670 3671
6 3672 3673 3674 3675 3676 3677
6 3678 3679 3680 3681 3682 3683
6 3684 3685 3686 3687 3688 3689
6 3690 3691 3692 3693 3694 3695
6 3696 3697 3698 3699 3700 3701
6 3702 3703 3704 3705 3706 3707
6 3708 3709 3710 3711 3712 3713
6 3714 3715 3716 3717 3718 3719
6 3720 3721 3722 3723 3724 3725
6 3726 3727 3728 3729 3730 3731
6 3732 3733 3734 3735 3736 3737
6 3738 3739 3740 3741 3742 3743
6 3744 3745 3746 3747 3748 3749
6 3750 3751 3752 3753 3754 3755
6 3756 3757 3758 3759 3760 3761
6 3762 3763 3764 3765 3766 3767
6 3768 3769 3770 3771 3772 3773
6 3774 3775 3776 3777 3778 3779
6 3780 3781 3782 3783 3784 3785
6 3786 3787 3788 3789 3790 3791
6 3792 3793 3794 3795 3796 3797
6 3798 3799 3800 3801 3802 3803
6 3804 3805 3806 3807 3808 3809
6 3810 3811 3812 3813 3814 3815
6 3816 3817 3818 3819 3820 3821
6 3822 3823 3824 3825 3826 3827
6 3828 3829 3830 3831 3832 3833
6 3834 3835 3836 3837 3838 3839
6 3840 3841 3842 3843 3844 3845
6 3846 3847 3848 3849 3850 3851
6 3852 3853 3854 3855 3856 3857
6 3858 3859 3860 3861 3862 3863
6 3864 3865 3866 3867 3868 3869
6 3870 3871 3872 3873 3874 3875
6 3876 3877 3878 3879 3880 3881
6 3882 3883 3884 3885 3886 3887
6 3888 3889 3890 3891 3892 3893
6 3894 3895 3896 3897 3898 3899
6 3900 3901 3902 3903 3904 3905
6 3906 3907 3908 3909 3910 3911
6 3912 3913 3914 3915 3916 3917
6 3918 3919 3920 3921 3922 3923
6 3924 3925 3926 3927 3928 3929
6 3930 3931 3932 3933 3934 3935
6 3936 3937 3938 3939 3940 3941
6 3942 3943 3944 3945 3946 3947
6 3948 3949 3950 3951 3952 3953
6 3954 3955 3956 3957 3958 3959
6 3960 3961 3962 3963 3964 3965
6 3966 3967 3968 3969 3970 3971
6 3972 3973 3974 3975 3976 3977
6 3978 3979 3980 3981 3982 3983
6 3984 3985 3986 3987 3988 3989
6 3990 3991 3992 3993 3994 3995
6 3996 3997 3998 3999 4000 4001
6 4002 4003 4004 4005 4006 4007
6 4008 4009 4010 4011 4012 4013
6 4014 4015 4016 4017 4018 4019
6 4020 4021 4022 4023 4024 4025
6 4026 4027 4028 4029 4030 4031
6 4032 4033 4034 4035 4036 4037
6 4038 4039 4040 4041 4042 4043
6 4044 4045 4046 4047 4048 4049
6 4050 4051 4052 4053 4054 4055
6 4056 4057 4058 4059 4060 4061
6 4062 4063 4064 4065 4066 4067
6 4068 4069 4070 4071 4072 4073
6 4074 4075 4076 4077 4078 4079
6 4080 4081 4082 4083 4084 4085
6 4086 4087 4088 4089 4090 4091
6 4092 4093 4094 4095 4096 4097
6 4098 4099 4100 4101 4102 4103
6 4104 4105 4106 4107 4108 4109
6 4110 4111 4112 4113 4114 4115
6 4116 4117 4118 4119 4120 4121
6 4122 4123 4124 4125 4126 4127
6 4128 4129 4130 4131 4132 4133
6 4134 4135 4136 4137 4138 4139
6 4140 4141 4142 4143 4144 4145
6 4146 4147 4148 4149 4150 4151
6 4152 4153 4154 4155 4156 4157
6 4158 4159 4160 4161 4162 4163
6 4164 4165 4166 4167 4168 4169
6 4170 4171 4172 4173 4174 4175
6 4176 4177 4178 4179 4180 4181
6 4182 4183 4184 4185 4186 4187
6 4188 4189 4190 4191 4192 4193
6 4194 4195 4196 4197 4198 4199
6 4200 4201 4202 4203 4204 4205
6 4206 4207 4208 4209 4210 4211
6 4212 4213 4214 4215 4216 4217
6 4218 4219 4220 4221 4222 4223
6 4224 4225 4226 4227 4228 4229
6 4230 4231 4232 4233 4234 4235
6 4236 4237 4238 4239 4240 4241
6 4242 4243 4244 4245 4246 4247
6 4248 4249 4250 4251 4252 4253
6 4254 4255 4256 4257 4258 4259
6 4260 4261 4262 4263 4264 4265
6 4266 4267 4268 4269 4270 4271
6 4272 4273 4274 4275 4276 4277
6 4278 4279 4280 4281 4282 4283
6 4284 4285 4286 4287 4288 4289
6 4290 4291 4292 4293 4294 4295
6 4296 4297 4298 4299 4300 4301
6 4302 4303 4304 4305 4306 4307
6 4308 4309 4310 4311 4312 4313
6 4314 4315 4316 4317 4318 4319
6 4320 4321 4322 4323 4324 4325
6 4326 4327 4328 4329 4330 4331
6 4332 4333 4334 4335 4336 4337
6 4338 4339 4340 4341 4342 4343
6 4344 4345 4346 4347 4348 4349
6 4350 4351 4352 4353 4354 4355
6 4356 4357 4358 4359 4360 4361
6 4362 4363 4364 4365 4366 4367
6 4368 4369 4370 4371 4372 4373
6 4374 4375 4376 4377 4378 4379
6 4380 4381 4382 4383 4384 4385
6 4386 4387 4388 4389 4390 4391
6 4392 4393 4394 4395 4396 4397
6 4398 4399 4400 4401 4402 4403
6 4404 4405 4406 4407 4408 4409
6 4410 4411 4412 4413 4414 4415
6 4416 4417 4418 4419 4420 4421
6 4422 4423 4424 4425 4426 4427
6 4428 4429 4430 4431 4432 4433
6 4434 4435 4436 4437 4438 4439
6 4440 4441 4442 4443 4444 4445
6 4446 4447 4448 4449 4450 4451
6 4452 4453 4454 4455 4456 4457
6 4458 4459 4460 4461 4462 4463
6 4464 4465 4466 4467 4468 4469
6 4470 4471 4472 4473 4474 4475
6 4476 4477 4478 4479 4480 4481
6 4482 4483 4484 4485 4486 4487
6 4488 4489 4490 4491 4492 4493
6 4494 4495 4496 4497 4498 4499
6 4500 4501 4502 4503 4504 4505
6 4506 4507 4508 4509 4510 4511
6 4512 4513 4514 4515 4516 4517
6 4518 4519 4520 4521 4522 4523
6 4524 4525 4526 4527 4528 4529
6 4530 4531 4532 4533 4534 4535
6 4536 4537 4538 4539 4540 4541
6 4542 4543 4544 4545 4546 4547
6 4548 4549 4550 4551 4552 4553
6 4554 4555 4556 4557 4558 4559
6 4560 4561 4562 4563 4564 4565
6 4566 4567 4568 4569 4570 4571
6 4572 4573 4574 4575 4576 4577
6 4578 4579 4580 4581 4582 4583
6 4584 4585 4586 4587 4588 4589
6 4590 4591 4592 4593 4594 4595
6 4596 4597 4598 4599 4600 4601
6 4602 4603 4604 4605 4606 4607
6 4608 4609 4610 4611 4612 4613
6 4614 4615 4616 4617 4618 4619
6 4620 4621 4622 4623 4624 4625
6 4626 4627 4628 4629 4630 4631
6 4632 4633 4634 4635 4636 4637
6 4638 4639 4640 4641 4642 4643
6 4644 4645 4646 4647 4648 4649
6 4650 4651 4652 4653 4654 4655
6 4656 4657 4658 4659 4660 4661
6 4662 4663 4664 4665 4666 4667
6 4668 4669 4670 4671 4672 4673
6 4674 4675 4676 4677 4678 4679
6 4680 4681 4682 4683 4684 4685
6 4686 4687 4688 4689 4690 4691
6 4692 4693 4694 4695 4696 4697
6 4698 4699 4700 4701 4702 4703
6 4704 4705 4706 4707 4708 4709
6 4710 4711 4712 4713 4714 4715
6 4716 4717 4718 4719 4720 4721
6 4722 4723 4724 4725 4726 4727
6 4728 4729 4730 4731 4732 4733
6 4734 4735 4736 4737 4738 4739
6 4740 4741 4742 4743 4744 4745
6 4746 4747 4748 4749 4750 4751
6 4752 4753 4754 4755 4756 4757
6 4758 4759 4760 4761 4762 4763
6 4764 4765 4766 4767 4768 4769
6 4770 4771 4772 4773 4774 4775
6 4776 4777 4778 4779 4780 4781
6 4782 4783 4784 4785 4786 4787
6 4788 4789 4790 4791 4792 4793
6 4794 4795 4796 4797 4798 4799
6 4800 4801 4802 4803 4804 4805
6 4806 4807 4808 4809 4810 4811
6 4812 4813 4814 4815 4816 4817
6 4818 4819 4820 4821 4822 4823
6 4824 4825 4826 4827 4828 4829
6 4830 4831 4832 4833 4834 4835
6 4836 4837 4838 4839 4840 4841
6 4842 4843 4844 4845 4846 4847
6 4848 4849 4850 4851 4852 4853
6 4854 4855 4856 4857 4858 4859
6 4860 4861 4862 4863 4864 4865
6 4866 4867 4868 4869 4870 4871
6 4872 4873 4874 4875 4876 4877
6 4878 4879 4880 4881 4882 4883
6 4884 4885 4886 4887 4888 4889
6 4890 4891 4892 4893 4894 4895
6 4896 4897 4898 4899 4900 4901
6 4902 4903 4904 4905 4906 4907
6 4908 4909 4910 4911 4912 4913
6 4914 4915 4916 4917 4918 4919
6 4920 4921 4922 4923 4924 4925
6 4926 4927 4928 4929 4930 4931
6 4932 4933 4934 4935 4936 4937
6 4938 4939 4940 4941 4942 4943
6 4944 4945 4946 4947 4948 4949
6 4950 4951 4952 4953 4954 4955
6 4956 4957 4958 4959 4960 4961
6 4962 4963 4964 4965 4966 4967
6 4968 4969 4970 4971 4972 4973
6 4974 4975 4976 4977 4978 4979
6 4980 4981 4982 4983 4984 4985
6 4986 4987 4988 4989 4990 4991
6 4992 4993 4994 4995 4996 4997
6 4998 4999 5000 5001 5002 5003
6 5004 5005 5006 5007 5008 5009
6 5010 5011 5012 5013 5014 5015
6 5016 5017 5018 5019 5020 5021
6 5022 5023 5024 5025 5026 5027
6 5028 5029 5030 5031 5032 5033
6 5034 5035 5036 5037 5038 5039
6 5040 5041 5042 5043 5044 5045
6 5046 5047 5048 5049 5050 5051
6 5052 5053 5054 5055 5056 5057
6 5058 5059 5060 5061 5062 5063
6 5064 5065 5066 5067 5068 5069
6 5070 5071 5072 5073 5074 5075
6 5076 5077 5078 5079 5080 5081
6 5082 5083 5084 5085 5086 5087
6 5088 5089 5090 5091 5092 5093
6 5094 5095 5096 5097 5098 5099
6 5100 5101 5102 5103 5104 5105
6 5106 5107 5108 5109 5110 5111
6 5112 5113 5114 5115 5116 5117
6 5118 5119 5120 5121 5122 5123
6 5124 5125 5126 5127 5128 5129
6 5130 5131 5132 5133 5134 5135
6 5136 5137 5138 5139 5140 5141
6 5142 5143 5144 5145 5146 5147
6 5148 5149 5150 5151 5152 5153
6 5154 5155 5156 5157 5158 5159
6 5160 5161 5162 5163 5164 5165
6 5166 5167 5168 5169 5170 5171
6 5172 5173 5174 5175 5176 5177
6 5178 5179 5180 5181 5182 5183
6 5184 5185 5186 5187 5188 5189
6 5190 5191 5192 5193 5194 5195
6 5196 5197 5198 5199 5200 5201
6 5202 5203 5204 5205 5206 5207
6 5208 5209 5210 5211 5212 5213
6 5214 5215 5216 5217 5218 5219
6 5220 5221 5222 5223 5224 5225
6 5226 5227 5228 5229 5230 5231
6 5232 5233 5234 5235 5236 5237
6 5238 5239 5240 5241 5242 5243
6 5244 5245 5246 5247 5248 5249
6 5250 5251 5252 5253 5254 5255
6 5256 5257 5258 5259 5260 5261
6 5262 5263 5264 5265 5266 5267
6 5268 5269 5270 5271 5272 5273
6 5274 5275 5276 5277 5278 5279
6 5280 5281 5282 5283 5284 5285
6 5286 5287 5288 5289 5290 5291
6 5292 5293 5294 5295 5296 5297
6 5298 5299 5300 5301 5302 5303
6 5304 5305 5306 5307 5308 5309
6 5310 5311 5312 5313 5314 5315
6 5316 5317 5318 5319 5320 5321
6 5322 5323 5324 5325 5326 5327
6 5328 5329 5330 5331 5332 5333
6 5334 5335 5336 5337 5338 5339
6 5340 5341 5342 5343 5344 5345
6 5346 5347 5348 5349 5350 5351
6 5352 5353 5354 5355 5356 5357
6 5358 5359 5360 5361 5362 5363
6 5364 5365 5366 5367 5368 5369
6 5370 5371 5372 5373 5374 5375
6 5376 5377 5378 5379 5380 5381
6 5382 5383 5384 5385 5386 5387
6 5388 5389 5390 5391 5392 5393
6 5394 5395 5396 5397 5398 5399
6 5400 5401 5402 5403 5404 5405
6 5406 5407 5408 5409 5410 5411
6 5412 5413 5414 5415 5416 5417
6 5418 5419 5420 5421 5422 5423
6 5424 5425 5426 5427 5428 5429
6 5430 5431 5432 5433 5434 5435
6 5436 5437 5438 5439 5440 5441
6 5442 5443 5444 5445 5446 5447
6 5448 5449 5450 5451 5452 5453
6 5454 5455 5456 5457 5458 5459
6 5460 5461 5462 5463 5464 5465
6 5466 5467 5468 5469 5470 5471
6 5472 5473 5474 5475 5476 5477
6 5478 5479 5480 5481 5482 5483
6 5484 5485 5486 5487 5488 5489
6 5490 5491 5492 5493 5494 5495
6 5496 5497 5498 5499 5500 5501
6 5502 5503 5504 5505 5506 5507
6 5508 5509 5510 5511 5512 5513
6 5514 5515 5516 5517 5518 5519
6 5520 5521 5522 5523 5524 5525
6 5526 5527 5528 5529 5530 5531
6 5532 5533 5534 5535 5536 5537
6 5538 5539 5540 5541 5542 5543
6 5544 5545 5546 5547 5548 5549
6 5550 5551 5552 5553 5554 5555
6 5556 5557 5558 5559 5560 5561
6 5562 5563 5564 5565 5566 5567
6 5568 5569 5570 5571 5572 5573
6 5574 5575 5576 5577 5578 5579
6 5580 5581 5582 5583 5584 5585
6 5586 5587 5588 5589 5590 5591
6 5592 5593 5594 5595 5596 5597
6 5598 5599 5600 5601 5602 5603
6 5604 5605 5606 5607 5608 5609
6 5610 5611 5612 5613 5614 5615
6 5616 5617 5618 5619 5620 5621
6 5622 5623 5624 5625 5626 5627
6 5628 5629 5630 5631 5632 5633
6 5634 5635 5636 5637 5638 5639
6 5640 5641 5642 5643 5644 5645
6 5646 5647 5648 5649 5650 5651
6 5652 5653 5654 5655 5656 5657
6 5658 5659 5660 5661 5662 5663
6 5664 5665 5666 5667 5668 5669
6 5670 5671 5672 5673 5674 5675
6 5676 5677 5678 5679 5680 5681
6 5682 5683 5684 5685 5686 5687
6 5688 5689 5690 5691 5692 5693
6 5694 5695 5696 5697 5698 5699
6 5700 5701 5702 5703 5704 5705
6 5706 5707 5708 5709 5710 5711
6 5712 5713 5714 5715 5716 5717
6 5718 5719 5720 5721 5722 5723
6 5724 5725 5726 5727 5728 5729
6 5730 5731 5732 5733 5734 5735
6 5736 5737 5738 5739 5740 5741
6 5742 5743 5744 5745 5746 5747
6 5748 5749 5750 5751 5752 5753
6 5754 5755 5756 5757 5758 5759
6 5760 5761 5762 5763 5764 5765
6 5766 5767 5768 5769 5770 5771
6 5772 5773 5774 5775 5776 5777
6 5778 5779 5780 5781 5782 5783
6 5784 5785 5786 5787 5788 5789
6 5790 5791 5792 5793 5794 5795
6 5796 5797 5798 5799 5800 5801
6 5802 5803 5804 5805 5806 5807
6 5808 5809 5810 5811 5812 5813
6 5814 5815 5816 5817 5818 5819
6 5820 5821 5822 5823 5824 5825
6 5826 5827 5828 5829 5830 5831
6 5832 5833 5834 5835 5836 5837
6 5838 5839 5840 5841 5842 5843
6 5844 5845 5846 5847 5848 5849
6 5850 5851 5852 5853 5854 5855
6 5856 5857 5858 5859 5860 5861
6 5862 5863 5864 5865 5866 5867
6 5868 5869 5870 5871 5872 5873
6 5874 5875 5876 5877 5878 5879
6 5880 5881 5882 5883 5884 5885
6 5886 5887 5888 5889 5890 5891
6 5892 5893 5894 5895 5896 5897
6 5898 5899 5900 5901 5902 5903
6 5904 5905 5906 5907 5908 5909
6 5910 5911 5912 5913 5914 5915
6 5916 5917 5918 5919 5920 5921
6 5922 5923 5924 5925 5926 5927
6 5928 5929 5930 5931 5932 5933
6 5934 5935 5936 5937 5938 5939
6 5940 5941 5942 5943 5944 5945
6 5946 5947 5948 5949 5950 5951
6 5952 5953 5954 5955 5956 5957
6 5958 5959 5960 5961 5962 5963
6 5964 5965 5966 5967 5968 5969
6 5970 5971 5972 5973 5974 5975
6 5976 5977 5978 5979 5980 5981
6 5982 5983 5984 5985 5986 5987
6 5988 5989 5990 5991 5992 5993
6 5994 5995 5996 5997 5998 5999
6 6000 6001 6002 6003 6004 6005
6 6006 6007 6008 6009 6010 6011
6 6012 6013 6014 6015 6016 6017
6 6018 6019 6020 6021 6022 6023
6 6024 6025 6026 6027 6028 6029
6 6030 6031 6032 6033 6034 6035
6 6036 6037 6038 6039 6040 6041
6 6042 6043 6044 6045 6046 6047
6 6048 6049 6050 6051 6052 6053
6 6054 6055 6056 6057 6058 6059
6 6060 6061 6062 6063 6064 6065
6 6066 6067 6068 6069 6070 6071
6 6072 6073 6074 6075 6076 6077
6 6078 6079 6080 6081 6082 6083
6 6084 6085 6086 6087 6088 6089
6 6090 6091 6092 6093 6094 6095
6 6096 6097 6098 6099 6100 6101
6 6102 6103 6104 6105 6106 6107
6 6108 6109 6110 6111 6112 6113
6 6114 6115 6116 6117 6118 6119
6 6120 6121 6122 6123 6124 6125
6 6126 6127 6128 6129 6130 6131
6 6132 6133 6134 6135 6136 6137
6 6138 6139 6140 6141 6142 6143

CELL_TYPES 1024
22
22
22
22
22
22
22
22
22
22
22
22
22
22
22
22
22
22
22
22
22
22
22
22
22
22
22
22
22
22
22
22
22
22
22
22
22
22
22
22
22
22
22
22
22
22
22
22
22
22
22
22
22
22
22
22
22
22
22
22
22
22
22
22
22
22
22
22
22
22
22
22
22
22
22
22
22
22
22
22
22
22
22
22
22
22
22
22
22
22
22
22
22
22
22
22
22
22
22
22
22
22
22
22
22
22
22
22
22
22
22
22
22
22
22
22
22
22
22
22
22
22
22
22
22
22
22
22
22
22
22
22
22
22
22
22
22
22
22
22
22
22
22
22
22
22
22
22
22
22
22
22
22
22
22
22
22
22
22
22
22
22
22
22
22
22
22
22
22
22
22
22
22
22
22
22
22
22
22
22
22
22
22
22
22
22
22
22
22
22
22
22
22
22
22
22
22
22
22
22
22
22
22
22
22
22
22
22
22
22
22
22
22
22
22
22
22
22
22
22
22
22
22
22
22
22
22
22
22
22
22
22
22
22
22
22
22
22
22
22
22
22
22
22
22
22
22
22
22
22
22
22
22
22
22
22
22
22
22
22
22
22
22
22
22
22
22
22
22
22
22
22
22
22
22
22
22
22
22
22
22
22
22
22
22
22
22
22
22
22
22
22
22
22
22
22
22
22
22
22
22
22
22
22
22
22
22
22
22
22
22
22
22
22
22
22
22
22
22
22
22
22
22
22
22
22
22
22
22
22
22
22
22
22
22
22
22
22
22
22
22
22
22
22
22
22
22
22
22
22
22
22
22
22
22
22
22
22
22
22
22
22
22
22
22
22
22
22
22
22
22
22
22
22
22
22
22
22
22
22
22
22
22
22
22
22
22
22
22
22
22
22
22
22
22
22
22
22
22
22
22
22
22
22
22
22
22
22
22
22
22
22
22
22
22
22
22
22
22
22
22
22
22
22
22
22
22
22
22
22
22
22
22
22
22
22
22
22
22
22
22
22
22
22
22
22
22
22
22
22
22
22
22
22
22
22
22
22
22
22
22
22
22
22
22
22
22
22
22
22
22
22
22
22
22
22
22
22
22
22
22
22
22
22
22
22
22
22
22
22
22
22
22
22
22
22
22
22
22
22
22
22
22
22
22
22
22
22
22
22
22
22
22
22
22
22
22
22
22
22
22
22
22
22
22
22
22
22
22
22
22
22
22
22
22
22
22
22
22
22
22
22
22
22
22
22
22
22
22
22
22
22
22
22
22
22
22
22
22
22
22
22
22
22
22
22
22
22
22
22
22
22
22
22
22
22
22
22
22
22
22
22
22
22
22
22
22
22
22
22
22
22
22
22
22
22
22
22
22
22
22
22
22
22
22
22
22
22
22
22
22
22
22
22
22
22
22
22
22
22
22
22
22
22
22
22
22
22
22
22
22
22
22
22
22
22
22
22
22
22
22
22
22
22
22
22
22
22
22
22
22
22
22
22
22
22
22
22
22
22
22
22
22
22
22
22
22
22
22
22
22
22
22
22
22
22
22
22
22
22
22
22
22
22
22
22
22
22
22
22
22
22
22
22
22
22
22
22
22
22
22
22
22
22
22
22
22
22
22
22
22
22
22
22
22
22
22
22
22
22
22
22
22
22
22
22
22
22
22
22
22
22
22
22
22
22
22
22
22
22
22
22
22
22
22
22
22
22
22
22
22
22
22
22
22
22
22
22
22
22
22
22
22
22
22
22
22
22
22
22
22
22
22
22
22
22
22
22
22
22
22
22
22
22
22
22
22
22
22
22
22
22
22
22
22
22
22
22
22
22
22
22
22
22
22
22
22
22
22
22
22
22
22
22
22
22
22
22
22
22
22
22
22
22
22
22
22
22
22
22
22
22
22
22
22
22
22
22
22
22
22
22
22
22
22
22
22
22
22
22
22
22
22
22
22
22
22
22
22
22
22
22
22
22
22
22
22
22
22
22
22
22
22
22
22
22
22
22
22
22
22
22
22
22
22
22
22
22
22
22
22
22
22
22
22
22
22
22
22
22
22
22
22
22
22
22
22
22
22
22
22
22
22
22
22
22
22
22
22
22
22
22
22
22
22
22
22
22
22
22
22
22
22
22
22
22
22
22
22
22
22
22
22
22
22
22
22
22
22
22
22
22
22
22
22
22
22
22
22
22
22
22
22
22
22
22
22
22
22
22
22
22
22
22
22
22
22
22
22
22
22
22
22
22
22
22
22
22
22
22
22
22
22
22
22
22
22
22
22
22
22
22
22
22
22
22
22
22
22
22
22
22
22
22
22
22
22
22
22
22
22
22
22
22

POINT_DATA 6144
VECTORS stress_1 float
0.0813051 0.023691 0
0.0186355 0.041806 0
0.135673 0.050108 0
0.0499703 0.0327485 0
0.0771541 0.045957 0
0.108489 0.0368995 0
0.078954 0.0260421 0
0.0567025 0.0180586 0
0.0415592 0.0188823 0
0.0678282 0.0220504 0
0.0491309 0.0184704 0
0.0602566 0.0224622 0
0.0766374 0.0190233 0
0.0855647 0 0
0.0475182 0 0
0.0811011 0.00951164 0
0.0665415 0 0
0.0620778 0.00951164 0
0.0742863 0.0213744 0
0.0569566 -0.00943839 0
0.0604108 0.0217669 0
0.0656214 0.00596802 0
0.0586837 0.00616424 0
0.0673485 0.0215707 0
0.047247 0.0185136 0
0.0376714 0.0110973 0
0.0514784 0.0164416 0
0.0424592 0.0148054 0
0.0445749 0.0137695 0
0.0493627 0.0174776 0
0.0471706 0.0184372 0
0.053919 0.0188823 0
0.0539856 0.0180586 0
0.0505448 0.0186597 0
0.0539523 0.0184704 0
0.0505781 0.0182479 0
0.04708 0.0186806 0
0.0435318 0.0161314 0
0.0355354 0.0132334 0
0.0453059 0.017406 0
0.0395336 0.0146824 0
0.0413077 0.015957 0
0.0470036 0.0186042 0
0.054337 0.0177072 0
0.0423889 0.0149885 0
0.0506703 0.0181557 0
0.0483629 0.0163478 0
0.0446962 0.0167963 0
0.0485603 0.0122518 0
0.041447 0.0113591 0
0.043179 0.0148765 0
0.0450037 0.0118055 0
0.042313 0.0131178 0
0.0458697 0.0135641 0
0.0486637 0.0121485 0
0.0423889 0.0156666 0
0.054337 0.016268 0
0.0455263 0.0139075 0
0.0483629 0.0159673 0
0.0515003 0.0142082 0
0.0484754 0.0121669 0
0.0491902 0.00643028 0
0.0421394 0.0120515 0
0.0488328 0.00929861 0
0.0456648 0.00924089 0
0.0453074 0.0121092 0
0.0485788 0.0120636 0
0.0537708 0.0157018 0
0.050483 0.00513756 0
0.0511748 0.0138827 0
0.0521269 0.0104197 0
0.0495309 0.00860057 0
0.0375133 0.0131974 0
0.0423029 0.0148765 0
0.0421437 0.0113591 0
0.0399081 0.0140369 0
0.0422233 0.0131178 0
0.0398285 0.0122783 0
0.0375323 0.0132165 0
0.0311083 0.0126153 0
0.0419991 0.0145727 0
0.0343203 0.0129159 0
0.0365537 0.013594 0
0.0397657 0.0138946 0
0.0374814 0.0132293 0
0.0416454 0.0118574 0
0.0327515 0.0124233 0
0.0395634 0.0125433 0
0.0371985 0.0121403 0
0.0351165 0.0128263 0
0.0375005 0.0132484 0
0.0328895 0.0125612 0
0.0313388 0.0123848 0
0.035195 0.0129048 0
0.0321141 0.012473 0
0.0344196 0.0128166 0
0.0345258 0.0126912 0
0.037591 0.0132334 0
0.0415734 0.0161314 0
0.0360584 0.0129623 0
0.0395822 0.0146824 0
0.0380496 0.0144113 0
0.0346145 0.0126025 0
0.0419991 0.0157057 0
0.0311083 0.0118274 0
0.0383068 0.0141541 0
0.0365537 0.0137666 0
0.0328614 0.0122149 0
0.0344127 0.0125781 0
0.0282604 0.00728448 0
0.0361036 0.0117459 0
0.0313365 0.00993128 0
0.032182 0.00951519 0
0.0352581 0.012162 0
0.0345014 0.0124894 0
0.0319786 0.0126977 0
0.0276212 0.00792365 0
0.03324 0.0125936 0
0.0297999 0.0103107 0
0.0310613 0.0102065 0
0.0524602 0.00468483 0
0.0545598 0 0
0.0451901 0 0
0.05351 0.00234242 0
0.0498749 0 0
0.0488252 0.00234242 0
0.0523179 0.0045425 0
0.0604108 0.0151283 0
0.0569566 0.00239681 0
0.0563643 0.00983542 0
0.0586837 0.00876258 0
0.0546372 0.00346965 0
0.0526554 0.00448967 0
0.0469991 -0.00180903 0
0.0495289 0.0069738 0
0.0498273 0.00134032 0
0.048264 0.00258238 0
0.0510921 0.00573173 0
0.0525131 0.00434733 0
0.0476926 0.00513756 0
0.0598373 0.0157018 0
0.0501028 0.00474245 0
0.053765 0.0104197 0
0.0561752 0.0100246 0
0.0434024 0.00746915 0
0.0421394 0.0116239 0
0.0491902 0.00709902 0
0.0427709 0.00954652 0
0.0456648 0.00936145 0
0.0462963 0.00728408 0
0.0433881 0.00745485 0
0.0482603 0.00616903 0
0.0431523 0.00363273 0
0.0458242 0.00681194 0
0.0457063 0.00490088 0
0.0432702 0.00554379 0
0.0434103 0.00746119 0
0.0381593 0.00802511 0
0.0425127 0.0112506 0
0.0407848 0.00774315 0
0.040336 0.00963786 0
0.0429615 0.00935591 0
0.043396 0.00744689 0
0.0431511 0.00363396 0
0.0387046 0.00857036 0
0.0432736 0.00554042 0
0.0409278 0.00610216 0
0.0410503 0.00800863 0
0.0455437 0.00198745 0
0.0495289 0.005403 0
0.0469991 -3.75075e-05 0
0.0475363 0.00369523 0
0.048264 0.00268275 0
0.0462714 0.000974969 0
0.0455679 0.00196329 0
0.0428876 0.00363273 0
0.0487628 0.00616903 0
0.0442278 0.00279801 0
0.0458252 0.00490088 0
0.0471654 0.00406616 0
0.0455802 0.00202393 0
0.0470366 0 0
0.0429888 0 0
0.0463084 0.00101196 0
0.0450127 0 0
0.0442845 0.00101196 0
0.0456044 0.00199977 0
0.0436059 -0.00061711 0
0.0431203 0.00386541 0
0.0446051 0.000691331 0
0.0433631 0.00162415 0
0.0443623 0.00293259 0
0.0259838 0.00910132 0
0.021427 0.00511917 0
0.0282081 0.00745165 0
0.0237054 0.00711024 0
0.0248176 0.00628541 0
0.027096 0.00827649 0
0.0260044 0.00912191 0
0.0286801 0.00792365 0
0.0310577 0.0126977 0
0.0273423 0.00852278 0
0.0298689 0.0103107 0
0.028531 0.0109098 0
0.026002 0.0090831 0
0.0236616 0.0102393 0
0.0211405 0.00540575 0
0.0248318 0.00966119 0
0.022401 0.00782252 0
0.0235712 0.00724442 0
0.0260226 0.00910369 0
0.0313428 0.0124126 0
0.0232687 0.00984636 0
0.0286827 0.0107582 0
0.0273057 0.0111295 0
0.0246457 0.00947503 0
0.0282533 0.011941 0
0.0248284 0.0121493 0
0.0232509 0.0101553 0
0.0265409 0.0120452 0
0.0240397 0.0111523 0
0.0257521 0.0110482 0
0.0282521 0.0119423 0
0.0232687 0.0101375 0
0.0313428 0.0120301 0
0.0257604 0.0110399 0
0.0273057 0.0110838 0
0.0297974 0.0119862 0
0.0282604 0.0119481 0
0.0326725 0.0126335 0
0.0245805 0.0119013 0
0.0304664 0.0122908 0
0.0286265 0.0122674 0
0.0264204 0.0119247 0
0.0282591 0.0119494 0
0.0316974 0.0123848 0
0.0327447 0.0125612 0
0.0299783 0.0121671 0
0.0322211 0.012473 0
0.0305019 0.0122553 0
0.0191573 0.00708477 0
0.0216839 0.00540575 0
0.0231594 0.0102393 0
0.0204206 0.00624526 0
0.0224217 0.00782252 0
0.0211583 0.00866203 0
0.0191656 0.00707646 0
0.0233391 0.0100595 0
0.016624 0.00842761 0
0.0212524 0.008568 0
0.0199816 0.00924358 0
0.0178948 0.00775203 0
0.0191487 0.00707614 0
0.0154722 0.00375247 0
0.0214279 0.00514973 0
0.0173104 0.00541431 0
0.01845 0.0044511 0
0.0202883 0.00611294 0
0.019157 0.00706783 0
0.0168577 0.00866129 0
0.015304 0.00392064 0
0.0180074 0.00786456 0
0.0160809 0.00629097 0
0.0172305 0.00549424 0
0.0206498 0.0106671 0
0.0236034 0.0101553 0
0.0245738 0.0121493 0
0.0221266 0.0104112 0
0.0240886 0.0111523 0
0.0226118 0.0114082 0
0.0206434 0.0106607 0
0.016624 0.00856732 0
0.0233391 0.009891 0
0.0186337 0.00961401 0
0.0199816 0.00922916 0
0.0219913 0.0102758 0
0.0206531 0.0106638 0
0.0246005 0.0121226 0
0.0175615 0.0112668 0
0.0226268 0.0113932 0
0.021081 0.0116947 0
0.0191073 0.0109653 0
0.0206467 0.0106574 0
0.0177634 0.0114687 0
0.0165543 0.00863703 0
0.0192051 0.011063 0
0.0171589 0.0100529 0
0.0186005 0.00964721 0
0.0366137 0.0108791 0
0.0327515 0.0127 0
0.0416454 0.0115305 0
0.0346826 0.0117896 0
0.0371985 0.0121153 0
0.0391296 0.0112048 0
0.0365965 0.0108963 0
0.0315873 0.0109867 0
0.0331165 0.012335 0
0.0340919 0.0109415 0
0.0323519 0.0116609 0
0.0348565 0.0116157 0
0.0365948 0.0108602 0
0.0413655 0.0112506 0
0.0389208 0.00802511 0
0.0389802 0.0110554 0
0.0401432 0.00963786 0
0.0377578 0.00944266 0
0.0365776 0.0108774 0
0.0385497 0.00839628 0
0.0318012 0.0112007 0
0.0375637 0.00963682 0
0.0351754 0.00979847 0
0.0341894 0.011039 0
0.0286744 0.0120704 0
0.0245805 0.0121834 0
0.0326725 0.0122794 0
0.0266275 0.0121269 0
0.0286265 0.0122314 0
0.0306735 0.0121749 0
0.0286687 0.0120646 0
0.0327282 0.012335 0
0.0319206 0.0109867 0
0.0306984 0.0121998 0
0.0323244 0.0116609 0
0.0302947 0.0115257 0
0.0286656 0.0120792 0
0.0245852 0.01229 0
0.0247403 0.0120236 0
0.0266254 0.0121846 0
0.0246627 0.0121568 0
0.0267029 0.0120514 0
0.0286599 0.0120735 0
0.0316929 0.0112145 0
0.0245682 0.0122731 0
0.0301764 0.011644 0
0.0281306 0.0117438 0
0.0266141 0.0121733 0
0.0274642 0.0113622 0
0.023326 0.0119077 0
0.0247388 0.0122294 0
0.0253951 0.011635 0
0.0240324 0.0120686 0
0.0261015 0.0117958 0
0.0274694 0.011357 0
0.0245682 0.0124 0
0.0316929 0.0110778 0
0.0260188 0.0118785 0
0.0281306 0.0117389 0
0.0295811 0.0112174 0
0.0274584 0.0113564 0
0.0294831 0.00997406 0
0.0234131 0.0119948 0
0.0284708 0.0106652 0
0.0264481 0.0109844 0
0.0254358 0.0116756 0
0.0274637 0.0113512 0
0.0315851 0.01097 0
0.0296549 0.00980221 0
0.0295244 0.0111606 0
0.03062 0.0103861 0
0.0285593 0.0105767 0
0.0208838 0.0125917 0
0.0245467 0.0122294 0
0.0235005 0.0119077 0
0.0227153 0.0124106 0
0.0240236 0.0120686 0
0.0221922 0.0122497 0
0.0208864 0.0125943 0
0.0177922 0.0127839 0
0.0245409 0.0122236 0
0.0193393 0.0126891 0
0.0211665 0.0125038 0
0.0227136 0.0124089 0
0.0208803 0.0125952 0
0.0233801 0.0120281 0
0.0172481 0.0131604 0
0.0221302 0.0123117 0
0.0203141 0.0125943 0
0.0190642 0.0128778 0
0.0208828 0.0125978 0
0.0172437 0.013156 0
0.01789 0.012686 0
0.0190632 0.0128769 0
0.0175668 0.012921 0
0.0193864 0.0126419 0
0.0213022 0.0122051 0
0.0247297 0.0120236 0
0.0246332 0.01229 0
0.023016 0.0121143 0
0.0246814 0.0121568 0
0.0229677 0.0122475 0
0.0212996 0.0122077 0
0.0245409 0.0123823 0
0.0177922 0.0126484 0
0.0229202 0.012295 0
0.0211665 0.0125154 0
0.0195459 0.0124281 0
0.0213023 0.0122052 0
0.0175615 0.0114518 0
0.0246005 0.0118944 0
0.0194319 0.0118285 0
0.021081 0.0116731 0
0.0229514 0.0120498 0
0.0212997 0.0122078 0
0.0178815 0.0127377 0
0.0176085 0.0114048 0
0.0195906 0.0124728 0
0.017745 0.0120713 0
0.0194541 0.0118063 0
0.0338232 0.00904511 0
0.0349251 0.00683105 0
0.0295411 0.0100112 0
0.0343741 0.00793808 0
0.0322331 0.00842111 0
0.0316822 0.00952814 0
0.03383 0.00905197 0
0.0293322 0.00980221 0
0.0320005 0.01097 0
0.0315811 0.00942709 0
0.0306663 0.0103861 0
0.0329153 0.010011 0
0.0338253 0.009043 0
0.0382509 0.00818398 0
0.0350525 0.00670362 0
0.0360381 0.00861349 0
0.0366517 0.0074438 0
0.0344389 0.00787331 0
0.0338322 0.00904986 0
0.0318012 0.0111693 0
0.0385497 0.00848272 0
0.0328167 0.0101096 0
0.0351754 0.00982602 0
0.0361909 0.00876629 0
0.0254228 0.0107056 0
0.0234131 0.0120166 0
0.0294831 0.00996605 0
0.0244179 0.0113611 0
0.0264481 0.0109913 0
0.0274529 0.0103358 0
0.0254196 0.0107024 0
0.0293537 0.00983667 0
0.0269518 0.00916625 0
0.0273867 0.0102696 0
0.0281527 0.00950146 0
0.0261857 0.00993435 0
0.025421 0.0107074 0
0.0215099 0.011538 0
0.0235314 0.0118983 0
0.0234655 0.0111227 0
0.0225207 0.0117182 0
0.0244762 0.0113029 0
0.0254178 0.0107043 0
0.0268516 0.00926642 0
0.0216112 0.0116392 0
0.0261347 0.00998534 0
0.0242314 0.0104528 0
0.0235145 0.0111717 0
0.0307548 0.00805859 0
0.0295411 0.00991889 0
0.0349251 0.00696228 0
0.030148 0.00898874 0
0.0322331 0.00844058 0
0.03284 0.00751044 0
0.0307551 0.00805826 0
0.026737 0.00916625 0
0.0296234 0.00983667 0
0.0287461 0.00861226 0
0.0281802 0.00950146 0
0.0301893 0.00894747 0
0.0307525 0.00805631 0
0.0347378 0.00677493 0
0.0315777 0.0061776 0
0.0327451 0.00741562 0
0.0331577 0.00647627 0
0.0311651 0.00711696 0
0.0307529 0.00805598 0
0.0315379 0.0062174 0
0.026878 0.00930728 0
0.0311454 0.00713669 0
0.0292079 0.00776234 0
0.0288154 0.00868163 0
0.0388975 0.00544717 0
0.0347253 0.00670362 0
0.0387185 0.00818398 0
0.0368114 0.0060754 0
0.0367219 0.0074438 0
0.038808 0.00681558 0
0.0388923 0.00545236 0
0.0387046 0.00819795 0
0.0431511 0.00412682 0
0.0387984 0.00682515 0
0.0409278 0.00616238 0
0.0410217 0.00478959 0
0.0388961 0.00544585 0
0.03884 0.00296353 0
0.0349687 0.00694708 0
0.038868 0.00420469 0
0.0369044 0.0049553 0
0.0369324 0.00619646 0
0.0388909 0.00545103 0
0.0428008 0.00377655 0
0.0387394 0.00306409 0
0.0408459 0.00461379 0
0.0407701 0.00342032 0
0.0388152 0.00425756 0
0.0146563 0.0120193 0
0.0113139 0.0108651 0
0.0175867 0.0112772 0
0.0129851 0.0114422 0
0.0144503 0.0110712 0
0.0161215 0.0116482 0
0.0146576 0.0120205 0
0.0177144 0.0114048 0
0.0178159 0.0127377 0
0.016186 0.0117127 0
0.0177651 0.0120713 0
0.0162367 0.0123791 0
0.0146558 0.0120198 0
0.0116344 0.0128349 0
0.0113044 0.0108747 0
0.0131451 0.0124274 0
0.0114694 0.0118548 0
0.0129801 0.0114473 0
0.014657 0.0120211 0
0.0177957 0.0127579 0
0.0115379 0.0127384 0
0.0162264 0.0123895 0
0.0146668 0.0127481 0
0.0130975 0.0123797 0
0.0141223 0.00970582 0
0.0175867 0.0114111 0
0.0113139 0.0107551 0
0.0158545 0.0105585 0
0.0144503 0.0110831 0
0.0127181 0.0102305 0
0.0141198 0.00970837 0
0.0168402 0.00863703 0
0.0175291 0.0114687 0
0.01548 0.0091727 0
0.0171846 0.0100529 0
0.0158245 0.0105885 0
0.0141184 0.00970185 0
0.011466 0.0109073 0
0.010649 0.00767945 0
0.0127922 0.0103045 0
0.0110575 0.00929335 0
0.0123837 0.00869065 0
0.0141158 0.0097044 0
0.0107243 0.0076042 0
0.0166573 0.00845419 0
0.01242 0.0086543 0
0.0136908 0.0080292 0
0.0153866 0.00907929 0
0.0145641 0.0131935 0
0.017239 0.01322 0
0.0112998 0.0138093 0
0.0159016 0.0132067 0
0.0142694 0.0135146 0
0.012932 0.0135014 0
0.014566 0.0131916 0
0.0178441 0.012686 0
0.017303 0.013156 0
0.0162051 0.0129388 0
0.0175736 0.012921 0
0.0159345 0.0131738 0
0.0145648 0.0131941 0
0.01133 0.0138395 0
0.0115785 0.0127973 0
0.0129474 0.0135168 0
0.0114543 0.0133184 0
0.0130716 0.0129957 0
0.0145667 0.0131922 0
0.0115379 0.0128379 0
0.0177957 0.0126376 0
0.0130523 0.0130151 0
0.0146668 0.0127377 0
0.0161812 0.0129149 0
0.0196777 0.0125369 0
0.0172481 0.0132283 0
0.0233801 0.0119556 0
0.0184629 0.0128826 0
0.0203141 0.012592 0
0.0215289 0.0122463 0
0.0196755 0.0125392 0
0.0160764 0.0132184 0
0.0173464 0.01313 0
0.0178759 0.0128788 0
0.0167114 0.0131742 0
0.0185109 0.0128346 0
0.0196754 0.0125346 0
0.0233229 0.0118983 0
0.02169 0.011538 0
0.0214991 0.0122165 0
0.0225065 0.0117182 0
0.0206827 0.0120363 0
0.0196731 0.0125369 0
0.0215885 0.0116395 0
0.0161276 0.0132696 0
0.0206308 0.0120882 0
0.018858 0.0124546 0
0.0179003 0.0129032 0
0.0139031 0.0136923 0
0.0112998 0.0138752 0
0.017239 0.0131425 0
0.0126015 0.0137837 0
0.0142694 0.0135088 0
0.0155711 0.0134174 0
0.0139019 0.0136911 0
0.0172265 0.01313 0
0.0161928 0.0132184 0
0.0155642 0.0134106 0
0.0167097 0.0131742 0
0.0150474 0.0134548 0
0.0139014 0.013694 0
0.010644 0.0142965 0
0.0113637 0.0138113 0
0.0122727 0.0139953 0
0.0110039 0.0140539 0
0.0126325 0.0137527 0
0.0139002 0.0136929 0
0.0161164 0.0132949 0
0.0106631 0.0143157 0
0.0150083 0.0134939 0
0.0133898 0.0138053 0
0.0122816 0.0140043 0
0.00857245 0.0118097 0
0.0114406 0.0108747 0
0.0115307 0.0128349 0
0.0100065 0.0113422 0
0.0114857 0.0118548 0
0.0100516 0.0123223 0
0.00857235 0.0118098 0
0.0115503 0.0128153 0
0.00566691 0.0127428 0
0.0100613 0.0123126 0
0.00860862 0.012779 0
0.00711963 0.0122763 0
0.00857129 0.0118086 0
0.00554018 0.0105013 0
0.0113348 0.0107689 0
0.00705574 0.0111549 0
0.0084375 0.0106351 0
0.00995305 0.0112887 0
0.0085712 0.0118087 0
0.00575039 0.0128262 0
0.00550036 0.0105411 0
0.00716079 0.0123175 0
0.00562537 0.0116837 0
0.00703578 0.0111749 0
0.00858032 0.0134584 0
0.0116053 0.0127973 0
0.0113253 0.0138395 0
0.0100928 0.0131278 0
0.0114653 0.0133184 0
0.0099528 0.0136489 0
0.00858016 0.0134582 0
0.00566691 0.0127992 0
0.0115503 0.0127423 0
0.00712354 0.0131287 0
0.00860862 0.0127708 0
0.0100652 0.0131003 0
0.00857931 0.0134594 0
0.0113032 0.0138615 0
0.00558034 0.0141366 0
0.00994128 0.0136605 0
0.00844179 0.013999 0
0.00707983 0.013798 0
0.00857915 0.0134592 0
0.00561635 0.0141726 0
0.00566828 0.0127978 0
0.00709775 0.0138159 0
0.00564231 0.0134852 0
0.00712372 0.0131285 0
0.01318 0.00584439 0
0.0100565 0.00295045 0
0.0154905 0.00376346 0
0.0116183 0.00439742 0
0.0127735 0.00335696 0
0.0143353 0.00480393 0
0.0131838 0.00584823 0
0.0156477 0.00392064 0
0.0165332 0.00866129 0
0.0144158 0.00488444 0
0.0160904 0.00629097 0
0.0148585 0.00725476 0
0.013184 0.00584042 0
0.010876 0.00768287 0
0.00994249 0.00306447 0
0.01203 0.00676165 0
0.0104092 0.00537367 0
0.0115632 0.00445245 0
0.0131878 0.00584426 0
0.0166573 0.00853715 0
0.0107243 0.00753118 0
0.0149226 0.00719071 0
0.0136908 0.00803417 0
0.0119561 0.00668772 0
0.00823836 0.00909805 0
0.0108769 0.00767945 0
0.0112675 0.0109073 0
0.00955763 0.00838875 0
0.0110722 0.00929335 0
0.00975292 0.0100027 0
0.00823619 0.00909589 0
0.00525765 0.00707724 0
0.0107447 0.00754726 0
0.00674692 0.00808656 0
0.00800118 0.00731225 0
0.00949045 0.00832157 0
0.00823974 0.00909667 0
0.0113348 0.0108399 0
0.00554018 0.0104444 0
0.00978728 0.00996829 0
0.0084375 0.0106422 0
0.00688996 0.00977054 0
0.00823758 0.0090945 0
0.00565553 0.0105598 0
0.0051806 0.00715429 0
0.00694655 0.00982713 0
0.00541806 0.00885703 0
0.00670909 0.0081244 0
0.00772593 0.0051388 0
0.0101791 0.00306447 0
0.0106489 0.00768287 0
0.00895253 0.00410163 0
0.010414 0.00537367 0
0.00918741 0.00641084 0
0.00772792 0.0051368 0
0.0107447 0.00758705 0
0.00525765 0.00704054 0
0.00923631 0.00636193 0
0.00800118 0.0073138 0
0.00649279 0.00608867 0
0.00772422 0.00513709 0
0.00495137 0.00253005 0
0.0100709 0.00295623 0
0.0063378 0.00383357 0
0.00751113 0.00274314 0
0.00889756 0.00404666 0
0.00772622 0.0051351 0
0.00536714 0.00715003 0
0.0048642 0.00261723 0
0.00654668 0.00614256 0
0.00511567 0.00488363 0
0.00629521 0.00387616 0
0.0415904 0.0014582 0
0.0437904 0 0
0.040874 0 0
0.0426904 0.0007291 0
0.0423322 0 0
0.0412322 0.0007291 0
0.0415782 0.00144603 0
0.0431203 0.00338529 0
0.0436059 -0.00018451 0
0.0423493 0.00241566 0
0.0433631 0.00160039 0
0.042592 0.000630759 0
0.0415926 0.00145594 0
0.0411111 -0.000237145 0
0.0387744 0.00306255 0
0.0413519 0.000609398 0
0.0399428 0.0014127 0
0.0401835 0.00225925 0
0.0415805 0.00144377 0
0.038776 0.00306409 0
0.0427291 0.00377655 0
0.0401782 0.00225393 0
0.0407525 0.00342032 0
0.0421548 0.00261016 0
0.0384185 0.00138488 0
0.0387744 0.00291632 0
0.0411111 -0.000132171 0
0.0385965 0.0021506 0
0.0399428 0.00139207 0
0.0397648 0.000626356 0
0.038418 0.00138544 0
0.0353375 0.00294942 0
0.0386034 0.00308734 0
0.0368778 0.00216743 0
0.0369705 0.00301838 0
0.0385107 0.00223639 0
0.0384235 0.00138987 0
0.0412433 0 0
0.0384636 0 0
0.0398334 0.000694934 0
0.0398534 0 0
0.0384436 0.000694934 0
0.038423 0.00139042 0
0.0385448 -8.12455e-05 0
0.035304 0.00291589 0
0.0384839 0.00065459 0
0.0369244 0.00141732 0
0.0368635 0.00215316 0
0.0351448 0.00473385 0
0.0349687 0.00672961 0
0.03884 0.00321046 0
0.0350568 0.00573173 0
0.0369044 0.00497003 0
0.0369924 0.00397216 0
0.0351462 0.00473526 0
0.0387168 0.00308734 0
0.0352831 0.00294942 0
0.0369315 0.0039113 0
0.037 0.00301838 0
0.0352146 0.00384234 0
0.0351474 0.00473128 0
0.0314334 0.0061776 0
0.0349234 0.00677493 0
0.0332904 0.00545444 0
0.0331784 0.00647627 0
0.0350354 0.00575311 0
0.0351488 0.00473269 0
0.0353521 0.00288041 0
0.0315408 0.00628501 0
0.0352504 0.00380655 0
0.0334465 0.00458271 0
0.0333448 0.00550885 0
0.0277514 0.00760953 0
0.0314297 0.00620737 0
0.0284229 0.00600488 0
0.0295906 0.00690845 0
0.0299263 0.00610613 0
0.0280872 0.0068072 0
0.0277518 0.00760996 0
0.026878 0.0092277 0
0.0315379 0.0063155 0
0.0273149 0.00841883 0
0.0292079 0.0077716 0
0.0296448 0.00696273 0
0.0277521 0.00760885 0
0.0284073 0.00602055 0
0.0241651 0.00895231 0
0.0280797 0.0068147 0
0.0262862 0.00748643 0
0.0259586 0.00828058 0
0.0277525 0.00760928 0
0.0240756 0.00886284 0
0.0269128 0.00919288 0
0.0259141 0.00823606 0
0.0254942 0.00902786 0
0.0273327 0.00840108 0
0.0318564 0.00452638 0
0.0283494 0.00600488 0
0.0315089 0.00620737 0
0.0301029 0.00526563 0
0.0299292 0.00610613 0
0.0316826 0.00536687 0
0.0318553 0.00452739 0
0.0315408 0.00617545 0
0.0353521 0.00299321 0
0.0316981 0.00535142 0
0.0334465 0.00458433 0
0.0336037 0.0037603 0
0.0318575 0.00452753 0
0.0321971 0.00294004 0
0.0284013 0.00605671 0
0.0320273 0.00373379 0
0.0302992 0.00449838 0
0.0301294 0.00529212 0
0.0318565 0.00452855 0
0.0353049 0.00294601 0
0.0321655 0.00297166 0
0.0335807 0.00373728 0
0.0337352 0.00295884 0
0.032011 0.0037501 0
0.0230695 0.0102952 0
0.0194362 0.0112957 0
0.0216868 0.0115453 0
0.0212529 0.0107954 0
0.0205615 0.0114205 0
0.0223782 0.0109202 0
0.0230699 0.0102947 0
0.0216112 0.0116209 0
0.0268516 0.00929804 0
0.0223406 0.0109578 0
0.0242314 0.0104595 0
0.0249608 0.00979639 0
0.0230681 0.0102937 0
0.024155 0.00892338 0
0.0195226 0.011382 0
0.0236115 0.00960856 0
0.0218388 0.0101527 0
0.0212953 0.0108379 0
0.0230685 0.0102933 0
0.0267464 0.00919288 0
0.0242155 0.00886284 0
0.0249075 0.0097431 0
0.025481 0.00902786 0
0.023642 0.00957808 0
0.0180205 0.0123834 0
0.0215138 0.0115453 0
0.0195881 0.0112957 0
0.0197672 0.0119643 0
0.0205509 0.0114205 0
0.0188043 0.0118395 0
0.018022 0.0123848 0
0.0161276 0.0132921 0
0.0215885 0.01162 0
0.0170748 0.0128384 0
0.018858 0.012456 0
0.0198052 0.0120024 0
0.0180194 0.0123844 0
0.0195095 0.0113742 0
0.0146645 0.013239 0
0.0187645 0.0118793 0
0.017087 0.0123066 0
0.016342 0.0128117 0
0.0180209 0.0123859 0
0.0145988 0.0131733 0
0.01621 0.0132097 0
0.0163098 0.0127796 0
0.0154044 0.0131915 0
0.0171154 0.0127978 0
0.0248764 0.00742855 0
0.0241651 0.00889998 0
0.0284073 0.00608046 0
0.0245208 0.00816426 0
0.0262862 0.00749022 0
0.0266419 0.0067545 0
0.024877 0.00742801 0
0.0214379 0.00872661 0
0.0241868 0.00887831 0
0.0231574 0.00807731 0
0.0228123 0.00880246 0
0.0245319 0.00815316 0
0.0248765 0.00742865 0
0.0283427 0.00601588 0
0.0254576 0.00595636 0
0.0266096 0.00672227 0
0.0269002 0.00598612 0
0.0251671 0.00669251 0
0.0248771 0.00742812 0
0.0254439 0.00597011 0
0.0214958 0.00878454 0
0.0251605 0.00669911 0
0.0234699 0.00737732 0
0.0231864 0.00810633 0
0.0206381 0.0100734 0
0.0195226 0.0113576 0
0.024155 0.00895622 0
0.0200803 0.0107155 0
0.0218388 0.0101569 0
0.0223966 0.00951482 0
0.0206376 0.0100729 0
0.0240771 0.00887831 0
0.0215361 0.00872661 0
0.0223574 0.00947562 0
0.0228066 0.00880246 0
0.0210869 0.00939977 0
0.0206382 0.0100733 0
0.0172598 0.0111589 0
0.0195761 0.011304 0
0.018949 0.0106161 0
0.018418 0.0112314 0
0.0201071 0.0106887 0
0.0206377 0.0100728 0
0.0214919 0.00877083 0
0.0173277 0.0112267 0
0.0210648 0.00942183 0
0.0194098 0.00999875 0
0.0189827 0.0106498 0
0.0354492 0.00143375 0
0.0386173 0 0
0.0357499 0 0
0.0370333 0.000716873 0
0.0371836 0 0
0.0355996 0.000716873 0
0.0354472 0.00143168 0
0.035304 0.00288192 0
0.0385448 -7.25254e-05 0
0.0353756 0.0021568 0
0.0369244 0.00140469 0
0.036996 0.000679578 0
0.0354483 0.00143468 0
0.035764 -1.41875e-05 0
0.0321671 0.0029513 0
0.0356062 0.000710248 0
0.0339656 0.00146856 0
0.0338077 0.00219299 0
0.0354462 0.00143262 0
0.0321875 0.00297166 0
0.0352399 0.00294601 0
0.0338168 0.00220214 0
0.0337137 0.00295884 0
0.0353431 0.00218932 0
0.0287922 0.00449585 0
0.0284013 0.00600411 0
0.0321971 0.00299012 0
0.0285967 0.00524998 0
0.0302992 0.00449711 0
0.0304946 0.00374298 0
0.0287929 0.00449652 0
0.0321725 0.00296546 0
0.0291586 0.00301374 0
0.0304827 0.00373099 0
0.0306655 0.0029896 0
0.0289757 0.00375513 0
0.0287926 0.00449548 0
0.0254082 0.00595636 0
0.0283895 0.00601588 0
0.0271004 0.00522592 0
0.0268988 0.00598612 0
0.028591 0.00525568 0
0.0287932 0.00449615 0
0.0291663 0.00300607 0
0.025439 0.00598722 0
0.0289798 0.00375111 0
0.0273027 0.00449665 0
0.0271161 0.00524169 0
0.0324757 0.00148853 0
0.0321671 0.00295126 0
0.035764 -2.84089e-05 0
0.0323214 0.00221989 0
0.0339656 0.00146142 0
0.0341199 0.000730058 0
0.0324749 0.00148937 0
0.0291524 0.00301374 0
0.0321529 0.00296546 0
0.0308137 0.00225156 0
0.0306527 0.0029896 0
0.0323139 0.00222741 0
0.0324765 0.00148925 0
0.0357925 0 0
0.0328139 0 0
0.0341345 0.000744625 0
0.0343032 0 0
0.0326452 0.000744625 0
0.0324756 0.00149009 0
0.0328014 1.25957e-05 0
0.0291506 0.00301189 0
0.0326385 0.000751345 0
0.030976 0.00151224 0
0.0308131 0.00225099 0
0.00254535 0.00481358 0
-6.15892e-06 0.0024 0
0.00496432 0.00253254 0
0.0012696 0.00360679 0
0.00247908 0.00246627 0
0.00375484 0.00367306 0
0.00254573 0.00481396 0
0.00504901 0.00261723 0
0.00518834 0.00715003 0
0.00379737 0.00371559 0
0.00511867 0.00488363 0
0.00386704 0.00598199 0
0.00254607 0.00481287 0
8.20034e-05 0.00698087 0
-8.45112e-05 0.00247835 0
0.00131404 0.00589687 0
-1.25394e-06 0.00472961 0
0.00123078 0.00364561 0
0.00254645 0.00481325 0
0.00527351 0.00706486 0
-7.31381e-06 0.00689156 0
0.00390998 0.00593905 0
0.0026331 0.00697821 0
0.00126957 0.0058524 0
0.00270846 0.00880258 0
8.28118e-05 0.0104435 0
-9.16847e-05 0.00698716 0
0.00139564 0.00962305 0
-4.43648e-06 0.00871534 0
0.00130839 0.00789487 0
0.00270816 0.00880288 0
-7.31381e-06 0.00690279 0
0.00527351 0.00705292 0
0.00135042 0.00785284 0
0.0026331 0.00697785 0
0.00399084 0.0079279 0
0.00270929 0.00880341 0
0.00555802 0.0104833 0
-8.43616e-06 0.0103523 0
0.00413365 0.00964334 0
0.00277479 0.0104178 0
0.00135043 0.00957784 0
0.00270899 0.00880371 0
0.00537488 0.00715429 0
0.00548153 0.0105598 0
0.00404194 0.007979 0
0.00542821 0.00885703 0
0.00409526 0.00968174 0
-0.00254607 0.00481287 0
8.45112e-05 0.00247835 0
-8.20034e-05 0.00698087 0
-0.00123078 0.00364561 0
1.25394e-06 0.00472961 0
-0.00131404 0.00589687 0
-0.00254645 0.00481325 0
7.31381e-06 0.00689156 0
-0.00527351 0.00706486 0
-0.00126957 0.0058524 0
-0.0026331 0.00697821 0
-0.00390998 0.00593905 0
-0.00254535 0.00481358 0
-0.00496432 0.00253254 0
6.15892e-06 0.0024 0
-0.00375484 0.00367306 0
-0.00247908 0.00246627 0
-0.0012696 0.00360679 0
-0.00254573 0.00481396 0
-0.00518834 0.00715003 0
-0.00504901 0.00261723 0
-0.00386704 0.00598199 0
-0.00511867 0.00488363 0
-0.00379737 0.00371559 0
-0.00270846 0.00880258 0
9.16847e-05 0.00698716 0
-8.28118e-05 0.0104435 0
-0.00130839 0.00789487 0
4.43648e-06 0.00871534 0
-0.00139564 0.00962305 0
-0.00270816 0.00880288 0
-0.00527351 0.00705292 0
7.31381e-06 0.00690279 0
-0.00399084 0.0079279 0
-0.0026331 0.00697785 0
-0.00135042 0.00785284 0
-0.00270929 0.00880341 0
8.43616e-06 0.0103523 0
-0.00555802 0.0104833 0
-0.00135043 0.00957784 0
-0.00277479 0.0104178 0
-0.00413365 0.00964334 0
-0.00270899 0.00880371 0
-0.00548153 0.0105598 0
-0.00537488 0.00715429 0
-0.00409526 0.00968174 0
-0.00542821 0.00885703 0
-0.00404194 0.007979 0
0.00282037 0.0116852 0
-8.43616e-06 0.0103671 0
0.00555802 0.0104582 0
0.00140597 0.0110261 0
0.00277479 0.0104126 0
0.0041892 0.0110717 0
0.00282109 0.0116859 0
0.00564091 0.0105411 0
0.00563649 0.0128262 0
0.004231 0.0111135 0
0.0056387 0.0116837 0
0.00422879 0.0122561 0
0.00282007 0.0116855 0
5.78108e-05 0.0128141 0
-7.01716e-05 0.0104288 0
0.00143894 0.0122498 0
-6.18036e-06 0.0116215 0
0.00137495 0.0110571 0
0.00282079 0.0116862 0
0.00568139 0.0127813 0
-7.3974e-06 0.0127489 0
0.00425109 0.0122337 0
0.002837 0.0127651 0
0.0014067 0.0122175 0
0.00283139 0.0135575 0
2.14027e-05 0.0142717 0
-3.31555e-05 0.0127888 0
0.0014264 0.0139146 0
-5.87641e-06 0.0135302 0
0.00139912 0.0131731 0
0.00283203 0.0135569 0
-7.3974e-06 0.012763 0
0.00568139 0.0127531 0
0.00141232 0.0131599 0
0.002837 0.012758 0
0.00425671 0.013155 0
0.00283185 0.013558 0
0.00558901 0.0141655 0
-5.03328e-06 0.0142452 0
0.00421043 0.0138617 0
0.00279199 0.0142054 0
0.00141341 0.0139016 0
0.00283248 0.0135573 0
0.00572616 0.0127978 0
0.00558195 0.0141726 0
0.00427932 0.0131776 0
0.00565406 0.0134852 0
0.00420722 0.0138649 0
-0.00283139 0.0135575 0
3.31555e-05 0.0127888 0
-2.14027e-05 0.0142717 0
-0.00139912 0.0131731 0
5.87641e-06 0.0135302 0
-0.0014264 0.0139146 0
-0.00283203 0.0135569 0
-0.00568139 0.0127531 0
7.3974e-06 0.012763 0
-0.00425671 0.013155 0
-0.002837 0.012758 0
-0.00141232 0.0131599 0
-0.00283185 0.013558 0
5.03327e-06 0.0142452 0
-0.00558901 0.0141655 0
-0.00141341 0.0139016 0
-0.00279199 0.0142054 0
-0.00421043 0.0138617 0
-0.00283248 0.0135573 0
-0.00558195 0.0141726 0
-0.00572616 0.0127978 0
-0.00420722 0.0138649 0
-0.00565406 0.0134852 0
-0.00427932 0.0131776 0
-0.00282007 0.0116855 0
7.01716e-05 0.0104288 0
-5.78108e-05 0.0128141 0
-0.00137495 0.0110571 0
6.18036e-06 0.0116215 0
-0.00143894 0.0122498 0
-0.00282079 0.0116862 0
7.3974e-06 0.0127489 0
-0.00568139 0.0127813 0
-0.0014067 0.0122175 0
-0.002837 0.0127651 0
-0.00425109 0.0122337 0
-0.00282037 0.0116852 0
-0.00555802 0.0104582 0
8.43616e-06 0.0103671 0
-0.0041892 0.0110717 0
-0.00277479 0.0104126 0
-0.00140597 0.0110261 0
-0.00282109 0.0116859 0
-0.00563649 0.0128262 0
-0.00564091 0.0105411 0
-0.00422879 0.0122561 0
-0.0056387 0.0116837 0
-0.004231 0.0111135 0
0.0027352 0.0146521 0
-5.03328e-06 0.0142556 0
0.00558901 0.014142 0
0.00136508 0.0144539 0
0.00279199 0.0141988 0
0.0041621 0.0143971 0
0.00273542 0.0146523 0
0.00559287 0.0141459 0
0.00532355 0.0148895 0
0.00416415 0.0143991 0
0.00545821 0.0145177 0
0.00402949 0.0147709 0
0.00273453 0.0146528 0
-1.34776e-05 0.0150779 0
4.71424e-06 0.0142459 0
0.00136053 0.0148653 0
-4.38166e-06 0.0146619 0
0.00136962 0.0144493 0
0.00273476 0.014653 0
0.00529825 0.0149148 0
-2.67301e-06 0.0150887 0
0.00401651 0.0147839 0
0.00264779 0.0150017 0
0.00136604 0.0148708 0
0.00825556 0.0143536 0
0.00558034 0.0141787 0
0.0113032 0.0138063 0
0.00691795 0.0142661 0
0.00844179 0.0139925 0
0.0097794 0.0140799 0
0.00825441 0.0143547 0
0.00528724 0.0148895 0
0.00561318 0.0141459 0
0.00677082 0.0146221 0
0.00545021 0.0145177 0
0.0069338 0.0142503 0
0.00825522 0.0143532 0
0.0113083 0.0138113 0
0.0107097 0.0142965 0
0.00978174 0.0140822 0
0.011009 0.0140539 0
0.00948244 0.0143249 0
0.00825407 0.0143544 0
0.0106615 0.0143447 0
0.00529457 0.0148968 0
0.00945778 0.0143495 0
0.00797803 0.0146207 0
0.00677432 0.0146256 0
-0.00823974 0.00909667 0
-0.00554018 0.0104444 0
-0.0113348 0.0108399 0
-0.00688996 0.00977054 0
-0.0084375 0.0106422 0
-0.00978728 0.00996829 0
-0.00823758 0.0090945 0
-0.0051806 0.00715429 0
-0.00565553 0.0105598 0
-0.00670909 0.0081244 0
-0.00541806 0.00885703 0
-0.00694655 0.00982713 0
-0.00823836 0.00909805 0
-0.0112675 0.0109073 0
-0.0108769 0.00767945 0
-0.00975292 0.0100027 0
-0.0110722 0.00929335 0
-0.00955763 0.00838875 0
-0.00823619 0.00909589 0
-0.0107447 0.00754726 0
-0.00525765 0.00707724 0
-0.00949045 0.00832157 0
-0.00800118 0.00731225 0
-0.00674692 0.00808656 0
-0.00857129 0.0118086 0
-0.0113348 0.0107689 0
-0.00554018 0.0105013 0
-0.00995305 0.0112887 0
-0.0084375 0.0106351 0
-0.00705574 0.0111549 0
-0.0085712 0.0118087 0
-0.00550036 0.0105411 0
-0.00575039 0.0128262 0
-0.00703578 0.0111749 0
-0.00562537 0.0116837 0
-0.00716079 0.0123175 0
-0.00857245 0.0118097 0
-0.0115307 0.0128349 0
-0.0114406 0.0108747 0
-0.0100516 0.0123223 0
-0.0114857 0.0118548 0
-0.0100065 0.0113422 0
-0.00857235 0.0118098 0
-0.00566691 0.0127428 0
-0.0115503 0.0128153 0
-0.00711963 0.0122763 0
-0.00860862 0.012779 0
-0.0100613 0.0123126 0
-0.00772422 0.00513709 0
-0.0100709 0.00295623 0
-0.00495137 0.00253005 0
-0.00889756 0.00404666 0
-0.00751113 0.00274314 0
-0.0063378 0.00383357 0
-0.00772622 0.0051351 0
-0.0048642 0.00261723 0
-0.00536714 0.00715003 0
-0.00629521 0.00387616 0
-0.00511567 0.00488363 0
-0.00654668 0.00614256 0
-0.00772593 0.0051388 0
-0.0106489 0.00768287 0
-0.0101791 0.00306447 0
-0.00918741 0.00641084 0
-0.010414 0.00537367 0
-0.00895253 0.00410163 0
-0.00772792 0.0051368 0
-0.00525765 0.00704054 0
-0.0107447 0.00758705 0
-0.00649279 0.00608867 0
-0.00800118 0.0073138 0
-0.00923631 0.00636193 0
-0.0141184 0.00970185 0
-0.010649 0.00767945 0
-0.011466 0.0109073 0
-0.0123837 0.00869065 0
-0.0110575 0.00929335 0
-0.0127922 0.0103045 0
-0.0141158 0.0097044 0
-0.0166573 0.00845419 0
-0.0107243 0.0076042 0
-0.0153866 0.00907929 0
-0.0136908 0.0080292 0
-0.01242 0.0086543 0
-0.0141223 0.00970582 0
-0.0113139 0.0107551 0
-0.0175867 0.0114111 0
-0.0127181 0.0102305 0
-0.0144503 0.0110831 0
-0.0158545 0.0105585 0
-0.0141198 0.00970837 0
-0.0175291 0.0114687 0
-0.0168402 0.00863703 0
-0.0158245 0.0105885 0
-0.0171846 0.0100529 0
-0.01548 0.0091727 0
-0.013184 0.00584042 0
-0.00994249 0.00306447 0
-0.010876 0.00768287 0
-0.0115632 0.00445245 0
-0.0104092 0.00537367 0
-0.01203 0.00676165 0
-0.0131878 0.00584426 0
-0.0107243 0.00753118 0
-0.0166573 0.00853715 0
-0.0119561 0.00668772 0
-0.0136908 0.00803417 0
-0.0149226 0.00719071 0
-0.01318 0.00584439 0
-0.0154905 0.00376346 0
-0.0100565 0.00295045 0
-0.0143353 0.00480393 0
-0.0127735 0.00335696 0
-0.0116183 0.00439742 0
-0.0131838 0.00584823 0
-0.0165332 0.00866129 0
-0.0156477 0.00392064 0
-0.0148585 0.00725476 0
-0.0160904 0.00629097 0
-0.0144158 0.00488444 0
-0.00857931 0.0134594 0
-0.00558034 0.0141366 0
-0.0113032 0.0138615 0
-0.00707983 0.013798 0
-0.00844179 0.013999 0
-0.00994128 0.0136605 0
-0.00857915 0.0134592 0
-0.00566828 0.0127978 0
-0.00561635 0.0141726 0
-0.00712372 0.0131285 0
-0.00564231 0.0134852 0
-0.00709775 0.0138159 0
-0.00858032 0.0134584 0
-0.0113253 0.0138395 0
-0.0116053 0.0127973 0
-0.0099528 0.0136489 0
-0.0114653 0.0133184 0
-0.0100928 0.0131278 0
-0.00858016 0.0134582 0
-0.0115503 0.0127423 0
-0.00566691 0.0127992 0
-0.0100652 0.0131003 0
-0.00860862 0.0127708 0
-0.00712354 0.0131287 0
-0.0027352 0.0146521 0
-0.00558901 0.014142 0
5.03327e-06 0.0142556 0
-0.0041621 0.0143971 0
-0.00279199 0.0141988 0
-0.00136508 0.0144539 0
-0.00273542 0.0146523 0
-0.00532355 0.0148895 0
-0.00559287 0.0141459 0
-0.00402949 0.0147709 0
-0.00545821 0.0145177 0
-0.00416415 0.0143991 0
-0.00273453 0.0146528 0
-4.71425e-06 0.0142459 0
1.34776e-05 0.0150779 0
-0.00136962 0.0144493 0
4.38166e-06 0.0146619 0
-0.00136053 0.0148653 0
-0.00273476 0.014653 0
2.67301e-06 0.0150887 0
-0.00529825 0.0149148 0
-0.00136604 0.0148708 0
-0.00264779 0.0150017 0
-0.00401651 0.0147839 0
-0.00825556 0.0143536 0
-0.0113032 0.0138063 0
-0.00558034 0.0141787 0
-0.0097794 0.0140799 0
-0.00844179 0.0139925 0
-0.00691795 0.0142661 0
-0.00825441 0.0143547 0
-0.00561318 0.0141459 0
-0.00528724 0.0148895 0
-0.0069338 0.0142503 0
-0.00545021 0.0145177 0
-0.00677082 0.0146221 0
-0.00825522 0.0143532 0
-0.0107097 0.0142965 0
-0.0113083 0.0138113 0
-0.00948244 0.0143249 0
-0.011009 0.0140539 0
-0.00978174 0.0140822 0
-0.00825407 0.0143544 0
-0.00529457 0.0148968 0
-0.0106615 0.0143447 0
-0.00677432 0.0146256 0
-0.00797803 0.0146207 0
-0.00945778 0.0143495 0
-0.0146558 0.0120198 0
-0.0113044 0.0108747 0
-0.0116344 0.0128349 0
-0.0129801 0.0114473 0
-0.0114694 0.0118548 0
-0.0131451 0.0124274 0
-0.014657 0.0120211 0
-0.0115379 0.0127384 0
-0.0177957 0.0127579 0
-0.0130975 0.0123797 0
-0.0146668 0.0127481 0
-0.0162264 0.0123895 0
-0.0146563 0.0120193 0
-0.0175867 0.0112772 0
-0.0113139 0.0108651 0
-0.0161215 0.0116482 0
-0.0144503 0.0110712 0
-0.0129851 0.0114422 0
-0.0146576 0.0120205 0
-0.0178159 0.0127377 0
-0.0177144 0.0114048 0
-0.0162367 0.0123791 0
-0.0177651 0.0120713 0
-0.016186 0.0117127 0
-0.0145648 0.0131941 0
-0.0115785 0.0127973 0
-0.01133 0.0138395 0
-0.0130716 0.0129957 0
-0.0114543 0.0133184 0
-0.0129474 0.0135168 0
-0.0145667 0.0131922 0
-0.0177957 0.0126376 0
-0.0115379 0.0128379 0
-0.0161812 0.0129149 0
-0.0146668 0.0127377 0
-0.0130523 0.0130151 0
-0.0145641 0.0131935 0
-0.0112998 0.0138093 0
-0.017239 0.01322 0
-0.012932 0.0135014 0
-0.0142694 0.0135146 0
-0.0159016 0.0132067 0
-0.014566 0.0131916 0
-0.017303 0.013156 0
-0.0178441 0.012686 0
-0.0159345 0.0131738 0
-0.0175736 0.012921 0
-0.0162051 0.0129388 0
0.0128418 0.0138631 0
0.00970393 0.0144759 0
0.0107333 0.0142797 0
0.0112729 0.0141695 0
0.0102186 0.0143778 0
0.0117875 0.0140714 0
0.0128429 0.013862 0
0.0106631 0.0143498 0
0.0161164 0.0132562 0
0.011753 0.0141059 0
0.0133898 0.013803 0
0.0144797 0.0135591 0
0.0128408 0.0138622 0
0.0146559 0.0132482 0
0.00975099 0.0145229 0
0.0137484 0.0135552 0
0.0122034 0.0138856 0
0.0112959 0.0141925 0
0.0128419 0.013861 0
0.0160699 0.0132097 0
0.0147308 0.0131733 0
0.0144559 0.0135353 0
0.0154004 0.0131915 0
0.0137864 0.0135172 0
0.00767204 0.0147879 0
0.0106302 0.0142797 0
0.00980987 0.0144759 0
0.00915111 0.0145338 0
0.01022 0.0143778 0
0.00874095 0.0146319 0
0.00767245 0.0147884 0
0.00529457 0.0149222 0
0.0106615 0.014311 0
0.00648351 0.0148553 0
0.00797803 0.0146166 0
0.00916697 0.0145497 0
0.00767115 0.0147888 0
0.009748 0.0145378 0
0.00485982 0.0152722 0
0.00870957 0.0146633 0
0.00730391 0.014905 0
0.00626548 0.0150305 0
0.00767157 0.0147893 0
0.00482178 0.0152342 0
0.00534711 0.0148696 0
0.00624667 0.0150117 0
0.00508445 0.0150519 0
0.00650934 0.0148294 0
0.011551 0.0138994 0
0.00975099 0.0145375 0
0.0146559 0.0132326 0
0.010651 0.0142184 0
0.0122034 0.013885 0
0.0131035 0.013566 0
0.0115504 0.0138988 0
0.0145952 0.0131719 0
0.01309 0.0131205 0
0.0130728 0.0135353 0
0.0138426 0.0131462 0
0.0123202 0.0135096 0
0.0115504 0.0139 0
0.00861413 0.01454 0
0.00982134 0.0144671 0
0.0100823 0.01422 0
0.00921774 0.0145036 0
0.0106859 0.0141835 0
0.0115498 0.0138994 0
0.0130185 0.0131921 0
0.00867366 0.0145995 0
0.0122841 0.0135457 0
0.0108461 0.0138958 0
0.0101117 0.0142495 0
0.0161545 0.012258 0
0.0146645 0.0132411 0
0.0195095 0.011376 0
0.0154095 0.0127496 0
0.017087 0.0123086 0
0.017832 0.011817 0
0.0161541 0.0122584 0
0.0129582 0.0131205 0
0.0147337 0.0131719 0
0.0145562 0.0126895 0
0.013846 0.0131462 0
0.0154439 0.0127152 0
0.0161538 0.0122573 0
0.0194375 0.011304 0
0.0173858 0.0111589 0
0.0177957 0.0117807 0
0.0184117 0.0112314 0
0.0167698 0.0117081 0
0.0161534 0.0122577 0
0.017321 0.0112236 0
0.0130236 0.0131859 0
0.0167372 0.0117407 0
0.0151723 0.0122048 0
0.0145885 0.0127218 0
0.00254931 0.0152323 0
-4.02956e-05 0.0154824 0
3.48078e-05 0.0150574 0
0.00125451 0.0153574 0
-2.74388e-06 0.0152699 0
0.00129206 0.0151449 0
0.00254982 0.0152318 0
-2.67301e-06 0.0150948 0
0.00529825 0.0148989 0
0.00127358 0.0151633 0
0.00264779 0.0149969 0
0.00392404 0.0150654 0
0.0025494 0.0152324 0
0.00486074 0.0152824 0
-1.13337e-06 0.0155216 0
0.00370507 0.0152574 0
0.0024298 0.015402 0
0.00127413 0.015377 0
0.00254991 0.0152319 0
0.00526898 0.0148696 0
0.00490896 0.0152342 0
0.00390944 0.0150508 0
0.00508897 0.0150519 0
0.00372944 0.0152331 0
-0.00254931 0.0152323 0
-3.48078e-05 0.0150574 0
4.02956e-05 0.0154824 0
-0.00129206 0.0151449 0
2.74387e-06 0.0152699 0
-0.00125451 0.0153574 0
-0.00254982 0.0152318 0
-0.00529825 0.0148989 0
2.67301e-06 0.0150948 0
-0.00392404 0.0150654 0
-0.00264779 0.0149969 0
-0.00127358 0.0151633 0
-0.0025494 0.0152324 0
1.13337e-06 0.0155216 0
-0.00486074 0.0152824 0
-0.00127413 0.015377 0
-0.0024298 0.015402 0
-0.00370507 0.0152574 0
-0.00254991 0.0152319 0
-0.00490896 0.0152342 0
-0.00526898 0.0148696 0
-0.00372944 0.0152331 0
-0.00508897 0.0150519 0
-0.00390944 0.0150508 0
0.00692124 0.0149812 0
0.00485982 0.0152854 0
0.009748 0.01452 0
0.00589053 0.0151333 0
0.00730391 0.0149027 0
0.00833462 0.0147506 0
0.00692069 0.0149817 0
0.00427271 0.015393 0
0.00492371 0.0152215 0
0.0055967 0.0151873 0
0.00459821 0.0153072 0
0.0059222 0.0151016 0
0.00692094 0.0149809 0
0.00969507 0.0144671 0
0.00874044 0.01454 0
0.00830801 0.014724 0
0.00921775 0.0145036 0
0.00783069 0.0147604 0
0.00692039 0.0149814 0
0.00867151 0.0146089 0
0.00432898 0.0154492 0
0.00779595 0.0147952 0
0.00650024 0.0150291 0
0.00562469 0.0152153 0
0.00230401 0.0155158 0
-1.13337e-06 0.0155247 0
0.00486074 0.0152731 0
0.00115144 0.0155202 0
0.0024298 0.0153989 0
0.00358238 0.0153944 0
0.00230404 0.0155158 0
0.0048091 0.0152215 0
0.00439198 0.015393 0
0.00355657 0.0153686 0
0.00460054 0.0153072 0
0.00334801 0.0154544 0
0.00230367 0.0155161 0
-5.81716e-05 0.0156769 0
5.50452e-05 0.0154685 0
0.00112275 0.0155965 0
-1.56322e-06 0.0155727 0
0.00117936 0.0154923 0
0.00230371 0.0155161 0
0.00432923 0.0154557 0
-5.64073e-07 0.0157345 0
0.00331647 0.0154859 0
0.00216433 0.0155951 0
0.00115157 0.0156253 0
0.00202127 0.0156595 0
-6.89087e-05 0.0157863 0
6.70092e-05 0.0156686 0
0.000976181 0.0157229 0
-9.49756e-07 0.0157274 0
0.00104414 0.015664 0
0.00202147 0.0156593 0
-5.64073e-07 0.0157362 0
0.00432923 0.0154504 0
0.00101045 0.0156977 0
0.00216433 0.0155933 0
0.00317535 0.0155548 0
0.00202129 0.0156595 0
0.00374248 0.0155536 0
-7.36767e-07 0.0158544 0
0.00288188 0.0156065 0
0.00187087 0.015704 0
0.00101027 0.015757 0
0.00202148 0.0156593 0
0.00426448 0.0153857 0
0.00381384 0.0154822 0
0.00314298 0.0155225 0
0.00403916 0.015434 0
0.00291766 0.0155708 0
-0.00202127 0.0156595 0
-6.70092e-05 0.0156686 0
6.89087e-05 0.0157863 0
-0.00104414 0.015664 0
9.49752e-07 0.0157274 0
-0.000976181 0.0157229 0
-0.00202147 0.0156593 0
-0.00432923 0.0154504 0
5.6407e-07 0.0157362 0
-0.00317535 0.0155548 0
-0.00216433 0.0155933 0
-0.00101045 0.0156977 0
-0.00202129 0.0156595 0
7.36762e-07 0.0158544 0
-0.00374248 0.0155536 0
-0.00101027 0.015757 0
-0.00187087 0.015704 0
-0.00288188 0.0156065 0
-0.00202148 0.0156593 0
-0.00381384 0.0154822 0
-0.00426448 0.0153857 0
-0.00291766 0.0155708 0
-0.00403916 0.015434 0
-0.00314298 0.0155225 0
-0.00230367 0.0155161 0
-5.50452e-05 0.0154685 0
5.81716e-05 0.0156769 0
-0.00117936 0.0154923 0
1.56321e-06 0.0155727 0
-0.00112275 0.0155965 0
-0.00230371 0.0155161 0
5.6407e-07 0.0157345 0
-0.00432923 0.0154557 0
-0.00115157 0.0156253 0
-0.00216433 0.0155951 0
-0.00331647 0.0154859 0
-0.00230401 0.0155158 0
-0.00486074 0.0152731 0
1.13337e-06 0.0155247 0
-0.00358238 0.0153944 0
-0.0024298 0.0153989 0
-0.00115144 0.0155202 0
-0.00230404 0.0155158 0
-0.00439198 0.015393 0
-0.0048091 0.0152215 0
-0.00334801 0.0154544 0
-0.00460054 0.0153072 0
-0.00355657 0.0153686 0
0.00607138 0.015072 0
0.00750353 0.01465 0
0.00374148 0.0155478 0
0.00678746 0.014861 0
0.00562251 0.0150989 0
0.00490643 0.0153099 0
0.00607155 0.0150721 0
0.00367594 0.0154822 0
0.00439958 0.0153857 0
0.00487374 0.0152772 0
0.00403776 0.015434 0
0.00523557 0.0152289 0
0.00607168 0.0150717 0
0.00860775 0.0145357 0
0.00757686 0.0145767 0
0.00733972 0.0148037 0
0.00809231 0.0145562 0
0.00682427 0.0148242 0
0.00607185 0.0150718 0
0.00432898 0.0154563 0
0.00867151 0.0145995 0
0.00520042 0.0152641 0
0.00650024 0.0150279 0
0.00737168 0.0148357 0
0.00171791 0.0157559 0
-7.36767e-07 0.015856 0
0.00374248 0.0155501 0
0.000858587 0.015806 0
0.00187087 0.015703 0
0.00273019 0.015653 0
0.00171791 0.0157559 0
0.00367113 0.0154787 0
0.00320059 0.0155626 0
0.00269452 0.0156173 0
0.00343586 0.0155207 0
0.00245925 0.0156593 0
0.00171779 0.0157561 0
-7.4502e-05 0.0158774 0
7.30322e-05 0.0157822 0
0.000821645 0.0158167 0
-7.34874e-07 0.0158298 0
0.000895412 0.0157691 0
0.00171779 0.0157561 0
0.00312473 0.0156385 0
-1.30503e-06 0.0159506 0
0.00242126 0.0156973 0
0.00156171 0.0157945 0
0.000858242 0.0158533 0
0.00516719 0.0151388 0
0.00374148 0.0155536 0
0.00750353 0.0146429 0
0.00445434 0.0153462 0
0.00562251 0.0150983 0
0.00633536 0.0148909 0
0.00516701 0.015139 0
0.00305288 0.0155626 0
0.00381632 0.0154787 0
0.00410994 0.0153508 0
0.0034346 0.0155207 0
0.00449166 0.0153088 0
0.00516709 0.0151387 0
0.00743531 0.0145747 0
0.00636029 0.0146276 0
0.0063012 0.0148567 0
0.0068978 0.0146012 0
0.00576369 0.0148831 0
0.00516691 0.0151389 0
0.00628372 0.0147042 0
0.00312227 0.015632 0
0.00572531 0.0149215 0
0.00470299 0.0151681 0
0.00414459 0.0153854 0
0.0101353 0.0139043 0
0.00744037 0.0145767 0
0.00874422 0.0145357 0
0.00878782 0.0142405 0
0.0080923 0.0145562 0
0.00943974 0.01422 0
0.0101355 0.013904 0
0.00867366 0.0146063 0
0.0130185 0.0131852 0
0.0094046 0.0142552 0
0.0108461 0.0138958 0
0.011577 0.0135446 0
0.010135 0.013904 0
0.0112909 0.0131649 0
0.00750383 0.0146402 0
0.0107129 0.0135345 0
0.00939736 0.0139025 0
0.00881941 0.0142721 0
0.0101352 0.0139038 0
0.0129542 0.013121 0
0.0113617 0.0130941 0
0.0115447 0.0135124 0
0.012158 0.0131075 0
0.0107485 0.0134989 0
-0.00692124 0.0149812 0
-0.009748 0.01452 0
-0.00485982 0.0152854 0
-0.00833462 0.0147506 0
-0.00730391 0.0149027 0
-0.00589053 0.0151333 0
-0.00692069 0.0149817 0
-0.00492371 0.0152215 0
-0.00427271 0.015393 0
-0.0059222 0.0151016 0
-0.00459821 0.0153072 0
-0.0055967 0.0151873 0
-0.00692094 0.0149809 0
-0.00874044 0.01454 0
-0.00969507 0.0144671 0
-0.00783069 0.0147604 0
-0.00921775 0.0145036 0
-0.00830801 0.014724 0
-0.00692039 0.0149814 0
-0.00432898 0.0154492 0
-0.00867151 0.0146089 0
-0.00562469 0.0152153 0
-0.00650024 0.0150291 0
-0.00779595 0.0147952 0
-0.00767115 0.0147888 0
-0.00485982 0.0152722 0
-0.009748 0.0145378 0
-0.00626548 0.0150305 0
-0.00730391 0.014905 0
-0.00870957 0.0146633 0
-0.00767157 0.0147893 0
-0.00534711 0.0148696 0
-0.00482178 0.0152342 0
-0.00650934 0.0148294 0
-0.00508445 0.0150519 0
-0.00624667 0.0150117 0
-0.00767204 0.0147879 0
-0.00980987 0.0144759 0
-0.0106302 0.0142797 0
-0.00874095 0.0146319 0
-0.01022 0.0143778 0
-0.00915111 0.0145338 0
-0.00767245 0.0147884 0
-0.0106615 0.014311 0
-0.00529457 0.0149222 0
-0.00916697 0.0145497 0
-0.00797803 0.0146166 0
-0.00648351 0.0148553 0
-0.00607138 0.015072 0
-0.00374148 0.0155478 0
-0.00750353 0.01465 0
-0.00490643 0.0153099 0
-0.00562251 0.0150989 0
-0.00678746 0.014861 0
-0.00607155 0.0150721 0
-0.00439958 0.0153857 0
-0.00367594 0.0154822 0
-0.00523557 0.0152289 0
-0.00403776 0.015434 0
-0.00487374 0.0152772 0
-0.00607168 0.0150717 0
-0.00757686 0.0145767 0
-0.00860775 0.0145357 0
-0.00682427 0.0148242 0
-0.00809231 0.0145562 0
-0.00733972 0.0148037 0
-0.00607185 0.0150718 0
-0.00867151 0.0145995 0
-0.00432898 0.0154563 0
-0.00737168 0.0148357 0
-0.00650024 0.0150279 0
-0.00520042 0.0152641 0
-0.00171791 0.0157559 0
-0.00374248 0.0155501 0
7.36762e-07 0.015856 0
-0.00273019 0.015653 0
-0.00187087 0.015703 0
-0.000858587 0.015806 0
-0.00171791 0.0157559 0
-0.00320059 0.0155626 0
-0.00367113 0.0154787 0
-0.00245925 0.0156593 0
-0.00343586 0.0155207 0
-0.00269452 0.0156173 0
-0.00171779 0.0157561 0
-7.30322e-05 0.0157822 0
7.4502e-05 0.0158774 0
-0.000895412 0.0157691 0
7.34869e-07 0.0158298 0
-0.000821645 0.0158167 0
-0.00171779 0.0157561 0
1.30503e-06 0.0159506 0
-0.00312473 0.0156385 0
-0.000858242 0.0158533 0
-0.00156171 0.0157945 0
-0.00242126 0.0156973 0
-0.00516719 0.0151388 0
-0.00750353 0.0146429 0
-0.00374148 0.0155536 0
-0.00633536 0.0148909 0
-0.00562251 0.0150983 0
-0.00445434 0.0153462 0
-0.00516701 0.015139 0
-0.00381632 0.0154787 0
-0.00305288 0.0155626 0
-0.00449166 0.0153088 0
-0.0034346 0.0155207 0
-0.00410994 0.0153508 0
-0.00516709 0.0151387 0
-0.00636029 0.0146276 0
-0.00743531 0.0145747 0
-0.00576369 0.0148831 0
-0.0068978 0.0146012 0
-0.0063012 0.0148567 0
-0.00516691 0.0151389 0
-0.00312227 0.015632 0
-0.00628372 0.0147042 0
-0.00414459 0.0153854 0
-0.00470299 0.0151681 0
-0.00572531 0.0149215 0
-0.0115504 0.0139 0
-0.00982134 0.0144671 0
-0.00861413 0.01454 0
-0.0106859 0.0141835 0
-0.00921774 0.0145036 0
-0.0100823 0.01422 0
-0.0115498 0.0138994 0
-0.00867366 0.0145995 0
-0.0130185 0.0131921 0
-0.0101117 0.0142495 0
-0.0108461 0.0138958 0
-0.0122841 0.0135457 0
-0.011551 0.0138994 0
-0.0146559 0.0132326 0
-0.00975099 0.0145375 0
-0.0131035 0.013566 0
-0.0122034 0.013885 0
-0.010651 0.0142184 0
-0.0115504 0.0138988 0
-0.01309 0.0131205 0
-0.0145952 0.0131719 0
-0.0123202 0.0135096 0
-0.0138426 0.0131462 0
-0.0130728 0.0135353 0
-0.0101353 0.0139043 0
-0.00874422 0.0145357 0
-0.00744037 0.0145767 0
-0.00943974 0.01422 0
-0.0080923 0.0145562 0
-0.00878782 0.0142405 0
-0.0101355 0.013904 0
-0.0130185 0.0131852 0
-0.00867366 0.0146063 0
-0.011577 0.0135446 0
-0.0108461 0.0138958 0
-0.0094046 0.0142552 0
-0.010135 0.013904 0
-0.00750383 0.0146402 0
-0.0112909 0.0131649 0
-0.00881941 0.0142721 0
-0.00939736 0.0139025 0
-0.0107129 0.0135345 0
-0.0101352 0.0139038 0
-0.0113617 0.0130941 0
-0.0129542 0.013121 0
-0.0107485 0.0134989 0
-0.012158 0.0131075 0
-0.0115447 0.0135124 0
-0.0128418 0.0138631 0
-0.0107333 0.0142797 0
-0.00970393 0.0144759 0
-0.0117875 0.0140714 0
-0.0102186 0.0143778 0
-0.0112729 0.0141695 0
-0.0128429 0.013862 0
-0.0161164 0.0132562 0
-0.0106631 0.0143498 0
-0.0144797 0.0135591 0
-0.0133898 0.013803 0
-0.011753 0.0141059 0
-0.0128408 0.0138622 0
-0.00975099 0.0145229 0
-0.0146559 0.0132482 0
-0.0112959 0.0141925 0
-0.0122034 0.0138856 0
-0.0137484 0.0135552 0
-0.0128419 0.013861 0
-0.0147308 0.0131733 0
-0.0160699 0.0132097 0
-0.0137864 0.0135172 0
-0.0154004 0.0131915 0
-0.0144559 0.0135353 0
-0.0139014 0.013694 0
-0.0113637 0.0138113 0
-0.010644 0.0142965 0
-0.0126325 0.0137527 0
-0.0110039 0.0140539 0
-0.0122727 0.0139953 0
-0.0139002 0.0136929 0
-0.0106631 0.0143157 0
-0.0161164 0.0132949 0
-0.0122816 0.0140043 0
-0.0133898 0.0138053 0
-0.0150083 0.0134939 0
-0.0139031 0.0136923 0
-0.017239 0.0131425 0
-0.0112998 0.0138752 0
-0.0155711 0.0134174 0
-0.0142694 0.0135088 0
-0.0126015 0.0137837 0
-0.0139019 0.0136911 0
-0.0161928 0.0132184 0
-0.0172265 0.01313 0
-0.0150474 0.0134548 0
-0.0167097 0.0131742 0
-0.0155642 0.0134106 0
0.0141938 0.0121802 0
0.0150897 0.011149 0
0.0112928 0.0131541 0
0.0146418 0.0116646 0
0.0131913 0.0121516 0
0.0127433 0.0126672 0
0.0141941 0.0121804 0
0.0112327 0.0130941 0
0.0130869 0.013121 0
0.0127134 0.0126372 0
0.0121598 0.0131075 0
0.0136405 0.0126507 0
0.0141939 0.0121801 0
0.0172575 0.0111644 0
0.0151502 0.0110886 0
0.0157257 0.0116723 0
0.0162038 0.0111265 0
0.014672 0.0116343 0
0.0141941 0.0121804 0
0.0130236 0.0131843 0
0.017321 0.011228 0
0.0136089 0.0126823 0
0.0151723 0.0122061 0
0.0157575 0.0117042 0
0.0121853 0.0121484 0
0.0112928 0.0131581 0
0.0150897 0.0111462 0
0.0117391 0.0126532 0
0.0131913 0.0121522 0
0.0136375 0.0116473 0
0.0121854 0.0121483 0
0.00945412 0.0131048 0
0.0113566 0.0130943 0
0.0108197 0.0126266 0
0.0104054 0.0130996 0
0.011771 0.0126213 0
0.0121853 0.0121483 0
0.0150346 0.011091 0
0.0128889 0.01106 0
0.0136099 0.0116197 0
0.0139617 0.0110755 0
0.0125371 0.0116042 0
0.0121854 0.0121483 0
0.0128258 0.0111231 0
0.00950868 0.0131594 0
0.0125056 0.0116357 0
0.0111672 0.0121413 0
0.010847 0.0126538 0
0.00865266 0.0139219 0
0.00750383 0.0146472 0
0.0112909 0.0131578 0
0.00807825 0.0142845 0
0.00939736 0.0139025 0
0.00997177 0.0135398 0
0.00865255 0.0139218 0
0.0112274 0.0130943 0
0.00958302 0.0131048 0
0.00993998 0.013508 0
0.0104052 0.0130996 0
0.00911779 0.0135133 0
0.00865252 0.013922 0
0.00621798 0.0146276 0
0.00757627 0.0145747 0
0.00743525 0.0142748 0
0.00689712 0.0146012 0
0.00811439 0.0142484 0
0.00865241 0.0139219 0
0.00950982 0.013178 0
0.00628171 0.0146913 0
0.00908111 0.01355 0
0.00789576 0.0139347 0
0.00746706 0.0143066 0
0.0182006 0.00995982 0
0.0150404 0.0110886 0
0.0173737 0.0111644 0
0.0166205 0.0105242 0
0.016207 0.0111265 0
0.0177871 0.0105621 0
0.0182003 0.00996007 0
0.0173277 0.0112105 0
0.0214919 0.00879152 0
0.017764 0.0105853 0
0.0194098 0.010001 0
0.0198461 0.0093758 0
0.0182005 0.00995979 0
0.0188638 0.00869652 0
0.0150928 0.011141 0
0.0185322 0.00932816 0
0.0169783 0.00991875 0
0.0166466 0.0105504 0
0.0182003 0.00996004 0
0.0214349 0.00873448 0
0.0189048 0.00865554 0
0.0198176 0.00934726 0
0.0201699 0.00869501 0
0.0185525 0.00930779 0
0.00423158 0.0152149 0
0.00621431 0.014627 0
0.00511437 0.0147029 0
0.00522295 0.014921 0
0.00566434 0.014665 0
0.00467298 0.0149589 0
0.00423172 0.0152151 0
0.00312227 0.015639 0
0.00628372 0.0146964 0
0.00367699 0.015427 0
0.00470299 0.0151677 0
0.00525772 0.0149558 0
0.00423139 0.0152151 0
0.00503627 0.014781 0
0.00248856 0.0157189 0
0.00463383 0.0149981 0
0.00376242 0.01525 0
0.00335998 0.015467 0
0.00423153 0.0152153 0
0.00241859 0.015649 0
0.00319913 0.0155621 0
0.00332506 0.0154321 0
0.00280886 0.0156055 0
0.00371533 0.0153887 0
0.00712756 0.0139707 0
0.00496861 0.0147029 0
0.00635703 0.014627 0
0.00604808 0.0143368 0
0.00566282 0.014665 0
0.00674229 0.0142989 0
0.00712777 0.0139705 0
0.00628171 0.0147024 0
0.00950982 0.0131664 0
0.00670474 0.0143365 0
0.00789576 0.0139344 0
0.00831879 0.0135685 0
0.00712743 0.0139706 0
0.00769031 0.0132334 0
0.00503184 0.0147661 0
0.00740887 0.013602 0
0.00636107 0.0139997 0
0.00607964 0.0143684 0
0.00712764 0.0139704 0
0.00944767 0.0131042 0
0.00776738 0.0131563 0
0.00828766 0.0135373 0
0.00860753 0.0131303 0
0.00744751 0.0135634 0
0.00140301 0.0158467 0
-7.58211e-05 0.0159669 0
7.45242e-05 0.0158769 0
0.000663595 0.0159068 0
-6.48432e-07 0.0159219 0
0.000738768 0.0158618 0
0.0014031 0.0158467 0
-1.30503e-06 0.0159528 0
0.00312473 0.0156355 0
0.000700896 0.0158997 0
0.00156171 0.0157942 0
0.00226391 0.0157411 0
0.00140296 0.0158467 0
0.00249257 0.0157255 0
-1.91404e-06 0.0160408 0
0.00194777 0.0157861 0
0.00124533 0.0158832 0
0.000700524 0.0159437 0
0.00140305 0.0158466 0
0.0030513 0.0155621 0
0.00256915 0.015649 0
0.00222718 0.0157044 0
0.00281023 0.0156055 0
0.0019861 0.0157478 0
-0.00140301 0.0158467 0
-7.45242e-05 0.0158769 0
7.5821e-05 0.0159669 0
-0.000738768 0.0158618 0
6.48427e-07 0.0159219 0
-0.000663595 0.0159068 0
-0.0014031 0.0158467 0
-0.00312473 0.0156355 0
1.30503e-06 0.0159528 0
-0.00226391 0.0157411 0
-0.00156171 0.0157942 0
-0.000700896 0.0158997 0
-0.00140296 0.0158467 0
1.91403e-06 0.0160408 0
-0.00249257 0.0157255 0
-0.000700524 0.0159437 0
-0.00124533 0.0158832 0
-0.00194777 0.0157861 0
-0.00140305 0.0158466 0
-0.00256915 0.015649 0
-0.0030513 0.0155621 0
-0.0019861 0.0157478 0
-0.00281023 0.0156055 0
-0.00222718 0.0157044 0
0.00328528 0.0152951 0
0.00248856 0.0157271 0
0.00503627 0.0147728 0
0.00288692 0.0155111 0
0.00376242 0.01525 0
0.00416077 0.015034 0
0.00328499 0.0152954 0
0.0017914 0.0157113 0
0.00256382 0.0156519 0
0.0025382 0.0155033 0
0.00217761 0.0156816 0
0.0029244 0.0154736 0
0.00328497 0.0152948 0
0.00496768 0.0147042 0
0.00386465 0.0147823 0
0.00412633 0.0149995 0
0.00441617 0.0147433 0
0.00357481 0.0150385 0
0.00328469 0.0152951 0
0.00378909 0.0148578 0
0.00185912 0.015779 0
0.00353689 0.0150764 0
0.0028241 0.0153184 0
0.0025719 0.015537 0
0.00108519 0.0159241 0
-1.91404e-06 0.0160436 0
0.00249257 0.0157233 0
0.000541636 0.0159838 0
0.00124533 0.0158834 0
0.00178888 0.0158237 0
0.00108504 0.0159239 0
0.00242114 0.0156519 0
0.00193638 0.0157113 0
0.00175309 0.0157879 0
0.00217876 0.0156816 0
0.00151071 0.0158176 0
0.00108511 0.0159242 0
-7.22097e-05 0.0160216 0
7.13788e-05 0.0159703 0
0.000506453 0.0159729 0
-4.15436e-07 0.015996 0
0.000578247 0.0159472 0
0.00108497 0.015924 0
0.00186412 0.0157835 0
-2.23554e-06 0.0160916 0
0.00147454 0.0158538 0
0.000930941 0.0159376 0
0.000541368 0.0160078 0
0.0101353 0.0121587 0
0.0127762 0.0110595 0
0.0105878 0.0110695 0
0.0114557 0.0116091 0
0.011682 0.0110645 0
0.0103616 0.0116141 0
0.0101353 0.0121587 0
0.00950868 0.013173 0
0.0128258 0.0111091 0
0.00982199 0.0126658 0
0.0111672 0.0121411 0
0.0114805 0.0116339 0
0.0101352 0.0121588 0
0.0105171 0.0111402 0
0.00768581 0.0132077 0
0.0103262 0.0116495 0
0.00910147 0.0121739 0
0.00891052 0.0126832 0
0.0101352 0.0121588 0
0.00763443 0.0131563 0
0.00957746 0.0131042 0
0.00888482 0.0126575 0
0.00860595 0.0131303 0
0.00985634 0.0126315 0
0.0157599 0.00989814 0
0.0127854 0.01106 0
0.0151401 0.011091 0
0.0142727 0.0104791 0
0.0139628 0.0110755 0
0.01545 0.0104946 0
0.0157601 0.00989831 0
0.0162386 0.00864532 0
0.0128262 0.0111008 0
0.0159993 0.00927182 0
0.0145324 0.00987304 0
0.0142931 0.0104995 0
0.0157597 0.00989842 0
0.0150928 0.0111384 0
0.0188638 0.00870114 0
0.0154262 0.0105184 0
0.0169783 0.00991978 0
0.0173117 0.00929978 0
0.0157598 0.00989859 0
0.0188218 0.00865906 0
0.0162838 0.00860014 0
0.0172908 0.00927882 0
0.0175528 0.0086296 0
0.0160218 0.00924936 0
0.0132915 0.00986466 0
0.0104811 0.0110695 0
0.0128808 0.0110595 0
0.0118863 0.0104671 0
0.011681 0.0110645 0
0.0130862 0.0104621 0
0.0132913 0.00986484 0
0.0128262 0.0111142 0
0.0162386 0.00863213 0
0.0130588 0.0104895 0
0.0145324 0.00987316 0
0.014765 0.00924848 0
0.0132918 0.00986491 0
0.013573 0.0086064 0
0.0105143 0.0111026 0
0.0134324 0.00923565 0
0.0120437 0.00985451 0
0.011903 0.0104838 0
0.0132916 0.00986508 0
0.016207 0.00860055 0
0.0136284 0.00855102 0
0.0147493 0.00923282 0
0.0149177 0.00857578 0
0.01346 0.00920805 0
0.00557923 0.0140482 0
0.00503184 0.0147811 0
0.00769031 0.0132175 0
0.00530554 0.0144147 0
0.00636107 0.0139993 0
0.00663477 0.0136328 0
0.00557889 0.0140478 0
0.00762809 0.0131552 0
0.00593279 0.0132451 0
0.00660349 0.0136015 0
0.00678044 0.0132002 0
0.00575584 0.0136465 0
0.00557879 0.0140486 0
0.00371945 0.0147823 0
0.00510874 0.0147042 0
0.00464912 0.0144154 0
0.00441409 0.0147433 0
0.00534376 0.0143764 0
0.00557845 0.0140483 0
0.00585342 0.0133245 0
0.00378259 0.0148454 0
0.00571593 0.0136864 0
0.004818 0.014085 0
0.00468052 0.0144468 0
0.00804333 0.0122152 0
0.00768581 0.0132311 0
0.0105171 0.0111148 0
0.00786457 0.0127232 0
0.00910147 0.012173 0
0.00928023 0.011665 0
0.0080429 0.0122156 0
0.00579258 0.0132451 0
0.00776166 0.0131552 0
0.00691774 0.0127304 0
0.00677712 0.0132002 0
0.00790228 0.0126854 0
0.00804315 0.012215 0
0.0104683 0.011066 0
0.00823863 0.0111344 0
0.00925573 0.0116405 0
0.00935347 0.0111002 0
0.00814089 0.0116747 0
0.00804272 0.0122155 0
0.00815789 0.0112151 0
0.00584505 0.0132976 0
0.00810031 0.0117153 0
0.00700147 0.0122563 0
0.00694388 0.0127565 0
0.0220934 0.00735048 0
0.0225697 0.00594327 0
0.0188663 0.0086941 0
0.0223316 0.00664687 0
0.020718 0.00731868 0
0.0204799 0.00802229 0
0.0220932 0.00735025 0
0.0188278 0.00865554 0
0.0215173 0.00873448 0
0.0204605 0.00800289 0
0.0201725 0.00869501 0
0.0218052 0.00804236 0
0.022093 0.0073509 0
0.0254027 0.00596064 0
0.0225873 0.0059257 0
0.0237479 0.00665577 0
0.023995 0.00594317 0
0.0223401 0.0066383 0
0.0220928 0.00735067 0
0.0214958 0.00875595 0
0.0254439 0.0060018 0
0.0217943 0.00805331 0
0.0234699 0.00737888 0
0.0237683 0.00667623 0
0.0193528 0.00729248 0
0.0188663 0.00868474 0
0.0225697 0.00595437 0
0.0191096 0.00798861 0
0.020718 0.00731956 0
0.0209613 0.00662342 0
0.0193532 0.00729207 0
0.016217 0.00860014 0
0.018892 0.00865906 0
0.0177851 0.00794611 0
0.0175545 0.0086296 0
0.0191226 0.00797557 0
0.0193531 0.00729274 0
0.0225435 0.00592814 0
0.0197512 0.00586508 0
0.0209483 0.00661044 0
0.0211473 0.00589661 0
0.0195522 0.00657891 0
0.0193535 0.00729233 0
0.0197286 0.00588768 0
0.0162414 0.00862462 0
0.0195411 0.00659001 0
0.017985 0.00725615 0
0.0177975 0.00795848 0
0.0258359 0.00449671 0
0.0225479 0.0059257 0
0.0254408 0.00596064 0
0.0241919 0.0052112 0
0.0239944 0.00594317 0
0.0256384 0.00522868 0
0.0258358 0.00449688 0
0.025439 0.00596244 0
0.0291663 0.00302868 0
0.0256374 0.00522966 0
0.0273027 0.00449556 0
0.027501 0.00376278 0
0.0258362 0.00449701 0
0.0261848 0.00302922 0
0.0225696 0.00594733 0
0.0260105 0.00376312 0
0.0243772 0.00448827 0
0.0242029 0.00522217 0
0.0258361 0.00449718 0
0.0291474 0.00300981 0
0.0261885 0.00302558 0
0.0274917 0.00375349 0
0.0276679 0.0030177 0
0.0260123 0.00376138 0
-0.0196777 0.0125369 0
-0.0233801 0.0119556 0
-0.0172481 0.0132283 0
-0.0215289 0.0122463 0
-0.0203141 0.012592 0
-0.0184629 0.0128826 0
-0.0196755 0.0125392 0
-0.0173464 0.01313 0
-0.0160764 0.0132184 0
-0.0185109 0.0128346 0
-0.0167114 0.0131742 0
-0.0178759 0.0128788 0
-0.0196754 0.0125346 0
-0.02169 0.011538 0
-0.0233229 0.0118983 0
-0.0206827 0.0120363 0
-0.0225065 0.0117182 0
-0.0214991 0.0122165 0
-0.0196731 0.0125369 0
-0.0161276 0.0132696 0
-0.0215885 0.0116395 0
-0.0179003 0.0129032 0
-0.018858 0.0124546 0
-0.0206308 0.0120882 0
-0.0208803 0.0125952 0
-0.0172481 0.0131604 0
-0.0233801 0.0120281 0
-0.0190642 0.0128778 0
-0.0203141 0.0125943 0
-0.0221302 0.0123117 0
-0.0208828 0.0125978 0
-0.01789 0.012686 0
-0.0172437 0.013156 0
-0.0193864 0.0126419 0
-0.0175668 0.012921 0
-0.0190632 0.0128769 0
-0.0208838 0.0125917 0
-0.0235005 0.0119077 0
-0.0245467 0.0122294 0
-0.0221922 0.0122497 0
-0.0240236 0.0120686 0
-0.0227153 0.0124106 0
-0.0208864 0.0125943 0
-0.0245409 0.0122236 0
-0.0177922 0.0127839 0
-0.0227136 0.0124089 0
-0.0211665 0.0125038 0
-0.0193393 0.0126891 0
-0.0180205 0.0123834 0
-0.0195881 0.0112957 0
-0.0215138 0.0115453 0
-0.0188043 0.0118395 0
-0.0205509 0.0114205 0
-0.0197672 0.0119643 0
-0.018022 0.0123848 0
-0.0215885 0.01162 0
-0.0161276 0.0132921 0
-0.0198052 0.0120024 0
-0.018858 0.012456 0
-0.0170748 0.0128384 0
-0.0180194 0.0123844 0
-0.0146645 0.013239 0
-0.0195095 0.0113742 0
-0.016342 0.0128117 0
-0.017087 0.0123066 0
-0.0187645 0.0118793 0
-0.0180209 0.0123859 0
-0.01621 0.0132097 0
-0.0145988 0.0131733 0
-0.0171154 0.0127978 0
-0.0154044 0.0131915 0
-0.0163098 0.0127796 0
-0.025421 0.0107074 0
-0.0235314 0.0118983 0
-0.0215099 0.011538 0
-0.0244762 0.0113029 0
-0.0225207 0.0117182 0
-0.0234655 0.0111227 0
-0.0254178 0.0107043 0
-0.0216112 0.0116392 0
-0.0268516 0.00926642 0
-0.0235145 0.0111717 0
-0.0242314 0.0104528 0
-0.0261347 0.00998534 0
-0.0254228 0.0107056 0
-0.0294831 0.00996605 0
-0.0234131 0.0120166 0
-0.0274529 0.0103358 0
-0.0264481 0.0109913 0
-0.0244179 0.0113611 0
-0.0254196 0.0107024 0
-0.0269518 0.00916625 0
-0.0293537 0.00983667 0
-0.0261857 0.00993435 0
-0.0281527 0.00950146 0
-0.0273867 0.0102696 0
-0.0230695 0.0102952 0
-0.0216868 0.0115453 0
-0.0194362 0.0112957 0
-0.0223782 0.0109202 0
-0.0205615 0.0114205 0
-0.0212529 0.0107954 0
-0.0230699 0.0102947 0
-0.0268516 0.00929804 0
-0.0216112 0.0116209 0
-0.0249608 0.00979639 0
-0.0242314 0.0104595 0
-0.0223406 0.0109578 0
-0.0230681 0.0102937 0
-0.0195226 0.011382 0
-0.024155 0.00892338 0
-0.0212953 0.0108379 0
-0.0218388 0.0101527 0
-0.0236115 0.00960856 0
-0.0230685 0.0102933 0
-0.0242155 0.00886284 0
-0.0267464 0.00919288 0
-0.023642 0.00957808 0
-0.025481 0.00902786 0
-0.0249075 0.0097431 0
-0.0161545 0.012258 0
-0.0195095 0.011376 0
-0.0146645 0.0132411 0
-0.017832 0.011817 0
-0.017087 0.0123086 0
-0.0154095 0.0127496 0
-0.0161541 0.0122584 0
-0.0147337 0.0131719 0
-0.0129582 0.0131205 0
-0.0154439 0.0127152 0
-0.013846 0.0131462 0
-0.0145562 0.0126895 0
-0.0161538 0.0122573 0
-0.0173858 0.0111589 0
-0.0194375 0.011304 0
-0.0167698 0.0117081 0
-0.0184117 0.0112314 0
-0.0177957 0.0117807 0
-0.0161534 0.0122577 0
-0.0130236 0.0131859 0
-0.017321 0.0112236 0
-0.0145885 0.0127218 0
-0.0151723 0.0122048 0
-0.0167372 0.0117407 0
-0.0213022 0.0122051 0
-0.0246332 0.01229 0
-0.0247297 0.0120236 0
-0.0229677 0.0122475 0
-0.0246814 0.0121568 0
-0.023016 0.0121143 0
-0.0212996 0.0122077 0
-0.0177922 0.0126484 0
-0.0245409 0.0123823 0
-0.0195459 0.0124281 0
-0.0211665 0.0125154 0
-0.0229202 0.012295 0
-0.0213023 0.0122052 0
-0.0246005 0.0118944 0
-0.0175615 0.0114518 0
-0.0229514 0.0120498 0
-0.021081 0.0116731 0
-0.0194319 0.0118285 0
-0.0212997 0.0122078 0
-0.0176085 0.0114048 0
-0.0178815 0.0127377 0
-0.0194541 0.0118063 0
-0.017745 0.0120713 0
-0.0195906 0.0124728 0
-0.0274642 0.0113622 0
-0.0247388 0.0122294 0
-0.023326 0.0119077 0
-0.0261015 0.0117958 0
-0.0240324 0.0120686 0
-0.0253951 0.011635 0
-0.0274694 0.011357 0
-0.0316929 0.0110778 0
-0.0245682 0.0124 0
-0.0295811 0.0112174 0
-0.0281306 0.0117389 0
-0.0260188 0.0118785 0
-0.0274584 0.0113564 0
-0.0234131 0.0119948 0
-0.0294831 0.00997406 0
-0.0254358 0.0116756 0
-0.0264481 0.0109844 0
-0.0284708 0.0106652 0
-0.0274637 0.0113512 0
-0.0296549 0.00980221 0
-0.0315851 0.01097 0
-0.0285593 0.0105767 0
-0.03062 0.0103861 0
-0.0295244 0.0111606 0
-0.0286656 0.0120792 0
-0.0247403 0.0120236 0
-0.0245852 0.01229 0
-0.0267029 0.0120514 0
-0.0246627 0.0121568 0
-0.0266254 0.0121846 0
-0.0286599 0.0120735 0
-0.0245682 0.0122731 0
-0.0316929 0.0112145 0
-0.0266141 0.0121733 0
-0.0281306 0.0117438 0
-0.0301764 0.011644 0
-0.0286744 0.0120704 0
-0.0326725 0.0122794 0
-0.0245805 0.0121834 0
-0.0306735 0.0121749 0
-0.0286265 0.0122314 0
-0.0266275 0.0121269 0
-0.0286687 0.0120646 0
-0.0319206 0.0109867 0
-0.0327282 0.012335 0
-0.0302947 0.0115257 0
-0.0323244 0.0116609 0
-0.0306984 0.0121998 0
-0.0206531 0.0106638 0
-0.0175615 0.0112668 0
-0.0246005 0.0121226 0
-0.0191073 0.0109653 0
-0.021081 0.0116947 0
-0.0226268 0.0113932 0
-0.0206467 0.0106574 0
-0.0165543 0.00863703 0
-0.0177634 0.0114687 0
-0.0186005 0.00964721 0
-0.0171589 0.0100529 0
-0.0192051 0.011063 0
-0.0206498 0.0106671 0
-0.0245738 0.0121493 0
-0.0236034 0.0101553 0
-0.0226118 0.0114082 0
-0.0240886 0.0111523 0
-0.0221266 0.0104112 0
-0.0206434 0.0106607 0
-0.0233391 0.009891 0
-0.016624 0.00856732 0
-0.0219913 0.0102758 0
-0.0199816 0.00922916 0
-0.0186337 0.00961401 0
-0.0141938 0.0121802 0
-0.0112928 0.0131541 0
-0.0150897 0.011149 0
-0.0127433 0.0126672 0
-0.0131913 0.0121516 0
-0.0146418 0.0116646 0
-0.0141941 0.0121804 0
-0.0130869 0.013121 0
-0.0112327 0.0130941 0
-0.0136405 0.0126507 0
-0.0121598 0.0131075 0
-0.0127134 0.0126372 0
-0.0141939 0.0121801 0
-0.0151502 0.0110886 0
-0.0172575 0.0111644 0
-0.014672 0.0116343 0
-0.0162038 0.0111265 0
-0.0157257 0.0116723 0
-0.0141941 0.0121804 0
-0.017321 0.011228 0
-0.0130236 0.0131843 0
-0.0157575 0.0117042 0
-0.0151723 0.0122061 0
-0.0136089 0.0126823 0
-0.0121853 0.0121484 0
-0.0150897 0.0111462 0
-0.0112928 0.0131581 0
-0.0136375 0.0116473 0
-0.0131913 0.0121522 0
-0.0117391 0.0126532 0
-0.0121854 0.0121483 0
-0.0113566 0.0130943 0
-0.00945412 0.0131048 0
-0.011771 0.0126213 0
-0.0104054 0.0130996 0
-0.0108197 0.0126266 0
-0.0121853 0.0121483 0
-0.0128889 0.01106 0
-0.0150346 0.011091 0
-0.0125371 0.0116042 0
-0.0139617 0.0110755 0
-0.0136099 0.0116197 0
-0.0121854 0.0121483 0
-0.00950868 0.0131594 0
-0.0128258 0.0111231 0
-0.010847 0.0126538 0
-0.0111672 0.0121413 0
-0.0125056 0.0116357 0
-0.00865266 0.0139219 0
-0.0112909 0.0131578 0
-0.00750383 0.0146472 0
-0.00997177 0.0135398 0
-0.00939736 0.0139025 0
-0.00807825 0.0142845 0
-0.00865255 0.0139218 0
-0.00958302 0.0131048 0
-0.0112274 0.0130943 0
-0.00911779 0.0135133 0
-0.0104052 0.0130996 0
-0.00993998 0.013508 0
-0.00865252 0.013922 0
-0.00757627 0.0145747 0
-0.00621798 0.0146276 0
-0.00811439 0.0142484 0
-0.00689712 0.0146012 0
-0.00743525 0.0142748 0
-0.00865241 0.0139219 0
-0.00628171 0.0146913 0
-0.00950982 0.013178 0
-0.00746706 0.0143066 0
-0.00789576 0.0139347 0
-0.00908111 0.01355 0
-0.0182006 0.00995982 0
-0.0173737 0.0111644 0
-0.0150404 0.0110886 0
-0.0177871 0.0105621 0
-0.016207 0.0111265 0
-0.0166205 0.0105242 0
-0.0182003 0.00996007 0
-0.0214919 0.00879152 0
-0.0173277 0.0112105 0
-0.0198461 0.0093758 0
-0.0194098 0.010001 0
-0.017764 0.0105853 0
-0.0182005 0.00995979 0
-0.0150928 0.011141 0
-0.0188638 0.00869652 0
-0.0166466 0.0105504 0
-0.0169783 0.00991875 0
-0.0185322 0.00932816 0
-0.0182003 0.00996004 0
-0.0189048 0.00865554 0
-0.0214349 0.00873448 0
-0.0185525 0.00930779 0
-0.0201699 0.00869501 0
-0.0198176 0.00934726 0
-0.0206382 0.0100733 0
-0.0195761 0.011304 0
-0.0172598 0.0111589 0
-0.0201071 0.0106887 0
-0.018418 0.0112314 0
-0.018949 0.0106161 0
-0.0206377 0.0100728 0
-0.0173277 0.0112267 0
-0.0214919 0.00877083 0
-0.0189827 0.0106498 0
-0.0194098 0.00999875 0
-0.0210648 0.00942183 0
-0.0206381 0.0100734 0
-0.024155 0.00895622 0
-0.0195226 0.0113576 0
-0.0223966 0.00951482 0
-0.0218388 0.0101569 0
-0.0200803 0.0107155 0
-0.0206376 0.0100729 0
-0.0215361 0.00872661 0
-0.0240771 0.00887831 0
-0.0210869 0.00939977 0
-0.0228066 0.00880246 0
-0.0223574 0.00947562 0
-0.00423158 0.0152149 0
-0.00511437 0.0147029 0
-0.00621431 0.014627 0
-0.00467298 0.0149589 0
-0.00566434 0.014665 0
-0.00522295 0.014921 0
-0.00423172 0.0152151 0
-0.00628372 0.0146964 0
-0.00312227 0.015639 0
-0.00525772 0.0149558 0
-0.00470299 0.0151677 0
-0.00367699 0.015427 0
-0.00423139 0.0152151 0
-0.00248856 0.0157189 0
-0.00503627 0.014781 0
-0.00335998 0.015467 0
-0.00376242 0.01525 0
-0.00463383 0.0149981 0
-0.00423153 0.0152153 0
-0.00319913 0.0155621 0
-0.00241859 0.015649 0
-0.00371533 0.0153887 0
-0.00280886 0.0156055 0
-0.00332506 0.0154321 0
-0.00712756 0.0139707 0
-0.00635703 0.014627 0
-0.00496861 0.0147029 0
-0.00674229 0.0142989 0
-0.00566282 0.014665 0
-0.00604808 0.0143368 0
-0.00712777 0.0139705 0
-0.00950982 0.0131664 0
-0.00628171 0.0147024 0
-0.00831879 0.0135685 0
-0.00789576 0.0139344 0
-0.00670474 0.0143365 0
-0.00712743 0.0139706 0
-0.00503184 0.0147661 0
-0.00769031 0.0132334 0
-0.00607964 0.0143684 0
-0.00636107 0.0139997 0
-0.00740887 0.013602 0
-0.00712764 0.0139704 0
-0.00776738 0.0131563 0
-0.00944767 0.0131042 0
-0.00744751 0.0135634 0
-0.00860753 0.0131303 0
-0.00828766 0.0135373 0
-0.00328528 0.0152951 0
-0.00503627 0.0147728 0
-0.00248856 0.0157271 0
-0.00416077 0.015034 0
-0.00376242 0.01525 0
-0.00288692 0.0155111 0
-0.00328499 0.0152954 0
-0.00256382 0.0156519 0
-0.0017914 0.0157113 0
-0.0029244 0.0154736 0
-0.00217761 0.0156816 0
-0.0025382 0.0155033 0
-0.00328497 0.0152948 0
-0.00386465 0.0147823 0
-0.00496768 0.0147042 0
-0.00357481 0.0150385 0
-0.00441617 0.0147433 0
-0.00412633 0.0149995 0
-0.00328469 0.0152951 0
-0.00185912 0.015779 0
-0.00378909 0.0148578 0
-0.0025719 0.015537 0
-0.0028241 0.0153184 0
-0.00353689 0.0150764 0
-0.00108519 0.0159241 0
-0.00249257 0.0157233 0
1.91403e-06 0.0160436 0
-0.00178888 0.0158237 0
-0.00124533 0.0158834 0
-0.000541636 0.0159838 0
-0.00108504 0.0159239 0
-0.00193638 0.0157113 0
-0.00242114 0.0156519 0
-0.00151071 0.0158176 0
-0.00217876 0.0156816 0
-0.00175309 0.0157879 0
-0.00108511 0.0159242 0
-7.13788e-05 0.0159703 0
7.22096e-05 0.0160216 0
-0.000578247 0.0159472 0
4.15431e-07 0.015996 0
-0.000506453 0.0159729 0
-0.00108497 0.015924 0
2.23554e-06 0.0160916 0
-0.00186412 0.0157835 0
-0.000541368 0.0160078 0
-0.000930941 0.0159376 0
-0.00147454 0.0158538 0
-0.0101353 0.0121587 0
-0.0105878 0.0110695 0
-0.0127762 0.0110595 0
-0.0103616 0.0116141 0
-0.011682 0.0110645 0
-0.0114557 0.0116091 0
-0.0101353 0.0121587 0
-0.0128258 0.0111091 0
-0.00950868 0.013173 0
-0.0114805 0.0116339 0
-0.0111672 0.0121411 0
-0.00982199 0.0126658 0
-0.0101352 0.0121588 0
-0.00768581 0.0132077 0
-0.0105171 0.0111402 0
-0.00891052 0.0126832 0
-0.00910147 0.0121739 0
-0.0103262 0.0116495 0
-0.0101352 0.0121588 0
-0.00957746 0.0131042 0
-0.00763443 0.0131563 0
-0.00985634 0.0126315 0
-0.00860595 0.0131303 0
-0.00888482 0.0126575 0
-0.0157599 0.00989814 0
-0.0151401 0.011091 0
-0.0127854 0.01106 0
-0.01545 0.0104946 0
-0.0139628 0.0110755 0
-0.0142727 0.0104791 0
-0.0157601 0.00989831 0
-0.0128262 0.0111008 0
-0.0162386 0.00864532 0
-0.0142931 0.0104995 0
-0.0145324 0.00987304 0
-0.0159993 0.00927182 0
-0.0157597 0.00989842 0
-0.0188638 0.00870114 0
-0.0150928 0.0111384 0
-0.0173117 0.00929978 0
-0.0169783 0.00991978 0
-0.0154262 0.0105184 0
-0.0157598 0.00989859 0
-0.0162838 0.00860014 0
-0.0188218 0.00865906 0
-0.0160218 0.00924936 0
-0.0175528 0.0086296 0
-0.0172908 0.00927882 0
-0.0132915 0.00986466 0
-0.0128808 0.0110595 0
-0.0104811 0.0110695 0
-0.0130862 0.0104621 0
-0.011681 0.0110645 0
-0.0118863 0.0104671 0
-0.0132913 0.00986484 0
-0.0162386 0.00863213 0
-0.0128262 0.0111142 0
-0.014765 0.00924848 0
-0.0145324 0.00987316 0
-0.0130588 0.0104895 0
-0.0132918 0.00986491 0
-0.0105143 0.0111026 0
-0.013573 0.0086064 0
-0.011903 0.0104838 0
-0.0120437 0.00985451 0
-0.0134324 0.00923565 0
-0.0132916 0.00986508 0
-0.0136284 0.00855102 0
-0.016207 0.00860055 0
-0.01346 0.00920805 0
-0.0149177 0.00857578 0
-0.0147493 0.00923282 0
-0.00557923 0.0140482 0
-0.00769031 0.0132175 0
-0.00503184 0.0147811 0
-0.00663477 0.0136328 0
-0.00636107 0.0139993 0
-0.00530554 0.0144147 0
-0.00557889 0.0140478 0
-0.00593279 0.0132451 0
-0.00762809 0.0131552 0
-0.00575584 0.0136465 0
-0.00678044 0.0132002 0
-0.00660349 0.0136015 0
-0.00557879 0.0140486 0
-0.00510874 0.0147042 0
-0.00371945 0.0147823 0
-0.00534376 0.0143764 0
-0.00441409 0.0147433 0
-0.00464912 0.0144154 0
-0.00557845 0.0140483 0
-0.00378259 0.0148454 0
-0.00585342 0.0133245 0
-0.00468052 0.0144468 0
-0.004818 0.014085 0
-0.00571593 0.0136864 0
-0.00804333 0.0122152 0
-0.0105171 0.0111148 0
-0.00768581 0.0132311 0
-0.00928023 0.011665 0
-0.00910147 0.012173 0
-0.00786457 0.0127232 0
-0.0080429 0.0122156 0
-0.00776166 0.0131552 0
-0.00579258 0.0132451 0
-0.00790228 0.0126854 0
-0.00677712 0.0132002 0
-0.00691774 0.0127304 0
-0.00804315 0.012215 0
-0.00823863 0.0111344 0
-0.0104683 0.011066 0
-0.00814089 0.0116747 0
-0.00935347 0.0111002 0
-0.00925573 0.0116405 0
-0.00804272 0.0122155 0
-0.00584505 0.0132976 0
-0.00815789 0.0112151 0
-0.00694388 0.0127565 0
-0.00700147 0.0122563 0
-0.00810031 0.0117153 0
-0.0277521 0.00760885 0
-0.0241651 0.00895231 0
-0.0284073 0.00602055 0
-0.0259586 0.00828058 0
-0.0262862 0.00748643 0
-0.0280797 0.0068147 0
-0.0277525 0.00760928 0
-0.0269128 0.00919288 0
-0.0240756 0.00886284 0
-0.0273327 0.00840108 0
-0.0254942 0.00902786 0
-0.0259141 0.00823606 0
-0.0277514 0.00760953 0
-0.0284229 0.00600488 0
-0.0314297 0.00620737 0
-0.0280872 0.0068072 0
-0.0299263 0.00610613 0
-0.0295906 0.00690845 0
-0.0277518 0.00760996 0
-0.0315379 0.0063155 0
-0.026878 0.0092277 0
-0.0296448 0.00696273 0
-0.0292079 0.0077716 0
-0.0273149 0.00841883 0
-0.0248764 0.00742855 0
-0.0284073 0.00608046 0
-0.0241651 0.00889998 0
-0.0266419 0.0067545 0
-0.0262862 0.00749022 0
-0.0245208 0.00816426 0
-0.024877 0.00742801 0
-0.0241868 0.00887831 0
-0.0214379 0.00872661 0
-0.0245319 0.00815316 0
-0.0228123 0.00880246 0
-0.0231574 0.00807731 0
-0.0248765 0.00742865 0
-0.0254576 0.00595636 0
-0.0283427 0.00601588 0
-0.0251671 0.00669251 0
-0.0269002 0.00598612 0
-0.0266096 0.00672227 0
-0.0248771 0.00742812 0
-0.0214958 0.00878454 0
-0.0254439 0.00597011 0
-0.0231864 0.00810633 0
-0.0234699 0.00737732 0
-0.0251605 0.00669911 0
-0.0307548 0.00805859 0
-0.0349251 0.00696228 0
-0.0295411 0.00991889 0
-0.03284 0.00751044 0
-0.0322331 0.00844058 0
-0.030148 0.00898874 0
-0.0307551 0.00805826 0
-0.0296234 0.00983667 0
-0.026737 0.00916625 0
-0.0301893 0.00894747 0
-0.0281802 0.00950146 0
-0.0287461 0.00861226 0
-0.0307525 0.00805631 0
-0.0315777 0.0061776 0
-0.0347378 0.00677493 0
-0.0311651 0.00711696 0
-0.0331577 0.00647627 0
-0.0327451 0.00741562 0
-0.0307529 0.00805598 0
-0.026878 0.00930728 0
-0.0315379 0.0062174 0
-0.0288154 0.00868163 0
-0.0292079 0.00776234 0
-0.0311454 0.00713669 0
-0.0338232 0.00904511 0
-0.0295411 0.0100112 0
-0.0349251 0.00683105 0
-0.0316822 0.00952814 0
-0.0322331 0.00842111 0
-0.0343741 0.00793808 0
-0.03383 0.00905197 0
-0.0320005 0.01097 0
-0.0293322 0.00980221 0
-0.0329153 0.010011 0
-0.0306663 0.0103861 0
-0.0315811 0.00942709 0
-0.0338253 0.009043 0
-0.0350525 0.00670362 0
-0.0382509 0.00818398 0
-0.0344389 0.00787331 0
-0.0366517 0.0074438 0
-0.0360381 0.00861349 0
-0.0338322 0.00904986 0
-0.0385497 0.00848272 0
-0.0318012 0.0111693 0
-0.0361909 0.00876629 0
-0.0351754 0.00982602 0
-0.0328167 0.0101096 0
-0.0318564 0.00452638 0
-0.0315089 0.00620737 0
-0.0283494 0.00600488 0
-0.0316826 0.00536687 0
-0.0299292 0.00610613 0
-0.0301029 0.00526563 0
-0.0318553 0.00452739 0
-0.0353521 0.00299321 0
-0.0315408 0.00617545 0
-0.0336037 0.0037603 0
-0.0334465 0.00458433 0
-0.0316981 0.00535142 0
-0.0318575 0.00452753 0
-0.0284013 0.00605671 0
-0.0321971 0.00294004 0
-0.0301294 0.00529212 0
-0.0302992 0.00449838 0
-0.0320273 0.00373379 0
-0.0318565 0.00452855 0
-0.0321655 0.00297166 0
-0.0353049 0.00294601 0
-0.032011 0.0037501 0
-0.0337352 0.00295884 0
-0.0335807 0.00373728 0
-0.0351474 0.00473128 0
-0.0349234 0.00677493 0
-0.0314334 0.0061776 0
-0.0350354 0.00575311 0
-0.0331784 0.00647627 0
-0.0332904 0.00545444 0
-0.0351488 0.00473269 0
-0.0315408 0.00628501 0
-0.0353521 0.00288041 0
-0.0333448 0.00550885 0
-0.0334465 0.00458271 0
-0.0352504 0.00380655 0
-0.0351448 0.00473385 0
-0.03884 0.00321046 0
-0.0349687 0.00672961 0
-0.0369924 0.00397216 0
-0.0369044 0.00497003 0
-0.0350568 0.00573173 0
-0.0351462 0.00473526 0
-0.0352831 0.00294942 0
-0.0387168 0.00308734 0
-0.0352146 0.00384234 0
-0.037 0.00301838 0
-0.0369315 0.0039113 0
-0.0220934 0.00735048 0
-0.0188663 0.0086941 0
-0.0225697 0.00594327 0
-0.0204799 0.00802229 0
-0.020718 0.00731868 0
-0.0223316 0.00664687 0
-0.0220932 0.00735025 0
-0.0215173 0.00873448 0
-0.0188278 0.00865554 0
-0.0218052 0.00804236 0
-0.0201725 0.00869501 0
-0.0204605 0.00800289 0
-0.022093 0.0073509 0
-0.0225873 0.0059257 0
-0.0254027 0.00596064 0
-0.0223401 0.0066383 0
-0.023995 0.00594317 0
-0.0237479 0.00665577 0
-0.0220928 0.00735067 0
-0.0254439 0.0060018 0
-0.0214958 0.00875595 0
-0.0237683 0.00667623 0
-0.0234699 0.00737888 0
-0.0217943 0.00805331 0
-0.0193528 0.00729248 0
-0.0225697 0.00595437 0
-0.0188663 0.00868474 0
-0.0209613 0.00662342 0
-0.020718 0.00731956 0
-0.0191096 0.00798861 0
-0.0193532 0.00729207 0
-0.018892 0.00865906 0
-0.016217 0.00860014 0
-0.0191226 0.00797557 0
-0.0175545 0.0086296 0
-0.0177851 0.00794611 0
-0.0193531 0.00729274 0
-0.0197512 0.00586508 0
-0.0225435 0.00592814 0
-0.0195522 0.00657891 0
-0.0211473 0.00589661 0
-0.0209483 0.00661044 0
-0.0193535 0.00729233 0
-0.0162414 0.00862462 0
-0.0197286 0.00588768 0
-0.0177975 0.00795848 0
-0.017985 0.00725615 0
-0.0195411 0.00659001 0
-0.0287926 0.00449548 0
-0.0283895 0.00601588 0
-0.0254082 0.00595636 0
-0.028591 0.00525568 0
-0.0268988 0.00598612 0
-0.0271004 0.00522592 0
-0.0287932 0.00449615 0
-0.025439 0.00598722 0
-0.0291663 0.00300607 0
-0.0271161 0.00524169 0
-0.0273027 0.00449665 0
-0.0289798 0.00375111 0
-0.0287922 0.00449585 0
-0.0321971 0.00299012 0
-0.0284013 0.00600411 0
-0.0304946 0.00374298 0
-0.0302992 0.00449711 0
-0.0285967 0.00524998 0
-0.0287929 0.00449652 0
-0.0291586 0.00301374 0
-0.0321725 0.00296546 0
-0.0289757 0.00375513 0
-0.0306655 0.0029896 0
-0.0304827 0.00373099 0
-0.0258359 0.00449671 0
-0.0254408 0.00596064 0
-0.0225479 0.0059257 0
-0.0256384 0.00522868 0
-0.0239944 0.00594317 0
-0.0241919 0.0052112 0
-0.0258358 0.00449688 0
-0.0291663 0.00302868 0
-0.025439 0.00596244 0
-0.027501 0.00376278 0
-0.0273027 0.00449556 0
-0.0256374 0.00522966 0
-0.0258362 0.00449701 0
-0.0225696 0.00594733 0
-0.0261848 0.00302922 0
-0.0242029 0.00522217 0
-0.0243772 0.00448827 0
-0.0260105 0.00376312 0
-0.0258361 0.00449718 0
-0.0261885 0.00302558 0
-0.0291474 0.00300981 0
-0.0260123 0.00376138 0
-0.0276679 0.0030177 0
-0.0274917 0.00375349 0
-0.0191487 0.00707614 0
-0.0214279 0.00514973 0
-0.0154722 0.00375247 0
-0.0202883 0.00611294 0
-0.01845 0.0044511 0
-0.0173104 0.00541431 0
-0.019157 0.00706783 0
-0.015304 0.00392064 0
-0.0168577 0.00866129 0
-0.0172305 0.00549424 0
-0.0160809 0.00629097 0
-0.0180074 0.00786456 0
-0.0191573 0.00708477 0
-0.0231594 0.0102393 0
-0.0216839 0.00540575 0
-0.0211583 0.00866203 0
-0.0224217 0.00782252 0
-0.0204206 0.00624526 0
-0.0191656 0.00707646 0
-0.016624 0.00842761 0
-0.0233391 0.0100595 0
-0.0178948 0.00775203 0
-0.0199816 0.00924358 0
-0.0212524 0.008568 0
-0.026002 0.0090831 0
-0.0211405 0.00540575 0
-0.0236616 0.0102393 0
-0.0235712 0.00724442 0
-0.022401 0.00782252 0
-0.0248318 0.00966119 0
-0.0260226 0.00910369 0
-0.0232687 0.00984636 0
-0.0313428 0.0124126 0
-0.0246457 0.00947503 0
-0.0273057 0.0111295 0
-0.0286827 0.0107582 0
-0.0259838 0.00910132 0
-0.0282081 0.00745165 0
-0.021427 0.00511917 0
-0.027096 0.00827649 0
-0.0248176 0.00628541 0
-0.0237054 0.00711024 0
-0.0260044 0.00912191 0
-0.0310577 0.0126977 0
-0.0286801 0.00792365 0
-0.028531 0.0109098 0
-0.0298689 0.0103107 0
-0.0273423 0.00852278 0
-0.0282533 0.011941 0
-0.0232509 0.0101553 0
-0.0248284 0.0121493 0
-0.0257521 0.0110482 0
-0.0240397 0.0111523 0
-0.0265409 0.0120452 0
-0.0282521 0.0119423 0
-0.0313428 0.0120301 0
-0.0232687 0.0101375 0
-0.0297974 0.0119862 0
-0.0273057 0.0110838 0
-0.0257604 0.0110399 0
-0.0282604 0.0119481 0
-0.0245805 0.0119013 0
-0.0326725 0.0126335 0
-0.0264204 0.0119247 0
-0.0286265 0.0122674 0
-0.0304664 0.0122908 0
-0.0282591 0.0119494 0
-0.0327447 0.0125612 0
-0.0316974 0.0123848 0
-0.0305019 0.0122553 0
-0.0322211 0.012473 0
-0.0299783 0.0121671 0
-0.0366137 0.0108791 0
-0.0416454 0.0115305 0
-0.0327515 0.0127 0
-0.0391296 0.0112048 0
-0.0371985 0.0121153 0
-0.0346826 0.0117896 0
-0.0365965 0.0108963 0
-0.0331165 0.012335 0
-0.0315873 0.0109867 0
-0.0348565 0.0116157 0
-0.0323519 0.0116609 0
-0.0340919 0.0109415 0
-0.0365948 0.0108602 0
-0.0389208 0.00802511 0
-0.0413655 0.0112506 0
-0.0377578 0.00944266 0
-0.0401432 0.00963786 0
-0.0389802 0.0110554 0
-0.0365776 0.0108774 0
-0.0318012 0.0112007 0
-0.0385497 0.00839628 0
-0.0341894 0.011039 0
-0.0351754 0.00979847 0
-0.0375637 0.00963682 0
-0.0374814 0.0132293 0
-0.0327515 0.0124233 0
-0.0416454 0.0118574 0
-0.0351165 0.0128263 0
-0.0371985 0.0121403 0
-0.0395634 0.0125433 0
-0.0375005 0.0132484 0
-0.0313388 0.0123848 0
-0.0328895 0.0125612 0
-0.0344196 0.0128166 0
-0.0321141 0.012473 0
-0.035195 0.0129048 0
-0.0375133 0.0131974 0
-0.0421437 0.0113591 0
-0.0423029 0.0148765 0
-0.0398285 0.0122783 0
-0.0422233 0.0131178 0
-0.0399081 0.0140369 0
-0.0375323 0.0132165 0
-0.0419991 0.0145727 0
-0.0311083 0.0126153 0
-0.0397657 0.0138946 0
-0.0365537 0.013594 0
-0.0343203 0.0129159 0
-0.0434103 0.00746119 0
-0.0425127 0.0112506 0
-0.0381593 0.00802511 0
-0.0429615 0.00935591 0
-0.040336 0.00963786 0
-0.0407848 0.00774315 0
-0.043396 0.00744689 0
-0.0387046 0.00857036 0
-0.0431511 0.00363396 0
-0.0410503 0.00800863 0
-0.0409278 0.00610216 0
-0.0432736 0.00554042 0
-0.0434024 0.00746915 0
-0.0491902 0.00709902 0
-0.0421394 0.0116239 0
-0.0462963 0.00728408 0
-0.0456648 0.00936145 0
-0.0427709 0.00954652 0
-0.0433881 0.00745485 0
-0.0431523 0.00363273 0
-0.0482603 0.00616903 0
-0.0432702 0.00554379 0
-0.0457063 0.00490088 0
-0.0458242 0.00681194 0
-0.0388975 0.00544717 0
-0.0387185 0.00818398 0
-0.0347253 0.00670362 0
-0.038808 0.00681558 0
-0.0367219 0.0074438 0
-0.0368114 0.0060754 0
-0.0388923 0.00545236 0
-0.0431511 0.00412682 0
-0.0387046 0.00819795 0
-0.0410217 0.00478959 0
-0.0409278 0.00616238 0
-0.0387984 0.00682515 0
-0.0388961 0.00544585 0
-0.0349687 0.00694708 0
-0.03884 0.00296353 0
-0.0369324 0.00619646 0
-0.0369044 0.0049553 0
-0.038868 0.00420469 0
-0.0388909 0.00545103 0
-0.0387394 0.00306409 0
-0.0428008 0.00377655 0
-0.0388152 0.00425756 0
-0.0407701 0.00342032 0
-0.0408459 0.00461379 0
-0.0344127 0.0125781 0
-0.0361036 0.0117459 0
-0.0282604 0.00728448 0
-0.0352581 0.012162 0
-0.032182 0.00951519 0
-0.0313365 0.00993128 0
-0.0345014 0.0124894 0
-0.0276212 0.00792365 0
-0.0319786 0.0126977 0
-0.0310613 0.0102065 0
-0.0297999 0.0103107 0
-0.03324 0.0125936 0
-0.0345258 0.0126912 0
-0.0415734 0.0161314 0
-0.037591 0.0132334 0
-0.0380496 0.0144113 0
-0.0395822 0.0146824 0
-0.0360584 0.0129623 0
-0.0346145 0.0126025 0
-0.0311083 0.0118274 0
-0.0419991 0.0157057 0
-0.0328614 0.0122149 0
-0.0365537 0.0137666 0
-0.0383068 0.0141541 0
-0.0485603 0.0122518 0
-0.043179 0.0148765 0
-0.041447 0.0113591 0
-0.0458697 0.0135641 0
-0.042313 0.0131178 0
-0.0450037 0.0118055 0
-0.0486637 0.0121485 0
-0.054337 0.016268 0
-0.0423889 0.0156666 0
-0.0515003 0.0142082 0
-0.0483629 0.0159673 0
-0.0455263 0.0139075 0
-0.0484754 0.0121669 0
-0.0421394 0.0120515 0
-0.0491902 0.00643028 0
-0.0453074 0.0121092 0
-0.0456648 0.00924089 0
-0.0488328 0.00929861 0
-0.0485788 0.0120636 0
-0.050483 0.00513756 0
-0.0537708 0.0157018 0
-0.0495309 0.00860057 0
-0.0521269 0.0104197 0
-0.0511748 0.0138827 0
-0.04708 0.0186806 0
-0.0355354 0.0132334 0
-0.0435318 0.0161314 0
-0.0413077 0.015957 0
-0.0395336 0.0146824 0
-0.0453059 0.017406 0
-0.0470036 0.0186042 0
-0.0423889 0.0149885 0
-0.054337 0.0177072 0
-0.0446962 0.0167963 0
-0.0483629 0.0163478 0
-0.0506703 0.0181557 0
-0.047247 0.0185136 0
-0.0514784 0.0164416 0
-0.0376714 0.0110973 0
-0.0493627 0.0174776 0
-0.0445749 0.0137695 0
-0.0424592 0.0148054 0
-0.0471706 0.0184372 0
-0.0539856 0.0180586 0
-0.053919 0.0188823 0
-0.0505781 0.0182479 0
-0.0539523 0.0184704 0
-0.0505448 0.0186597 0
0.0294691 0.00152315 0
0.0327996 0 0
0.0297533 0 0
0.0311343 0.000761576 0
0.0312764 0 0
0.0296112 0.000761576 0
0.0294691 0.00152314 0
0.0291506 0.00301558 0
0.0328014 1.75776e-06 0
0.0293098 0.00226936 0
0.030976 0.00150867 0
0.0311352 0.000762447 0
0.0294684 0.0015238 0
0.0297356 1.77031e-05 0
0.026181 0.00303801 0
0.029602 0.000770752 0
0.0279583 0.00152785 0
0.0278247 0.0022809 0
0.0294684 0.00152378 0
0.0261685 0.00302558 0
0.0291563 0.00300981 0
0.0278185 0.00227468 0
0.0276624 0.0030177 0
0.0293124 0.0022668 0
0.0264522 0.00152267 0
0.026181 0.00303296 0
0.0297356 2.09008e-05 0
0.0263166 0.00227781 0
0.0279583 0.00152693 0
0.0280939 0.000771786 0
0.0264518 0.00152308 0
0.023225 0.00298462 0
0.0261887 0.00302521 0
0.0248384 0.00225385 0
0.0247069 0.00300491 0
0.0263203 0.00227414 0
0.0264518 0.00152221 0
0.0297147 0 0
0.0266703 0 0
0.0280832 0.000761106 0
0.0281925 0 0
0.026561 0.000761106 0
0.0264514 0.00152262 0
0.0266625 7.72913e-06 0
0.0232442 0.00300377 0
0.026557 0.000765174 0
0.0249534 0.00150575 0
0.0248478 0.00226319 0
0.0229295 0.00446865 0
0.0225696 0.00593596 0
0.0261848 0.00304063 0
0.0227495 0.0052023 0
0.0243772 0.00448829 0
0.0245572 0.00375464 0
0.0229296 0.00446871 0
0.0261694 0.00302521 0
0.0232418 0.00298462 0
0.0245495 0.00374696 0
0.0247056 0.00300491 0
0.0230857 0.00372667 0
0.0229297 0.00446846 0
0.0197211 0.00586508 0
0.0225774 0.00592814 0
0.0213254 0.00516677 0
0.0211492 0.00589661 0
0.0227535 0.0051983 0
0.0229298 0.00446852 0
0.0232365 0.00298993 0
0.0197345 0.00587852 0
0.0230831 0.00372923 0
0.0214855 0.00443423 0
0.0213321 0.00517352 0
0.0200459 0.00438558 0
0.0168845 0.00576229 0
0.0197429 0.00586728 0
0.0184652 0.00507394 0
0.0183137 0.00581478 0
0.0198944 0.00512643 0
0.0200455 0.00438598 0
0.0197345 0.00587569 0
0.0232365 0.0029957 0
0.01989 0.00513084 0
0.0214855 0.0044357 0
0.021641 0.00369084 0
0.0200459 0.00438554 0
0.0203256 0.0028812 0
0.0168848 0.00576255 0
0.0201857 0.00363337 0
0.0186052 0.00432187 0
0.0184653 0.00507404 0
0.0200455 0.00438595 0
0.0232291 0.00298835 0
0.0203262 0.00288062 0
0.0216373 0.00368715 0
0.0217777 0.00293449 0
0.0201858 0.00363329 0
0.016609 0.00722124 0
0.0197153 0.00586728 0
0.0169024 0.00576229 0
0.0181622 0.00654426 0
0.0183088 0.00581478 0
0.0167557 0.00649177 0
0.0166087 0.00722093 0
0.0162414 0.00863318 0
0.0197286 0.00588059 0
0.0164251 0.00792705 0
0.017985 0.00725688 0
0.0181687 0.00655076 0
0.0166095 0.00722081 0
0.0168725 0.00579215 0
0.0135755 0.00856306 0
0.016741 0.00650648 0
0.015224 0.00717761 0
0.0150925 0.00789194 0
0.0166092 0.0072205 0
0.0135635 0.00855102 0
0.0162741 0.00860055 0
0.0150863 0.00788576 0
0.0149188 0.00857578 0
0.0164416 0.00791052 0
0.023475 0.00147921 0
0.0266327 0 0
0.0236743 0 0
0.0250539 0.000739607 0
0.0251535 0 0
0.0235746 0.000739607 0
0.0234759 0.00148009 0
0.0232442 0.00298477 0
0.0266625 2.98417e-05 0
0.02336 0.00223243 0
0.0249534 0.00150731 0
0.0250692 0.000754967 0
0.0234749 0.00147928 0
0.0236907 -1.64341e-05 0
0.020347 0.00289572 0
0.0235828 0.000731423 0
0.0220189 0.00143964 0
0.021911 0.0021875 0
0.0234758 0.00148016 0
0.0203319 0.00288062 0
0.0232406 0.00298835 0
0.0219039 0.00218039 0
0.0217863 0.00293449 0
0.0233582 0.00223425 0
0.0171587 0.00424788 0
0.0168848 0.00577135 0
0.0203256 0.00287841 0
0.0170217 0.00500962 0
0.0186052 0.00432488 0
0.0187422 0.00356315 0
0.0171588 0.00424796 0
0.0203362 0.00288899 0
0.0174439 0.00271467 0
0.0187475 0.00356847 0
0.0188901 0.00280183 0
0.0173014 0.00348131 0
0.0171595 0.00424708 0
0.0139827 0.00564063 0
0.0168926 0.00576349 0
0.0155711 0.00494385 0
0.0154376 0.00570206 0
0.0170261 0.00500528 0
0.0171596 0.00424715 0
0.0174494 0.00270924 0
0.0139606 0.00561853 0
0.0173045 0.0034782 0
0.015705 0.00416389 0
0.0155601 0.00493284 0
0.020601 0.00139024 0
0.020347 0.00286207 0
0.0236907 2.63843e-05 0
0.020474 0.00212615 0
0.0220189 0.00144422 0
0.0221459 0.000708312 0
0.0206016 0.0013897 0
0.0174959 0.00271467 0
0.0203201 0.00288899 0
0.0190487 0.00205218 0
0.018908 0.00280183 0
0.0204608 0.00213934 0
0.0205997 0.00138891 0
0.0236643 0 0
0.0208865 0 0
0.022132 0.000694454 0
0.0222754 0 0
0.0207431 0.000694454 0
0.0206002 0.00138836 0
0.0209446 -5.80522e-05 0
0.0174895 0.00270834 0
0.0207724 0.000665155 0
0.019217 0.00132514 0
0.0190449 0.00204835 0
0.0138095 0.00714362 0
0.0135755 0.00859243 0
0.0168725 0.00576345 0
0.0136925 0.00786802 0
0.015224 0.00717794 0
0.015341 0.00645353 0
0.0138099 0.00714322 0
0.0108205 0.0085389 0
0.0136205 0.00854749 0
0.0123152 0.00784106 0
0.0122205 0.0085432 0
0.0137152 0.00784535 0
0.01381 0.00714407 0
0.0168726 0.00576349 0
0.0139885 0.00564063 0
0.0153413 0.00645378 0
0.0154305 0.00570206 0
0.0138993 0.00639235 0
0.0138104 0.00714367 0
0.0139437 0.00568548 0
0.0108221 0.00854049 0
0.013877 0.00641457 0
0.0123829 0.00711299 0
0.0123162 0.00784208 0
0.0107639 0.00986816 0
0.0105143 0.0111333 0
0.013573 0.0085738 0
0.0106391 0.0105007 0
0.0120437 0.00985354 0
0.0121685 0.00922098 0
0.0107641 0.00986832 0
0.0135467 0.00854749 0
0.0108965 0.0085389 0
0.0121554 0.00920791 0
0.0122216 0.0085432 0
0.0108303 0.00920361 0
0.0107638 0.0098683 0
0.00811779 0.0111344 0
0.0105816 0.011066 0
0.00944078 0.0105013 0
0.00934967 0.0111002 0
0.0106727 0.0104672 0
0.0107639 0.00986847 0
0.0108238 0.00861155 0
0.0081495 0.0111661 0
0.0107939 0.00924001 0
0.00948667 0.00988881 0
0.00945671 0.0105173 0
0.00592915 0.012323 0
0.0081029 0.0111282 0
0.00587022 0.0112852 0
0.00701602 0.0117256 0
0.00698656 0.0112067 0
0.00589969 0.0118041 0
0.00592989 0.0123238 0
0.00584505 0.0133263 0
0.00815789 0.0111832 0
0.00588747 0.012825 0
0.00700147 0.0122548 0
0.00704389 0.0117535 0
0.0059281 0.0123241 0
0.0057821 0.0113733 0
0.00404265 0.0134047 0
0.0058551 0.0118487 0
0.00491238 0.012389 0
0.00498537 0.0128644 0
0.00592883 0.0123248 0
0.00398404 0.0133461 0
0.00592596 0.0132454 0
0.00495644 0.0128355 0
0.004955 0.0132958 0
0.0059274 0.0127851 0
0.00815913 0.00995152 0
0.00572377 0.0112852 0
0.00823408 0.0111282 0
0.00694145 0.0106183 0
0.00697892 0.0112067 0
0.0081966 0.0105399 0
0.00816006 0.00995059 0
0.0081495 0.0112128 0
0.0108238 0.00855954 0
0.00815478 0.0105817 0
0.00948667 0.00988615 0
0.00949194 0.00925507 0
0.00815887 0.00995127 0
0.00796865 0.00874234 0
0.00576502 0.0113264 0
0.00806376 0.00934681 0
0.00686684 0.0100344 0
0.00696195 0.0106388 0
0.0081598 0.00995034 0
0.0107929 0.00852864 0
0.00806594 0.00864505 0
0.00947637 0.00923949 0
0.00942944 0.00858684 0
0.00811287 0.00929769 0
0.00404087 0.0141268 0
0.00405454 0.0134208 0
0.00258394 0.0148641 0
0.0040477 0.0137738 0
0.00331924 0.0141425 0
0.00331241 0.0144954 0
0.00404164 0.014126 0
0.00578967 0.0132454 0
0.00412926 0.0133461 0
0.00491566 0.0136857 0
0.00495947 0.0132958 0
0.00408545 0.013736 0
0.00404163 0.0141275 0
0.00252156 0.0148017 0
0.00385559 0.0147874 0
0.00328159 0.0144646 0
0.00318857 0.0147945 0
0.00394861 0.0144574 0
0.00404241 0.0141267 0
0.00378259 0.0148604 0
0.00585342 0.0133092 0
0.0039125 0.0144936 0
0.004818 0.0140848 0
0.00494791 0.013718 0
0.00387228 0.0124677 0
0.00404265 0.0134278 0
0.0057821 0.0113476 0
0.00395747 0.0129478 0
0.00491238 0.0123877 0
0.00482719 0.0119077 0
0.00387046 0.0124695 0
0.0023297 0.013375 0
0.00411811 0.0133524 0
0.00310008 0.0129222 0
0.0032239 0.0133637 0
0.00399429 0.0129109 0
0.00387058 0.012466 0
0.00571465 0.0112802 0
0.00359282 0.0115299 0
0.00479261 0.0118731 0
0.00465374 0.011405 0
0.0037317 0.0119979 0
0.00386876 0.0124678 0
0.00351194 0.0116108 0
0.00239552 0.0134408 0
0.00369035 0.0120393 0
0.00295373 0.0125258 0
0.00313214 0.0129543 0
0.00259141 0.0141289 0
0.00258394 0.0148713 0
0.00405454 0.0134156 0
0.00258768 0.0145001 0
0.00331924 0.0141435 0
0.00332297 0.0137723 0
0.00259013 0.0141276 0
0.00399127 0.0133524 0
0.00246347 0.013375 0
0.0032907 0.01374 0
0.00322737 0.0133637 0
0.0025268 0.0137513 0
0.00259039 0.0141299 0
0.00146038 0.0146274 0
0.00264165 0.0148136 0
0.00202539 0.0143787 0
0.00205102 0.0147205 0
0.00261602 0.0144718 0
0.00258911 0.0141286 0
0.00240787 0.0134306 0
0.00151696 0.014684 0
0.00249849 0.0137796 0
0.00196241 0.0140573 0
0.00205304 0.0144063 0
0.00235672 0.0153283 0
0.00372407 0.0147874 0
0.00265649 0.0148017 0
0.00304039 0.0150578 0
0.00319028 0.0147945 0
0.00250661 0.015065 0
0.00235729 0.0153289 0
0.00185912 0.015786 0
0.00378909 0.0148524 0
0.0021082 0.0155575 0
0.0028241 0.0153192 0
0.00307319 0.0150906 0
0.00235632 0.0153287 0
0.0025913 0.0148669 0
0.00126214 0.0157261 0
0.00247381 0.0150978 0
0.00192672 0.0152965 0
0.00180923 0.0155274 0
0.00235689 0.0153293 0
0.00120094 0.0156649 0
0.00192619 0.015719 0
0.00177891 0.0154971 0
0.00156356 0.0156919 0
0.00214154 0.0155241 0
0.0108976 0.00711883 0
0.0108593 0.00566333 0
0.00795393 0.00864526 0
0.0108785 0.00639108 0
0.00940663 0.0071543 0
0.00942576 0.00788204 0
0.010897 0.00711824 0
0.00795372 0.00864505 0
0.0108909 0.00852864 0
0.00942536 0.00788164 0
0.00942233 0.00858684 0
0.010894 0.00782344 0
0.0108976 0.00711881 0
0.0139545 0.00563652 0
0.010938 0.00558465 0
0.012426 0.00637766 0
0.0124462 0.00561058 0
0.0109178 0.00635173 0
0.010897 0.00711822 0
0.0108221 0.00859748 0
0.0139437 0.00562573 0
0.0108596 0.00785785 0
0.0123829 0.0071116 0
0.0124203 0.00637197 0
0.00551612 0.0101805 0
0.00576502 0.0113804 0
0.00796865 0.008679 0
0.00564057 0.0107805 0
0.00686684 0.0100297 0
0.00674238 0.00942975 0
0.00551455 0.0101789 0
0.00791451 0.00862486 0
0.00518873 0.00900721 0
0.00671453 0.00940189 0
0.00655162 0.00881604 0
0.00535164 0.00959307 0
0.00551366 0.010183 0
0.00342108 0.0115299 0
0.00586526 0.0112802 0
0.00446737 0.0108564 0
0.00464317 0.011405 0
0.00568946 0.0107316 0
0.00551209 0.0101814 0
0.00506922 0.00912672 0
0.00348643 0.0115952 0
0.00529065 0.00965406 0
0.00427783 0.010361 0
0.00449926 0.0108883 0
0.00781837 0.00728134 0
0.00795393 0.0087365 0
0.0108593 0.00556 0
0.00788615 0.00800892 0
0.00940663 0.00714825 0
0.00933885 0.00642067 0
0.00781673 0.00728298 0
0.00499946 0.00900721 0
0.00806557 0.00862486 0
0.00640809 0.0081451 0
0.00653251 0.00881604 0
0.00794115 0.00795392 0
0.00781863 0.00728159 0
0.0108633 0.00556394 0
0.00766689 0.00580287 0
0.00934095 0.00642276 0
0.00926508 0.0056834 0
0.00774276 0.00654223 0
0.00781699 0.00728323 0
0.00752166 0.0059481 0
0.00502633 0.00903409 0
0.00766932 0.00661567 0
0.00627399 0.00749109 0
0.00642166 0.00815866 0
0.0142222 0.0040859 0
0.0109268 0.00558465 0
0.0139762 0.00563652 0
0.0125745 0.00483527 0
0.0124515 0.00561058 0
0.0140992 0.00486121 0
0.0142208 0.0040873 0
0.0139606 0.00565214 0
0.0174494 0.00268376 0
0.0140907 0.00486972 0
0.015705 0.00416795 0
0.0158351 0.00338553 0
0.0142228 0.00408653 0
0.0145578 0.00251337 0
0.0108717 0.00552954 0
0.0143903 0.00329995 0
0.0127147 0.00402145 0
0.0125473 0.00480804 0
0.0142214 0.00408794 0
0.0174934 0.00272784 0
0.0145583 0.00251287 0
0.0158574 0.00340789 0
0.0160258 0.00262035 0
0.0143898 0.0033004 0
0.000775273 0.0159284 0
-6.17941e-05 0.0159507 0
6.21266e-05 0.0160301 0
0.000356739 0.0159395 0
1.66269e-07 0.0159904 0
0.0004187 0.0159792 0
0.000775313 0.0159284 0
-2.23554e-06 0.0160944 0
0.00186412 0.0157832 0
0.000386539 0.0160114 0
0.000930941 0.0159388 0
0.00131972 0.0158558 0
0.000774989 0.0159281 0
0.00126699 0.0157254 0
-2.03541e-06 0.0160104 0
0.00102099 0.0158268 0
0.000632477 0.0158679 0
0.000386477 0.0159693 0
0.000775029 0.0159281 0
0.00179989 0.015719 0
0.00132753 0.0156649 0
0.00128746 0.0158235 0
0.00156371 0.0156919 0
0.00105128 0.0157965 0
-0.000775273 0.0159284 0
-6.21266e-05 0.0160301 0
6.17941e-05 0.0159507 0
-0.0004187 0.0159792 0
-1.66271e-07 0.0159904 0
-0.000356739 0.0159395 0
-0.000775313 0.0159284 0
-0.00186412 0.0157832 0
2.23554e-06 0.0160944 0
-0.00131972 0.0158558 0
-0.000930941 0.0159388 0
-0.000386539 0.0160114 0
-0.000774989 0.0159281 0
2.0354e-06 0.0160104 0
-0.00126699 0.0157254 0
-0.000386477 0.0159693 0
-0.000632477 0.0158679 0
-0.00102099 0.0158268 0
-0.000775029 0.0159281 0
-0.00132753 0.0156649 0
-0.00179989 0.015719 0
-0.00105128 0.0157965 0
-0.00156371 0.0156919 0
-0.00128746 0.0158235 0
0.000490648 0.0157356 0
-2.03541e-06 0.0160124 0
0.00126699 0.0157287 0
0.000244306 0.015874 0
0.000632477 0.0158706 0
0.000878818 0.0157322 0
0.00049022 0.0157351 0
0.00121739 0.0156791 0
0.000780616 0.0153544 0
0.000853805 0.0157071 0
0.000999003 0.0155168 0
0.000635418 0.0155448 0
0.000490689 0.0157355 0
-4.25706e-05 0.0155929 0
4.47989e-05 0.0159656 0
0.000224059 0.0156642 0
1.11417e-06 0.0157792 0
0.000267744 0.0158505 0
0.000490261 0.0157351 0
0.000741359 0.0153936 0
-1.32079e-06 0.0156341 0
0.00061581 0.0155644 0
0.000370019 0.0155139 0
0.00024447 0.0156846 0
0.00149738 0.0152061 0
0.00126214 0.015728 0
0.0025913 0.0148693 0
0.00137976 0.0154671 0
0.00192672 0.0152987 0
0.00204434 0.0150377 0
0.00149697 0.0152065 0
0.000690572 0.0153544 0
0.00131102 0.0156791 0
0.00109377 0.0152805 0
0.00100079 0.0155168 0
0.00140399 0.0154428 0
0.00149656 0.0152053 0
0.00253559 0.0148136 0
0.00156604 0.0146274 0
0.00201608 0.0150095 0
0.00205082 0.0147205 0
0.0015313 0.0149164 0
0.00149614 0.0152057 0
0.00152297 0.0146705 0
0.000737998 0.0154018 0
0.00150956 0.0149381 0
0.00113049 0.0150361 0
0.00111707 0.0153038 0
-0.00235632 0.0153287 0
-0.00126214 0.0157261 0
-0.0025913 0.0148669 0
-0.00180923 0.0155274 0
-0.00192672 0.0152965 0
-0.00247381 0.0150978 0
-0.00235689 0.0153293 0
-0.00192619 0.015719 0
-0.00120094 0.0156649 0
-0.00214154 0.0155241 0
-0.00156356 0.0156919 0
-0.00177891 0.0154971 0
-0.00235672 0.0153283 0
-0.00265649 0.0148017 0
-0.00372407 0.0147874 0
-0.00250661 0.015065 0
-0.00319028 0.0147945 0
-0.00304039 0.0150578 0
-0.00235729 0.0153289 0
-0.00378909 0.0148524 0
-0.00185912 0.015786 0
-0.00307319 0.0150906 0
-0.0028241 0.0153192 0
-0.0021082 0.0155575 0
-0.000490648 0.0157356 0
-0.00126699 0.0157287 0
2.0354e-06 0.0160124 0
-0.000878818 0.0157322 0
-0.000632477 0.0158706 0
-0.000244306 0.015874 0
-0.00049022 0.0157351 0
-0.000780616 0.0153544 0
-0.00121739 0.0156791 0
-0.000635418 0.0155448 0
-0.000999003 0.0155168 0
-0.000853805 0.0157071 0
-0.000490689 0.0157355 0
-4.47989e-05 0.0159656 0
4.25706e-05 0.0155929 0
-0.000267744 0.0158505 0
-1.11417e-06 0.0157792 0
-0.000224059 0.0156642 0
-0.000490261 0.0157351 0
1.32079e-06 0.0156341 0
-0.000741359 0.0153936 0
-0.00024447 0.0156846 0
-0.000370019 0.0155139 0
-0.00061581 0.0155644 0
-0.00149738 0.0152061 0
-0.0025913 0.0148693 0
-0.00126214 0.015728 0
-0.00204434 0.0150377 0
-0.00192672 0.0152987 0
-0.00137976 0.0154671 0
-0.00149697 0.0152065 0
-0.00131102 0.0156791 0
-0.000690572 0.0153544 0
-0.00140399 0.0154428 0
-0.00100079 0.0155168 0
-0.00109377 0.0152805 0
-0.00149656 0.0152053 0
-0.00156604 0.0146274 0
-0.00253559 0.0148136 0
-0.0015313 0.0149164 0
-0.00205082 0.0147205 0
-0.00201608 0.0150095 0
-0.00149614 0.0152057 0
-0.000737998 0.0154018 0
-0.00152297 0.0146705 0
-0.00111707 0.0153038 0
-0.00113049 0.0150361 0
-0.00150956 0.0149381 0
-0.00404163 0.0141275 0
-0.00385559 0.0147874 0
-0.00252156 0.0148017 0
-0.00394861 0.0144574 0
-0.00318857 0.0147945 0
-0.00328159 0.0144646 0
-0.00404241 0.0141267 0
-0.00585342 0.0133092 0
-0.00378259 0.0148604 0
-0.00494791 0.013718 0
-0.004818 0.0140848 0
-0.0039125 0.0144936 0
-0.00404087 0.0141268 0
-0.00258394 0.0148641 0
-0.00405454 0.0134208 0
-0.00331241 0.0144954 0
-0.00331924 0.0141425 0
-0.0040477 0.0137738 0
-0.00404164 0.014126 0
-0.00412926 0.0133461 0
-0.00578967 0.0132454 0
-0.00408545 0.013736 0
-0.00495947 0.0132958 0
-0.00491566 0.0136857 0
0.00134756 0.0138887 0
0.000644943 0.0140261 0
0.00154276 0.0146491 0
0.00099625 0.0139574 0
0.00109385 0.0143376 0
0.00144516 0.0142689 0
0.00134835 0.0138879 0
0.00151696 0.0146749 0
0.00240787 0.0134468 0
0.00143266 0.0142814 0
0.00196241 0.0140608 0
0.00187811 0.0136673 0
0.00134608 0.0138872 0
0.00108609 0.0131414 0
0.000683182 0.0140643 0
0.00121608 0.0135143 0
0.000884636 0.0136029 0
0.00101463 0.0139757 0
0.00134687 0.0138864 0
0.00235566 0.0133946 0
0.00110247 0.013125 0
0.00185126 0.0136405 0
0.00172907 0.0132598 0
0.00122467 0.0135057 0
0.00077475 0.0147339 0
0.00148667 0.0146491 0
0.000693978 0.0140261 0
0.00113071 0.0146915 0
0.00109032 0.0143376 0
0.000734364 0.01438 0
0.000775632 0.0147348 0
0.000737998 0.0153951 0
0.00152297 0.0146854 0
0.000756815 0.015065 0
0.00113049 0.0150403 0
0.0011493 0.0147101 0
0.000774566 0.0147341 0
0.00068581 0.0140342 0
0.000332651 0.0145649 0
0.000730188 0.0143842 0
0.000509231 0.0142996 0
0.000553608 0.0146495 0
0.000775448 0.014735 0
0.000309281 0.0145415 0
0.000756968 0.0153761 0
0.000542365 0.0146383 0
0.000533124 0.0149588 0
0.000766208 0.0150556 0
0.00203764 0.0125437 0
0.00343789 0.0115397 0
0.00164214 0.0117519 0
0.00273776 0.0120417 0
0.00254001 0.0116458 0
0.00183989 0.0121478 0
0.00204017 0.0125462 0
0.00239552 0.0134409 0
0.00351194 0.0116138 0
0.00221785 0.0129936 0
0.00295373 0.0125273 0
0.00277606 0.01208 0
0.00203565 0.0125457 0
0.00160041 0.0117937 0
0.00107912 0.0131854 0
0.00181803 0.0121697 0
0.00133976 0.0124896 0
0.00155738 0.0128656 0
0.00203818 0.0125482 0
0.00101871 0.013125 0
0.00244186 0.0133946 0
0.00152845 0.0128366 0
0.00173029 0.0132598 0
0.00224002 0.0129714 0
0.0029995 0.0106018 0
0.00148964 0.0117519 0
0.00357777 0.0115397 0
0.00224457 0.0111768 0
0.00253371 0.0116458 0
0.00328863 0.0110707 0
0.00300376 0.0105975 0
0.00348643 0.0116311 0
0.00506922 0.00908292 0
0.00324509 0.0111143 0
0.00427783 0.010357 0
0.00403649 0.00984021 0
0.00299535 0.0105976 0
0.00240085 0.00983023 0
0.00157889 0.0118412 0
0.0026981 0.0102139 0
0.00198987 0.0108357 0
0.00228712 0.0112194 0
0.00299961 0.0105934 0
0.00497348 0.00898718 0
0.00250252 0.00972857 0
0.00398655 0.00979027 0
0.003738 0.00935787 0
0.00275106 0.010161 0
0.000458054 0.013108 0
0.000683182 0.014036 0
0.00108609 0.0131828 0
0.000570618 0.013572 0
0.000884636 0.0136094 0
0.000772072 0.0131454 0
0.000457148 0.0131071 0
0.00106501 0.0131617 0
0.000224297 0.0122118 0
0.000761079 0.0131344 0
0.000644653 0.0126868 0
0.000340723 0.0126594 0
0.000458172 0.0131079 0
0.000165079 0.0126562 0
0.000662341 0.0140568 0
0.000311626 0.0128821 0
0.00041371 0.0133565 0
0.000560257 0.0135824 0
0.000457267 0.013107 0
0.000261758 0.0121743 0
0.000167966 0.0126591 0
0.000359513 0.0126407 0
0.000214862 0.0124167 0
0.000312617 0.0128831 0
0.000687719 0.0122721 0
0.00107912 0.0131488 0
0.00160041 0.0118448 0
0.000883417 0.0127105 0
0.00133976 0.0124968 0
0.00114406 0.0120584 0
0.000687335 0.0122725 0
0.000237751 0.0122118 0
0.00106622 0.0131617 0
0.000462543 0.0122421 0
0.000651986 0.0126868 0
0.000876777 0.0127171 0
0.000686021 0.0122704 0
0.0015518 0.0117962 0
0.000343386 0.0115363 0
0.00111891 0.0120333 0
0.000947592 0.0116662 0
0.000514704 0.0119034 0
0.000685637 0.0122708 0
0.000376528 0.0115032 0
0.000261948 0.012236 0
0.000531083 0.011887 0
0.000319238 0.0118696 0
0.000473793 0.0122534 0
0.000253989 0.0151458 0
-1.41686e-05 0.0147097 0
1.8497e-05 0.0156145 0
0.00011991 0.0149278 0
2.16422e-06 0.0151621 0
0.000136243 0.0153802 0
0.000253801 0.015146 0
-1.32079e-06 0.0156343 0
0.000741359 0.0154019 0
0.00012624 0.0153902 0
0.000370019 0.0155181 0
0.00049758 0.0152739 0
0.000253487 0.0151453 0
0.000333886 0.0145499 0
-4.49154e-07 0.0147235 0
0.000293686 0.0148476 0
0.000166718 0.0146367 0
0.000126519 0.0149344 0
0.000253299 0.0151455 0
0.00071559 0.0153761 0
0.000342282 0.0145415 0
0.000484444 0.0152608 0
0.000528936 0.0149588 0
0.000297791 0.0148435 0
-0.000253989 0.0151458 0
-1.8497e-05 0.0156145 0
1.41686e-05 0.0147097 0
-0.000136243 0.0153802 0
-2.16422e-06 0.0151621 0
-0.00011991 0.0149278 0
-0.000253801 0.015146 0
-0.000741359 0.0154019 0
1.32079e-06 0.0156343 0
-0.00049758 0.0152739 0
-0.000370019 0.0155181 0
-0.00012624 0.0153902 0
-0.000253487 0.0151453 0
4.49157e-07 0.0147235 0
-0.000333885 0.0145499 0
-0.000126519 0.0149344 0
-0.000166718 0.0146367 0
-0.000293686 0.0148476 0
-0.000253299 0.0151455 0
-0.000342282 0.0145415 0
-0.00071559 0.0153761 0
-0.000297791 0.0148435 0
-0.000528936 0.0149588 0
-0.000484444 0.0152608 0
0.000265241 0.0136311 0
0.000332651 0.0145494 0
0.00068581 0.0140614 0
0.000298946 0.0140902 0
0.000509231 0.0143054 0
0.000475526 0.0138462 0
0.000265512 0.0136308 0
9.31211e-05 0.0129122 0
0.000312912 0.0145692 0
0.000179317 0.0132715 0
0.000203016 0.0137407 0
0.000289212 0.0141 0
0.000264631 0.0136304 0
0.000681196 0.0140568 0
0.000133363 0.0126562 0
0.000472913 0.0138436 0
0.000407279 0.0133565 0
0.000198997 0.0131433 0
0.000264902 0.0136302 0
0.000167745 0.0126218 0
8.24126e-05 0.0129015 0
0.000216323 0.013126 0
0.000125079 0.0127617 0
0.000173657 0.0132658 0
8.70823e-05 0.0138845 0
-4.49154e-07 0.0147219 0
0.000333886 0.0145626 0
4.33166e-05 0.0143032 0
0.000166718 0.0146422 0
0.000210484 0.0142235 0
8.6621e-05 0.013884 0
0.000340449 0.0145692 0
5.37864e-05 0.0129122 0
0.000213535 0.0142266 0
0.000197118 0.0137407 0
7.02037e-05 0.0133981 0
8.74435e-05 0.0138841 0
2.07369e-05 0.0129961 0
-1.50033e-05 0.0147364 0
5.40902e-05 0.0134401 0
2.86678e-06 0.0138662 0
3.62201e-05 0.0143103 0
8.69822e-05 0.0138837 0
8.2222e-05 0.0128838 0
9.17902e-08 0.0129754 0
8.46021e-05 0.0133837 0
4.11569e-05 0.0129296 0
4.3537e-05 0.0134295 0
0.0178835 0.00124926 0
0.0209419 0 0
0.0184434 0 0
0.0194127 0.000624631 0
0.0196927 0 0
0.0181635 0.000624631 0
0.0178854 0.00125112 0
0.0174895 0.00266592 0
0.0209446 2.60168e-06 0
0.0176875 0.00195852 0
0.019217 0.00133426 0
0.019415 0.000626863 0
0.0178853 0.00124744 0
0.018568 -0.000124585 0
0.0146254 0.00245274 0
0.0182267 0.000561426 0
0.0165967 0.00116408 0
0.0162554 0.00185009 0
0.0178872 0.0012493 0
0.0146855 0.00251287 0
0.0174276 0.00272784 0
0.0162864 0.00188108 0
0.0160566 0.00262035 0
0.0176574 0.00198857 0
0.0153537 0.00107401 0
0.0146254 0.00242394 0
0.018568 -6.19784e-05 0
0.0149895 0.00174898 0
0.0165967 0.00118098 0
0.0169609 0.000506017 0
0.0153588 0.00106892 0
0.0117527 0.00238061 0
0.0145224 0.00252693 0
0.0135557 0.00172476 0
0.0131375 0.00245377 0
0.0149406 0.00179793 0
0.0153515 0.0010718 0
0.01863 0 0
0.0164864 0 0
0.0169908 0.000535901 0
0.0175582 0 0
0.015919 0.000535901 0
0.0153566 0.00106671 0
0.0167164 -0.000230064 0
0.0115694 0.00219733 0
0.0160365 0.000418322 0
0.0141429 0.000983632 0
0.013463 0.00163202 0
0.0111206 0.00401483 0
0.0108717 0.00561789 0
0.0145578 0.00242966 0
0.0109962 0.00481636 0
0.0127147 0.00402377 0
0.0128392 0.00322225 0
0.0111227 0.00401693 0
0.014655 0.00252693 0
0.0115287 0.00238061 0
0.0128889 0.00327193 0
0.0130919 0.00245377 0
0.0113257 0.00319877 0
0.0111222 0.00401321 0
0.00758526 0.00580287 0
0.0109257 0.00556394 0
0.00935375 0.00490804 0
0.00925546 0.0056834 0
0.0110239 0.00478857 0
0.0111243 0.0040153 0
0.0114705 0.00243878 0
0.00749964 0.00571725 0
0.0112974 0.00322704 0
0.0094851 0.00407802 0
0.00931199 0.00486628 0
0.00459685 0.00786713 0
0.00745635 0.0057382 0
0.00421173 0.00675144 0
0.0060266 0.00680267 0
0.00583404 0.00624482 0
0.00440429 0.00730928 0
0.00460056 0.00787084 0
0.00502633 0.00915038 0
0.00752166 0.00580351 0
0.00481344 0.00851061 0
0.00627399 0.00747695 0
0.00606111 0.00683718 0
0.00459037 0.0078736 0
0.00399143 0.00697173 0
0.00233045 0.0098306 0
0.0042909 0.00742267 0
0.00316094 0.00840116 0
0.00346041 0.0088521 0
0.00459409 0.00787731 0
0.00222842 0.00972857 0
0.00518954 0.00898718 0
0.00341125 0.00880294 0
0.00370898 0.00935787 0
0.00489181 0.00843225 0
0.00763772 0.00434306 0
0.00387066 0.00675144 0
0.00767417 0.0057382 0
0.00575419 0.00554725 0
0.00577242 0.00624482 0
0.00765595 0.00504063 0
0.00763915 0.00434164 0
0.00749964 0.00591273 0
0.0114705 0.00222084 0
0.0075694 0.00512719 0
0.0094851 0.00406679 0
0.00955485 0.00328124 0
0.00764307 0.00434841 0
0.00769263 0.00296079 0
0.00383676 0.00671754 0
0.00766785 0.0036546 0
0.0057647 0.00483916 0
0.00573992 0.00553297 0
0.0076445 0.00434699 0
0.0116236 0.00237389 0
0.00797846 0.00267496 0
0.00963405 0.00336044 0
0.00980103 0.00252442 0
0.00781148 0.00351097 0
0.00165276 0.00908741 0
0.00233045 0.00989843 0
0.00399143 0.00688207 0
0.0019916 0.00949292 0
0.00316094 0.00839025 0
0.0028221 0.00798474 0
0.00164075 0.00909942 0
0.000382731 0.0105135 0
0.00246316 0.00976572 0
0.00101174 0.00980648 0
0.00142294 0.0101396 0
0.00205196 0.00943257 0
0.00163923 0.00907388 0
0.00379005 0.00668069 0
0.00110243 0.00877945 0
0.00271464 0.00787729 0
0.00244624 0.00773007 0
0.00137083 0.00892667 0
0.00162723 0.00908589 0
0.000970042 0.00891184 0
0.000532722 0.0106635 0
0.00129863 0.00899887 0
0.000751382 0.00978768 0
0.00107997 0.00987471 0
0.00101462 0.0110195 0
0.00157889 0.0118164 0
0.00240085 0.00986592 0
0.00129676 0.0114179 0
0.00198987 0.0108412 0
0.00170774 0.0104427 0
0.00101032 0.0110152 0
0.00230066 0.00976572 0
0.000549617 0.0105135 0
0.00165549 0.0103904 0
0.00142514 0.0101396 0
0.000779969 0.0107643 0
0.001012 0.0110221 0
0.000310855 0.0115363 0
0.00159917 0.0117962 0
0.000661427 0.0112792 0
0.000955011 0.0116662 0
0.00130558 0.0114091 0
0.0010077 0.0110178 0
0.000550936 0.0105122 0
0.000375609 0.0116011 0
0.000779316 0.010765 0
0.000463272 0.0110566 0
0.000691653 0.0113094 0
0.0128999 0.000929644 0
0.0169453 0 0
0.015086 0 0
0.0149226 0.000464822 0
0.0160156 0 0
0.0139929 0.000464822 0
0.0128997 0.000929505 0
0.0115694 0.00225753 0
0.0167164 -0.000228839 0
0.0122346 0.00159352 0
0.0141429 0.00101435 0
0.0148081 0.000350333 0
0.0129144 0.000915114 0
0.0154617 -0.00037566 0
0.00777534 0.00221615 0
0.014188 0.000269727 0
0.0116185 0.000920243 0
0.0103449 0.00156563 0
0.0129143 0.000914975 0
0.00823415 0.00267496 0
0.011453 0.00237389 0
0.0105742 0.00179497 0
0.00984359 0.00252442 0
0.0121837 0.00164443 0
0.00348187 0.00582275 0
0.00383676 0.00706697 0
0.00769263 0.00250132 0
0.00365932 0.00644486 0
0.0057647 0.00478415 0
0.00558725 0.00416203 0
0.00346688 0.00580776 0
0.00762713 0.00243582 0
0.00357595 0.00512852 0
0.00554701 0.00412179 0
0.00560154 0.00378217 0
0.00352142 0.00546814 0
0.0034527 0.00585192 0
0.000466731 0.00877945 0
0.00422304 0.00668069 0
0.00195972 0.00731569 0
0.00234489 0.00773007 0
0.00383787 0.00626631 0
0.00343771 0.00583693 0
0.00290442 0.00580006 0
0.00072917 0.00904189 0
0.00317107 0.00581849 0
0.0018168 0.00742097 0
0.00208344 0.00743941 0
0.00995555 0.00115707 0
0.00777534 0.00262979 0
0.0154617 -0.000696109 0
0.00886544 0.00189343 0
0.0116185 0.000966838 0
0.0127086 0.00023048 0
0.0100248 0.00108786 0
0.00258069 0.00512852 0
0.00796931 0.00243582 0
0.00630272 0.00310819 0
0.005275 0.00378217 0
0.00899703 0.00176184 0
0.00999606 0.00119758 0
0.0161578 0 0
0.0137626 0 0
0.0130769 0.000598788 0
0.0149602 0 0
0.0118793 0.000598788 0
0.0100653 0.00112837 0
0.0141663 -0.000403651 0
0.00150639 0.00405423 0
0.0121158 0.000362359 0
0.00783633 0.00182529 0
0.00578583 0.0025913 0
-0.0813051 0.023691 0
-0.135673 0.050108 0
-0.0186355 0.041806 0
-0.108489 0.0368995 0
-0.0771541 0.045957 0
-0.0499703 0.0327485 0
-0.078954 0.0260421 0
-0.0415592 0.0188823 0
-0.0567025 0.0180586 0
-0.0602566 0.0224622 0
-0.0491309 0.0184704 0
-0.0678282 0.0220504 0
-0.0766374 0.0190233 0
-0.0475182 0 0
-0.0855647 0 0
-0.0620778 0.00951164 0
-0.0665415 0 0
-0.0811011 0.00951164 0
-0.0742863 0.0213744 0
-0.0604108 0.0217669 0
-0.0569566 -0.00943839 0
-0.0673485 0.0215707 0
-0.0586837 0.00616424 0
-0.0656214 0.00596802 0
-0.0524602 0.00468483 0
-0.0451901 0 0
-0.0545598 0 0
-0.0488252 0.00234242 0
-0.0498749 0 0
-0.05351 0.00234242 0
-0.0523179 0.0045425 0
-0.0569566 0.00239681 0
-0.0604108 0.0151283 0
-0.0546372 0.00346965 0
-0.0586837 0.00876258 0
-0.0563643 0.00983542 0
-0.0526554 0.00448967 0
-0.0495289 0.0069738 0
-0.0469991 -0.00180903 0
-0.0510921 0.00573173 0
-0.048264 0.00258238 0
-0.0498273 0.00134032 0
-0.0525131 0.00434733 0
-0.0598373 0.0157018 0
-0.0476926 0.00513756 0
-0.0561752 0.0100246 0
-0.053765 0.0104197 0
-0.0501028 0.00474245 0
-0.0455437 0.00198745 0
-0.0469991 -3.75075e-05 0
-0.0495289 0.005403 0
-0.0462714 0.000974969 0
-0.048264 0.00268275 0
-0.0475363 0.00369523 0
-0.0455679 0.00196329 0
-0.0487628 0.00616903 0
-0.0428876 0.00363273 0
-0.0471654 0.00406616 0
-0.0458252 0.00490088 0
-0.0442278 0.00279801 0
-0.0455802 0.00202393 0
-0.0429888 0 0
-0.0470366 0 0
-0.0442845 0.00101196 0
-0.0450127 0 0
-0.0463084 0.00101196 0
-0.0456044 0.00199977 0
-0.0431203 0.00386541 0
-0.0436059 -0.00061711 0
-0.0443623 0.00293259 0
-0.0433631 0.00162415 0
-0.0446051 0.000691331 0
-0.0415904 0.0014582 0
-0.040874 0 0
-0.0437904 0 0
-0.0412322 0.0007291 0
-0.0423322 0 0
-0.0426904 0.0007291 0
-0.0415782 0.00144603 0
-0.0436059 -0.00018451 0
-0.0431203 0.00338529 0
-0.042592 0.000630759 0
-0.0433631 0.00160039 0
-0.0423493 0.00241566 0
-0.0415926 0.00145594 0
-0.0387744 0.00306255 0
-0.0411111 -0.000237145 0
-0.0401835 0.00225925 0
-0.0399428 0.0014127 0
-0.0413519 0.000609398 0
-0.0415805 0.00144377 0
-0.0427291 0.00377655 0
-0.038776 0.00306409 0
-0.0421548 0.00261016 0
-0.0407525 0.00342032 0
-0.0401782 0.00225393 0
-0.0384185 0.00138488 0
-0.0411111 -0.000132171 0
-0.0387744 0.00291632 0
-0.0397648 0.000626356 0
-0.0399428 0.00139207 0
-0.0385965 0.0021506 0
-0.038418 0.00138544 0
-0.0386034 0.00308734 0
-0.0353375 0.00294942 0
-0.0385107 0.00223639 0
-0.0369705 0.00301838 0
-0.0368778 0.00216743 0
-0.0384235 0.00138987 0
-0.0384636 0 0
-0.0412433 0 0
-0.0384436 0.000694934 0
-0.0398534 0 0
-0.0398334 0.000694934 0
-0.038423 0.00139042 0
-0.035304 0.00291589 0
-0.0385448 -8.12455e-05 0
-0.0368635 0.00215316 0
-0.0369244 0.00141732 0
-0.0384839 0.00065459 0
-0.0354492 0.00143375 0
-0.0357499 0 0
-0.0386173 0 0
-0.0355996 0.000716873 0
-0.0371836 0 0
-0.0370333 0.000716873 0
-0.0354472 0.00143168 0
-0.0385448 -7.25254e-05 0
-0.035304 0.00288192 0
-0.036996 0.000679578 0
-0.0369244 0.00140469 0
-0.0353756 0.0021568 0
-0.0354483 0.00143468 0
-0.0321671 0.0029513 0
-0.035764 -1.41875e-05 0
-0.0338077 0.00219299 0
-0.0339656 0.00146856 0
-0.0356062 0.000710248 0
-0.0354462 0.00143262 0
-0.0352399 0.00294601 0
-0.0321875 0.00297166 0
-0.0353431 0.00218932 0
-0.0337137 0.00295884 0
-0.0338168 0.00220214 0
-0.0324757 0.00148853 0
-0.035764 -2.84089e-05 0
-0.0321671 0.00295126 0
-0.0341199 0.000730058 0
-0.0339656 0.00146142 0
-0.0323214 0.00221989 0
-0.0324749 0.00148937 0
-0.0321529 0.00296546 0
-0.0291524 0.00301374 0
-0.0323139 0.00222741 0
-0.0306527 0.0029896 0
-0.0308137 0.00225156 0
-0.0324765 0.00148925 0
-0.0328139 0 0
-0.0357925 0 0
-0.0326452 0.000744625 0
-0.0343032 0 0
-0.0341345 0.000744625 0
-0.0324756 0.00149009 0
-0.0291506 0.00301189 0
-0.0328014 1.25957e-05 0
-0.0308131 0.00225099 0
-0.030976 0.00151224 0
-0.0326385 0.000751345 0
-0.0294691 0.00152315 0
-0.0297533 0 0
-0.0327996 0 0
-0.0296112 0.000761576 0
-0.0312764 0 0
-0.0311343 0.000761576 0
-0.0294691 0.00152314 0
-0.0328014 1.75777e-06 0
-0.0291506 0.00301558 0
-0.0311352 0.000762447 0
-0.030976 0.00150867 0
-0.0293098 0.00226936 0
-0.0294684 0.0015238 0
-0.026181 0.00303801 0
-0.0297356 1.77031e-05 0
-0.0278247 0.0022809 0
-0.0279583 0.00152785 0
-0.029602 0.000770752 0
-0.0294684 0.00152378 0
-0.0291563 0.00300981 0
-0.0261685 0.00302558 0
-0.0293124 0.0022668 0
-0.0276624 0.0030177 0
-0.0278185 0.00227468 0
-0.0264522 0.00152267 0
-0.0297356 2.09008e-05 0
-0.026181 0.00303296 0
-0.0280939 0.000771786 0
-0.0279583 0.00152693 0
-0.0263166 0.00227781 0
-0.0264518 0.00152308 0
-0.0261887 0.00302521 0
-0.023225 0.00298462 0
-0.0263203 0.00227414 0
-0.0247069 0.00300491 0
-0.0248384 0.00225385 0
-0.0264518 0.00152221 0
-0.0266703 0 0
-0.0297147 0 0
-0.026561 0.000761106 0
-0.0281925 0 0
-0.0280832 0.000761106 0
-0.0264514 0.00152262 0
-0.0232442 0.00300377 0
-0.0266625 7.72913e-06 0
-0.0248478 0.00226319 0
-0.0249534 0.00150575 0
-0.026557 0.000765174 0
-0.0229295 0.00446865 0
-0.0261848 0.00304063 0
-0.0225696 0.00593596 0
-0.0245572 0.00375464 0
-0.0243772 0.00448829 0
-0.0227495 0.0052023 0
-0.0229296 0.00446871 0
-0.0232418 0.00298462 0
-0.0261694 0.00302521 0
-0.0230857 0.00372667 0
-0.0247056 0.00300491 0
-0.0245495 0.00374696 0
-0.0229297 0.00446846 0
-0.0225774 0.00592814 0
-0.0197211 0.00586508 0
-0.0227535 0.0051983 0
-0.0211492 0.00589661 0
-0.0213254 0.00516677 0
-0.0229298 0.00446852 0
-0.0197345 0.00587852 0
-0.0232365 0.00298993 0
-0.0213321 0.00517352 0
-0.0214855 0.00443423 0
-0.0230831 0.00372923 0
-0.0200459 0.00438558 0
-0.0197429 0.00586728 0
-0.0168845 0.00576229 0
-0.0198944 0.00512643 0
-0.0183137 0.00581478 0
-0.0184652 0.00507394 0
-0.0200455 0.00438598 0
-0.0232365 0.0029957 0
-0.0197345 0.00587569 0
-0.021641 0.00369084 0
-0.0214855 0.0044357 0
-0.01989 0.00513084 0
-0.0200459 0.00438554 0
-0.0168848 0.00576255 0
-0.0203256 0.0028812 0
-0.0184653 0.00507404 0
-0.0186052 0.00432187 0
-0.0201857 0.00363337 0
-0.0200455 0.00438595 0
-0.0203262 0.00288062 0
-0.0232291 0.00298835 0
-0.0201858 0.00363329 0
-0.0217777 0.00293449 0
-0.0216373 0.00368715 0
-0.016609 0.00722124 0
-0.0169024 0.00576229 0
-0.0197153 0.00586728 0
-0.0167557 0.00649177 0
-0.0183088 0.00581478 0
-0.0181622 0.00654426 0
-0.0166087 0.00722093 0
-0.0197286 0.00588059 0
-0.0162414 0.00863318 0
-0.0181687 0.00655076 0
-0.017985 0.00725688 0
-0.0164251 0.00792705 0
-0.0166095 0.00722081 0
-0.0135755 0.00856306 0
-0.0168725 0.00579215 0
-0.0150925 0.00789194 0
-0.015224 0.00717761 0
-0.016741 0.00650648 0
-0.0166092 0.0072205 0
-0.0162741 0.00860055 0
-0.0135635 0.00855102 0
-0.0164416 0.00791052 0
-0.0149188 0.00857578 0
-0.0150863 0.00788576 0
-0.023475 0.00147921 0
-0.0236743 0 0
-0.0266327 0 0
-0.0235746 0.000739607 0
-0.0251535 0 0
-0.0250539 0.000739607 0
-0.0234759 0.00148009 0
-0.0266625 2.98417e-05 0
-0.0232442 0.00298477 0
-0.0250692 0.000754967 0
-0.0249534 0.00150731 0
-0.02336 0.00223243 0
-0.0234749 0.00147928 0
-0.020347 0.00289572 0
-0.0236907 -1.64341e-05 0
-0.021911 0.0021875 0
-0.0220189 0.00143964 0
-0.0235828 0.000731423 0
-0.0234758 0.00148016 0
-0.0232406 0.00298835 0
-0.0203319 0.00288062 0
-0.0233582 0.00223425 0
-0.0217863 0.00293449 0
-0.0219039 0.00218039 0
-0.0171587 0.00424788 0
-0.0203256 0.00287841 0
-0.0168848 0.00577135 0
-0.0187422 0.00356315 0
-0.0186052 0.00432488 0
-0.0170217 0.00500962 0
-0.0171588 0.00424796 0
-0.0174439 0.00271467 0
-0.0203362 0.00288899 0
-0.0173014 0.00348131 0
-0.0188901 0.00280183 0
-0.0187475 0.00356847 0
-0.0171595 0.00424708 0
-0.0168926 0.00576349 0
-0.0139827 0.00564063 0
-0.0170261 0.00500528 0
-0.0154376 0.00570206 0
-0.0155711 0.00494385 0
-0.0171596 0.00424715 0
-0.0139606 0.00561853 0
-0.0174494 0.00270924 0
-0.0155601 0.00493284 0
-0.015705 0.00416389 0
-0.0173045 0.0034782 0
-0.020601 0.00139024 0
-0.0236907 2.63843e-05 0
-0.020347 0.00286207 0
-0.0221459 0.000708312 0
-0.0220189 0.00144422 0
-0.020474 0.00212615 0
-0.0206016 0.0013897 0
-0.0203201 0.00288899 0
-0.0174959 0.00271467 0
-0.0204608 0.00213934 0
-0.018908 0.00280183 0
-0.0190487 0.00205218 0
-0.0205997 0.00138891 0
-0.0208865 0 0
-0.0236643 0 0
-0.0207431 0.000694454 0
-0.0222754 0 0
-0.022132 0.000694454 0
-0.0206002 0.00138836 0
-0.0174895 0.00270834 0
-0.0209446 -5.80522e-05 0
-0.0190449 0.00204835 0
-0.019217 0.00132514 0
-0.0207724 0.000665155 0
-0.0138095 0.00714362 0
-0.0168725 0.00576345 0
-0.0135755 0.00859243 0
-0.015341 0.00645353 0
-0.015224 0.00717794 0
-0.0136925 0.00786802 0
-0.0138099 0.00714322 0
-0.0136205 0.00854749 0
-0.0108205 0.0085389 0
-0.0137152 0.00784535 0
-0.0122205 0.0085432 0
-0.0123152 0.00784106 0
-0.01381 0.00714407 0
-0.0139885 0.00564063 0
-0.0168726 0.00576349 0
-0.0138993 0.00639235 0
-0.0154305 0.00570206 0
-0.0153413 0.00645378 0
-0.0138104 0.00714367 0
-0.0108221 0.00854049 0
-0.0139437 0.00568548 0
-0.0123162 0.00784208 0
-0.0123829 0.00711299 0
-0.013877 0.00641457 0
-0.0107639 0.00986816 0
-0.013573 0.0085738 0
-0.0105143 0.0111333 0
-0.0121685 0.00922098 0
-0.0120437 0.00985354 0
-0.0106391 0.0105007 0
-0.0107641 0.00986832 0
-0.0108965 0.0085389 0
-0.0135467 0.00854749 0
-0.0108303 0.00920361 0
-0.0122216 0.0085432 0
-0.0121554 0.00920791 0
-0.0107638 0.0098683 0
-0.0105816 0.011066 0
-0.00811779 0.0111344 0
-0.0106727 0.0104672 0
-0.00934967 0.0111002 0
-0.00944078 0.0105013 0
-0.0107639 0.00986847 0
-0.0081495 0.0111661 0
-0.0108238 0.00861155 0
-0.00945671 0.0105173 0
-0.00948667 0.00988881 0
-0.0107939 0.00924001 0
-0.00592915 0.012323 0
-0.00587022 0.0112852 0
-0.0081029 0.0111282 0
-0.00589969 0.0118041 0
-0.00698656 0.0112067 0
-0.00701602 0.0117256 0
-0.00592989 0.0123238 0
-0.00815789 0.0111832 0
-0.00584505 0.0133263 0
-0.00704389 0.0117535 0
-0.00700147 0.0122548 0
-0.00588747 0.012825 0
-0.0059281 0.0123241 0
-0.00404265 0.0134047 0
-0.0057821 0.0113733 0
-0.00498537 0.0128644 0
-0.00491238 0.012389 0
-0.0058551 0.0118487 0
-0.00592883 0.0123248 0
-0.00592596 0.0132454 0
-0.00398404 0.0133461 0
-0.0059274 0.0127851 0
-0.004955 0.0132958 0
-0.00495644 0.0128355 0
-0.00815913 0.00995152 0
-0.00823408 0.0111282 0
-0.00572377 0.0112852 0
-0.0081966 0.0105399 0
-0.00697892 0.0112067 0
-0.00694145 0.0106183 0
-0.00816006 0.00995059 0
-0.0108238 0.00855954 0
-0.0081495 0.0112128 0
-0.00949194 0.00925507 0
-0.00948667 0.00988615 0
-0.00815478 0.0105817 0
-0.00815887 0.00995127 0
-0.00576502 0.0113264 0
-0.00796865 0.00874234 0
-0.00696195 0.0106388 0
-0.00686684 0.0100344 0
-0.00806376 0.00934681 0
-0.0081598 0.00995034 0
-0.00806594 0.00864505 0
-0.0107929 0.00852864 0
-0.00811287 0.00929769 0
-0.00942944 0.00858684 0
-0.00947637 0.00923949 0
-0.00387228 0.0124677 0
-0.0057821 0.0113476 0
-0.00404265 0.0134278 0
-0.00482719 0.0119077 0
-0.00491238 0.0123877 0
-0.00395747 0.0129478 0
-0.00387046 0.0124695 0
-0.00411811 0.0133524 0
-0.0023297 0.013375 0
-0.00399429 0.0129109 0
-0.0032239 0.0133637 0
-0.00310008 0.0129222 0
-0.00387058 0.012466 0
-0.00359282 0.0115299 0
-0.00571465 0.0112802 0
-0.0037317 0.0119979 0
-0.00465374 0.011405 0
-0.00479261 0.0118731 0
-0.00386876 0.0124678 0
-0.00239552 0.0134408 0
-0.00351194 0.0116108 0
-0.00313214 0.0129543 0
-0.00295373 0.0125258 0
-0.00369035 0.0120393 0
-0.00259141 0.0141289 0
-0.00405454 0.0134156 0
-0.00258394 0.0148713 0
-0.00332297 0.0137723 0
-0.00331924 0.0141435 0
-0.00258768 0.0145001 0
-0.00259013 0.0141276 0
-0.00246347 0.013375 0
-0.00399127 0.0133524 0
-0.0025268 0.0137513 0
-0.00322737 0.0133637 0
-0.0032907 0.01374 0
-0.00259039 0.0141299 0
-0.00264165 0.0148136 0
-0.00146038 0.0146274 0
-0.00261602 0.0144718 0
-0.00205102 0.0147205 0
-0.00202539 0.0143787 0
-0.00258911 0.0141286 0
-0.00151696 0.014684 0
-0.00240787 0.0134306 0
-0.00205304 0.0144063 0
-0.00196241 0.0140573 0
-0.00249849 0.0137796 0
-0.0108976 0.00711883 0
-0.00795393 0.00864526 0
-0.0108593 0.00566333 0
-0.00942576 0.00788204 0
-0.00940663 0.0071543 0
-0.0108785 0.00639108 0
-0.010897 0.00711824 0
-0.0108909 0.00852864 0
-0.00795372 0.00864505 0
-0.010894 0.00782344 0
-0.00942233 0.00858684 0
-0.00942536 0.00788164 0
-0.0108976 0.00711881 0
-0.010938 0.00558465 0
-0.0139545 0.00563652 0
-0.0109178 0.00635173 0
-0.0124462 0.00561058 0
-0.012426 0.00637766 0
-0.010897 0.00711822 0
-0.0139437 0.00562573 0
-0.0108221 0.00859748 0
-0.0124203 0.00637197 0
-0.0123829 0.0071116 0
-0.0108596 0.00785785 0
-0.00551612 0.0101805 0
-0.00796865 0.008679 0
-0.00576502 0.0113804 0
-0.00674238 0.00942975 0
-0.00686684 0.0100297 0
-0.00564057 0.0107805 0
-0.00551455 0.0101789 0
-0.00518873 0.00900721 0
-0.00791451 0.00862486 0
-0.00535164 0.00959307 0
-0.00655162 0.00881604 0
-0.00671453 0.00940189 0
-0.00551366 0.010183 0
-0.00586526 0.0112802 0
-0.00342108 0.0115299 0
-0.00568946 0.0107316 0
-0.00464317 0.011405 0
-0.00446737 0.0108564 0
-0.00551209 0.0101814 0
-0.00348643 0.0115952 0
-0.00506922 0.00912672 0
-0.00449926 0.0108883 0
-0.00427783 0.010361 0
-0.00529065 0.00965406 0
-0.00781837 0.00728134 0
-0.0108593 0.00556 0
-0.00795393 0.0087365 0
-0.00933885 0.00642067 0
-0.00940663 0.00714825 0
-0.00788615 0.00800892 0
-0.00781673 0.00728298 0
-0.00806557 0.00862486 0
-0.00499946 0.00900721 0
-0.00794115 0.00795392 0
-0.00653251 0.00881604 0
-0.00640809 0.0081451 0
-0.00781863 0.00728159 0
-0.00766689 0.00580287 0
-0.0108633 0.00556394 0
-0.00774276 0.00654223 0
-0.00926508 0.0056834 0
-0.00934095 0.00642276 0
-0.00781699 0.00728323 0
-0.00502633 0.00903409 0
-0.00752166 0.0059481 0
-0.00642166 0.00815866 0
-0.00627399 0.00749109 0
-0.00766932 0.00661567 0
-0.0142222 0.0040859 0
-0.0139762 0.00563652 0
-0.0109268 0.00558465 0
-0.0140992 0.00486121 0
-0.0124515 0.00561058 0
-0.0125745 0.00483527 0
-0.0142208 0.0040873 0
-0.0174494 0.00268376 0
-0.0139606 0.00565214 0
-0.0158351 0.00338553 0
-0.015705 0.00416795 0
-0.0140907 0.00486972 0
-0.0142228 0.00408653 0
-0.0108717 0.00552954 0
-0.0145578 0.00251337 0
-0.0125473 0.00480804 0
-0.0127147 0.00402145 0
-0.0143903 0.00329995 0
-0.0142214 0.00408794 0
-0.0145583 0.00251287 0
-0.0174934 0.00272784 0
-0.0143898 0.0033004 0
-0.0160258 0.00262035 0
-0.0158574 0.00340789 0
-0.00134756 0.0138887 0
-0.00154276 0.0146491 0
-0.000644943 0.0140261 0
-0.00144516 0.0142689 0
-0.00109385 0.0143376 0
-0.00099625 0.0139574 0
-0.00134835 0.0138879 0
-0.00240787 0.0134468 0
-0.00151696 0.0146749 0
-0.00187811 0.0136673 0
-0.00196241 0.0140608 0
-0.00143266 0.0142814 0
-0.00134608 0.0138872 0
-0.000683182 0.0140643 0
-0.00108609 0.0131414 0
-0.00101463 0.0139757 0
-0.000884636 0.0136029 0
-0.00121608 0.0135143 0
-0.00134687 0.0138864 0
-0.00110247 0.013125 0
-0.00235566 0.0133946 0
-0.00122467 0.0135057 0
-0.00172907 0.0132598 0
-0.00185126 0.0136405 0
-0.00077475 0.0147339 0
-0.000693978 0.0140261 0
-0.00148667 0.0146491 0
-0.000734364 0.01438 0
-0.00109032 0.0143376 0
-0.00113071 0.0146915 0
-0.000775632 0.0147348 0
-0.00152297 0.0146854 0
-0.000737998 0.0153951 0
-0.0011493 0.0147101 0
-0.00113049 0.0150403 0
-0.000756815 0.015065 0
-0.000774566 0.0147341 0
-0.000332651 0.0145649 0
-0.00068581 0.0140342 0
-0.000553608 0.0146495 0
-0.000509231 0.0142996 0
-0.000730188 0.0143842 0
-0.000775448 0.014735 0
-0.000756968 0.0153761 0
-0.000309281 0.0145415 0
-0.000766208 0.0150556 0
-0.000533124 0.0149588 0
-0.000542365 0.0146383 0
-0.00203764 0.0125437 0
-0.00164214 0.0117519 0
-0.00343789 0.0115397 0
-0.00183989 0.0121478 0
-0.00254001 0.0116458 0
-0.00273776 0.0120417 0
-0.00204017 0.0125462 0
-0.00351194 0.0116138 0
-0.00239552 0.0134409 0
-0.00277606 0.01208 0
-0.00295373 0.0125273 0
-0.00221785 0.0129936 0
-0.00203565 0.0125457 0
-0.00107912 0.0131854 0
-0.00160041 0.0117937 0
-0.00155738 0.0128656 0
-0.00133976 0.0124896 0
-0.00181803 0.0121697 0
-0.00203818 0.0125482 0
-0.00244186 0.0133946 0
-0.00101871 0.013125 0
-0.00224002 0.0129714 0
-0.00173029 0.0132598 0
-0.00152845 0.0128366 0
-0.0029995 0.0106018 0
-0.00357777 0.0115397 0
-0.00148964 0.0117519 0
-0.00328863 0.0110707 0
-0.00253371 0.0116458 0
-0.00224457 0.0111768 0
-0.00300376 0.0105975 0
-0.00506922 0.00908292 0
-0.00348643 0.0116311 0
-0.00403649 0.00984021 0
-0.00427783 0.010357 0
-0.00324509 0.0111143 0
-0.00299535 0.0105976 0
-0.00157889 0.0118412 0
-0.00240085 0.00983023 0
-0.00228712 0.0112194 0
-0.00198987 0.0108357 0
-0.0026981 0.0102139 0
-0.00299961 0.0105934 0
-0.00250252 0.00972857 0
-0.00497348 0.00898718 0
-0.00275106 0.010161 0
-0.003738 0.00935787 0
-0.00398655 0.00979027 0
-0.000458054 0.013108 0
-0.00108609 0.0131828 0
-0.000683182 0.014036 0
-0.000772072 0.0131454 0
-0.000884636 0.0136094 0
-0.000570618 0.013572 0
-0.000457148 0.0131071 0
-0.000224297 0.0122118 0
-0.00106501 0.0131617 0
-0.000340723 0.0126594 0
-0.000644653 0.0126868 0
-0.000761079 0.0131344 0
-0.000458172 0.0131079 0
-0.000662341 0.0140568 0
-0.000165079 0.0126562 0
-0.000560257 0.0135824 0
-0.00041371 0.0133565 0
-0.000311626 0.0128821 0
-0.000457267 0.013107 0
-0.000167966 0.0126591 0
-0.000261758 0.0121743 0
-0.000312617 0.0128831 0
-0.000214862 0.0124167 0
-0.000359513 0.0126407 0
-0.000687719 0.0122721 0
-0.00160041 0.0118448 0
-0.00107912 0.0131488 0
-0.00114406 0.0120584 0
-0.00133976 0.0124968 0
-0.000883417 0.0127105 0
-0.000687335 0.0122725 0
-0.00106622 0.0131617 0
-0.000237751 0.0122118 0
-0.000876777 0.0127171 0
-0.000651986 0.0126868 0
-0.000462543 0.0122421 0
-0.000686021 0.0122704 0
-0.000343386 0.0115363 0
-0.0015518 0.0117962 0
-0.000514704 0.0119034 0
-0.000947592 0.0116662 0
-0.00111891 0.0120333 0
-0.000685637 0.0122708 0
-0.000261948 0.012236 0
-0.000376528 0.0115032 0
-0.000473793 0.0122534 0
-0.000319238 0.0118696 0
-0.000531083 0.011887 0
-0.000265241 0.0136311 0
-0.00068581 0.0140614 0
-0.000332651 0.0145494 0
-0.000475526 0.0138462 0
-0.000509231 0.0143054 0
-0.000298946 0.0140902 0
-0.000265512 0.0136308 0
-0.000312912 0.0145692 0
-9.31211e-05 0.0129122 0
-0.000289212 0.0141 0
-0.000203016 0.0137407 0
-0.000179317 0.0132715 0
-0.000264631 0.0136304 0
-0.000133363 0.0126562 0
-0.000681196 0.0140568 0
-0.000198997 0.0131433 0
-0.000407279 0.0133565 0
-0.000472913 0.0138436 0
-0.000264902 0.0136302 0
-8.24126e-05 0.0129015 0
-0.000167745 0.0126218 0
-0.000173657 0.0132658 0
-0.000125079 0.0127617 0
-0.000216323 0.013126 0
-8.70823e-05 0.0138845 0
-0.000333885 0.0145626 0
4.49157e-07 0.0147219 0
-0.000210484 0.0142235 0
-0.000166718 0.0146422 0
-4.33165e-05 0.0143032 0
-8.6621e-05 0.013884 0
-5.37864e-05 0.0129122 0
-0.000340449 0.0145692 0
-7.02037e-05 0.0133981 0
-0.000197118 0.0137407 0
-0.000213535 0.0142266 0
-8.74435e-05 0.0138841 0
1.50033e-05 0.0147364 0
-2.07369e-05 0.0129961 0
-3.62201e-05 0.0143103 0
-2.86678e-06 0.0138662 0
-5.40902e-05 0.0134401 0
-8.69822e-05 0.0138837 0
-9.17899e-08 0.0129754 0
-8.2222e-05 0.0128838 0
-4.3537e-05 0.0134295 0
-4.11569e-05 0.0129296 0
-8.46021e-05 0.0133837 0
-0.0178835 0.00124926 0
-0.0184434 0 0
-0.0209419 0 0
-0.0181635 0.000624631 0
-0.0196927 0 0
-0.0194127 0.000624631 0
-0.0178854 0.00125112 0
-0.0209446 2.60168e-06 0
-0.0174895 0.00266592 0
-0.019415 0.000626863 0
-0.019217 0.00133426 0
-0.0176875 0.00195852 0
-0.0178853 0.00124744 0
-0.0146254 0.00245274 0
-0.018568 -0.000124585 0
-0.0162554 0.00185009 0
-0.0165967 0.00116408 0
-0.0182267 0.000561426 0
-0.0178872 0.0012493 0
-0.0174276 0.00272784 0
-0.0146855 0.00251287 0
-0.0176574 0.00198857 0
-0.0160566 0.00262035 0
-0.0162864 0.00188108 0
-0.0153537 0.00107401 0
-0.018568 -6.19784e-05 0
-0.0146254 0.00242394 0
-0.0169609 0.000506017 0
-0.0165967 0.00118098 0
-0.0149895 0.00174898 0
-0.0153588 0.00106892 0
-0.0145224 0.00252693 0
-0.0117527 0.00238061 0
-0.0149406 0.00179793 0
-0.0131375 0.00245377 0
-0.0135557 0.00172476 0
-0.0153515 0.0010718 0
-0.0164864 0 0
-0.01863 0 0
-0.015919 0.000535901 0
-0.0175582 0 0
-0.0169908 0.000535901 0
-0.0153566 0.00106671 0
-0.0115694 0.00219733 0
-0.0167164 -0.000230064 0
-0.013463 0.00163202 0
-0.0141429 0.000983632 0
-0.0160365 0.000418322 0
-0.0111206 0.00401483 0
-0.0145578 0.00242966 0
-0.0108717 0.00561789 0
-0.0128392 0.00322225 0
-0.0127147 0.00402377 0
-0.0109962 0.00481636 0
-0.0111227 0.00401693 0
-0.0115287 0.00238061 0
-0.014655 0.00252693 0
-0.0113257 0.00319877 0
-0.0130919 0.00245377 0
-0.0128889 0.00327193 0
-0.0111222 0.00401321 0
-0.0109257 0.00556394 0
-0.00758526 0.00580287 0
-0.0110239 0.00478857 0
-0.00925546 0.0056834 0
-0.00935375 0.00490804 0
-0.0111243 0.0040153 0
-0.00749964 0.00571725 0
-0.0114705 0.00243878 0
-0.00931199 0.00486628 0
-0.0094851 0.00407802 0
-0.0112974 0.00322704 0
-0.00459685 0.00786713 0
-0.00421173 0.00675144 0
-0.00745635 0.0057382 0
-0.00440429 0.00730928 0
-0.00583404 0.00624482 0
-0.0060266 0.00680267 0
-0.00460056 0.00787084 0
-0.00752166 0.00580351 0
-0.00502633 0.00915038 0
-0.00606111 0.00683718 0
-0.00627399 0.00747695 0
-0.00481344 0.00851061 0
-0.00459037 0.0078736 0
-0.00233045 0.0098306 0
-0.00399143 0.00697173 0
-0.00346041 0.0088521 0
-0.00316094 0.00840116 0
-0.0042909 0.00742267 0
-0.00459409 0.00787731 0
-0.00518954 0.00898718 0
-0.00222842 0.00972857 0
-0.00489181 0.00843225 0
-0.00370898 0.00935787 0
-0.00341125 0.00880294 0
-0.00763772 0.00434306 0
-0.00767417 0.0057382 0
-0.00387066 0.00675144 0
-0.00765595 0.00504063 0
-0.00577242 0.00624482 0
-0.00575419 0.00554725 0
-0.00763915 0.00434164 0
-0.0114705 0.00222084 0
-0.00749964 0.00591273 0
-0.00955485 0.00328124 0
-0.0094851 0.00406679 0
-0.0075694 0.00512719 0
-0.00764307 0.00434841 0
-0.00383676 0.00671754 0
-0.00769263 0.00296079 0
-0.00573992 0.00553297 0
-0.0057647 0.00483916 0
-0.00766785 0.0036546 0
-0.0076445 0.00434699 0
-0.00797846 0.00267496 0
-0.0116236 0.00237389 0
-0.00781148 0.00351097 0
-0.00980103 0.00252442 0
-0.00963405 0.00336044 0
-0.00165276 0.00908741 0
-0.00399143 0.00688207 0
-0.00233045 0.00989843 0
-0.0028221 0.00798474 0
-0.00316094 0.00839025 0
-0.0019916 0.00949292 0
-0.00164075 0.00909942 0
-0.00246316 0.00976572 0
-0.000382731 0.0105135 0
-0.00205196 0.00943257 0
-0.00142294 0.0101396 0
-0.00101174 0.00980648 0
-0.00163923 0.00907388 0
-0.00110243 0.00877945 0
-0.00379005 0.00668069 0
-0.00137083 0.00892667 0
-0.00244624 0.00773007 0
-0.00271464 0.00787729 0
-0.00162723 0.00908589 0
-0.000532722 0.0106635 0
-0.000970042 0.00891184 0
-0.00107997 0.00987471 0
-0.000751382 0.00978768 0
-0.00129863 0.00899887 0
-0.00101462 0.0110195 0
-0.00240085 0.00986592 0
-0.00157889 0.0118164 0
-0.00170774 0.0104427 0
-0.00198987 0.0108412 0
-0.00129676 0.0114179 0
-0.00101032 0.0110152 0
-0.000549617 0.0105135 0
-0.00230066 0.00976572 0
-0.000779969 0.0107643 0
-0.00142514 0.0101396 0
-0.00165549 0.0103904 0
-0.001012 0.0110221 0
-0.00159917 0.0117962 0
-0.000310855 0.0115363 0
-0.00130558 0.0114091 0
-0.000955011 0.0116662 0
-0.000661427 0.0112792 0
-0.0010077 0.0110178 0
-0.000375609 0.0116011 0
-0.000550936 0.0105122 0
-0.000691653 0.0113094 0
-0.000463272 0.0110566 0
-0.000779316 0.010765 0
-0.0128999 0.000929644 0
-0.015086 0 0
-0.0169453 0 0
-0.0139929 0.000464822 0
-0.0160156 0 0
-0.0149226 0.000464822 0
-0.0128997 0.000929505 0
-0.0167164 -0.000228839 0
-0.0115694 0.00225753 0
-0.0148081 0.000350333 0
-0.0141429 0.00101435 0
-0.0122346 0.00159352 0
-0.0129144 0.000915114 0
-0.00777534 0.00221615 0
-0.0154617 -0.00037566 0
-0.0103449 0.00156563 0
-0.0116185 0.000920243 0
-0.014188 0.000269727 0
-0.0129143 0.000914975 0
-0.011453 0.00237389 0
-0.00823415 0.00267496 0
-0.0121837 0.00164443 0
-0.00984359 0.00252442 0
-0.0105742 0.00179497 0
-0.00348187 0.00582275 0
-0.00769263 0.00250132 0
-0.00383676 0.00706697 0
-0.00558725 0.00416203 0
-0.0057647 0.00478415 0
-0.00365932 0.00644486 0
-0.00346688 0.00580776 0
-0.00357595 0.00512852 0
-0.00762713 0.00243582 0
-0.00352142 0.00546814 0
-0.00560154 0.00378217 0
-0.00554701 0.00412179 0
-0.0034527 0.00585192 0
-0.00422304 0.00668069 0
-0.000466731 0.00877945 0
-0.00383787 0.00626631 0
-0.00234489 0.00773007 0
-0.00195972 0.00731569 0
-0.00343771 0.00583693 0
-0.00072917 0.00904189 0
-0.00290442 0.00580006 0
-0.00208344 0.00743941 0
-0.0018168 0.00742097 0
-0.00317107 0.00581849 0
-0.00995555 0.00115707 0
-0.0154617 -0.000696109 0
-0.00777534 0.00262979 0
-0.0127086 0.00023048 0
-0.0116185 0.000966838 0
-0.00886544 0.00189343 0
-0.0100248 0.00108786 0
-0.00796931 0.00243582 0
-0.00258069 0.00512852 0
-0.00899703 0.00176184 0
-0.005275 0.00378217 0
-0.00630272 0.00310819 0
-0.00999606 0.00119758 0
-0.0137626 0 0
-0.0161578 0 0
-0.0118793 0.000598788 0
-0.0149602 0 0
-0.0130769 0.000598788 0
-0.0100653 0.00112837 0
-0.00150639 0.00405423 0
-0.0141663 -0.000403651 0
-0.00578583 0.0025913 0
-0.00783633 0.00182529 0
-0.0121158 0.000362359 0
-0.00253503 0.00437575 0
-0.00888704 0 0
-0.0176386 0 0
-0.00571103 0.00218788 0
-0.0132628 0 0
-0.0100868 0.00218788 0
-0.00290433 0.00474506 0
-0.0141663 -0.00347229 0
-0.00150639 0.0063917 0
-0.0085353 0.000636387 0
-0.00783633 0.00145971 0
-0.00220536 0.00556838 0
-0.00178612 0.00512466 0
0 0.0124593 0
0 0.00888704 0
-0.000893062 0.00879197 0
0 0.0106732 0
-0.000893062 0.00700585 0
-0.00215543 0.00549396 0
-0.00282204 0.00507606 0
0.00186269 0.0105966 0
-0.00248873 0.00528501 0
-0.000479675 0.00783633 0
-0.00014637 0.00804528 0
-0.000116871 0.00921612 0
0 0.0103005 0
0 0.0100667 0
-5.84356e-05 0.0097583 0
0 0.0101836 0
-5.84356e-05 0.00964143 0
-6.62972e-05 0.0092667 0
0.000529868 0.0105966 0
-0.00233087 0.00507606 0
0.000231786 0.00993165 0
-0.000900501 0.00783633 0
-0.00119858 0.00717138 0
-0.000101166 0.00920042 0
-0.000858353 0.00905283 0
4.7057e-05 0.0102534 0
-0.00047976 0.00912662 0
-0.000405648 0.00965312 0
-2.70546e-05 0.00972692 0
-5.05921e-05 0.00925099 0
-0.00290442 0.00564961 0
-0.00072917 0.00918202 0
-0.00147751 0.0074503 0
-0.0018168 0.00741581 0
-0.000389881 0.0092165 0
-3.76175e-05 0.0102218 0
0.000212204 0.0102534 0
-0.000925058 0.00905283 0
8.72932e-05 0.0102376 0
-0.000356427 0.00965312 0
-0.000481338 0.00963729 0
-2.76965e-05 0.0102118 0
-0.000970042 0.00909782 0
-0.000532722 0.0105452 0
-0.000498869 0.00965482 0
-0.000751382 0.0098215 0
-0.000280209 0.0103785 0
-5.28328e-05 0.0102065 0
0 0.0101469 0
0 0.0100412 0
-2.64164e-05 0.0101767 0
0 0.010094 0
-2.64164e-05 0.0101239 0
-4.29118e-05 0.0101966 0
-0.000435658 0.0106423 0
-1.98825e-05 0.0101668 0
-0.000239285 0.0104194 0
-0.00022777 0.0104045 0
-3.13972e-05 0.0101817 0
-3.85025e-05 0.0107441 0
0 0.0101057 0
0 0.0100287 0
-1.92512e-05 0.0104249 0
0 0.0100672 0
-1.92512e-05 0.0103864 0
-3.23814e-05 0.0107502 0
0.000138091 0.0101668 0
-0.000553352 0.0106423 0
5.28548e-05 0.0104585 0
-0.00020763 0.0104045 0
-0.000292867 0.0106962 0
-3.44715e-05 0.0107401 0
-0.000283201 0.0116021 0
-2.77948e-05 0.0101335 0
-0.000158836 0.0111711 0
-0.000155498 0.0108678 0
-3.11332e-05 0.0104368 0
-2.83504e-05 0.0107462 0
-0.000550936 0.0106398 0
-0.000375609 0.0115097 0
-0.000289643 0.010693 0
-0.000463272 0.0110748 0
-0.000201979 0.0111279 0
-2.59878e-05 0.0111165 0
0.000104494 0.0101335 0
-0.000392926 0.0116021 0
3.9253e-05 0.010625 0
-0.000144216 0.0108678 0
-0.000209457 0.0113593 0
-2.46859e-05 0.0111152 0
-0.000376528 0.0115857 0
-0.000261948 0.0121748 0
-0.000200607 0.0113504 0
-0.000319238 0.0118802 0
-0.000143317 0.011645 0
-2.85464e-05 0.0111139 0
0 0.0100861 0
0 0.010029 0
-1.42732e-05 0.0106 0
0 0.0100575 0
-1.42732e-05 0.0105715 0
-2.72445e-05 0.0111126 0
-0.00018268 0.0122541 0
-3.39014e-05 0.01012 0
-0.000104962 0.0116833 0
-0.00010829 0.011187 0
-3.05729e-05 0.0106163 0
-2.01981e-05 0.011373 0
0 0.0100736 0
0 0.0100332 0
-1.0099e-05 0.0107233 0
0 0.0100534 0
-1.0099e-05 0.0107031 0
-1.89372e-05 0.0113742 0
8.67938e-05 0.01012 0
-0.00028765 0.0122541 0
3.39283e-05 0.0107471 0
-0.000100428 0.011187 0
-0.000153294 0.0118142 0
-1.99226e-05 0.0113727 0
-9.94615e-05 0.0126891 0
-4.11082e-05 0.0101147 0
-5.96921e-05 0.0120309 0
-7.02849e-05 0.0114019 0
-3.05154e-05 0.0107437 0
-1.86617e-05 0.011374 0
-0.000261758 0.0122282 0
-0.000167966 0.0126206 0
-0.00014021 0.0118011 0
-0.000214862 0.0124244 0
-9.33141e-05 0.0119973 0
-1.12901e-05 0.0115405 0
7.48896e-05 0.0101147 0
-0.000202388 0.0126891 0
3.17997e-05 0.0108276 0
-6.37491e-05 0.0114019 0
-0.000106839 0.0121148 0
-1.14369e-05 0.0115407 0
-0.000167745 0.0126544 0
-8.24126e-05 0.0128817 0
-8.9591e-05 0.0120975 0
-0.000125079 0.0127681 0
-4.69248e-05 0.0122112 0
-1.20146e-05 0.0115398 0
0 0.0100638 0
0 0.0100398 0
-6.00728e-06 0.0108018 0
0 0.0100518 0
-6.00728e-06 0.0107898 0
-1.21614e-05 0.0115399 0
-2.29125e-05 0.0129412 0
-4.88769e-05 0.0101127 0
-1.75369e-05 0.0122406 0
-3.58947e-05 0.011527 0
-3.05191e-05 0.0108263 0
-3.9923e-06 0.0116218 0
0 0.0100552 0
0 0.0100473 0
-1.99615e-06 0.0108385 0
0 0.0100513 0
-1.99615e-06 0.0108345 0
-3.50374e-06 0.0116223 0
6.54365e-05 0.0101127 0
-0.000125223 0.0129412 0
3.09664e-05 0.0108675 0
-2.98931e-05 0.011527 0
-6.43633e-05 0.0122818 0
-4.33318e-06 0.0116221 0
5.10966e-05 0.013024 0
-5.69536e-05 0.0101122 0
2.33817e-05 0.0123231 0
-2.92849e-06 0.0115681 0
-3.06434e-05 0.0108672 0
-3.84463e-06 0.0116226 0
-8.2222e-05 0.0128982 0
-9.17899e-08 0.0129728 0
-4.30333e-05 0.0122604 0
-4.11569e-05 0.0129355 0
-1.96821e-06 0.0122977 0
4.33318e-06 0.0116221 0
5.69536e-05 0.0101122 0
-5.10966e-05 0.013024 0
3.06434e-05 0.0108672 0
2.9285e-06 0.0115681 0
-2.33817e-05 0.0123231 0
3.84463e-06 0.0116226 0
9.17902e-08 0.0129728 0
8.2222e-05 0.0128982 0
1.96821e-06 0.0122977 0
4.11569e-05 0.0129355 0
4.30333e-05 0.0122604 0
3.9923e-06 0.0116218 0
0 0.0100473 0
0 0.0100552 0
1.99615e-06 0.0108345 0
0 0.0100513 0
1.99615e-06 0.0108385 0
3.50374e-06 0.0116223 0
0.000125223 0.0129412 0
-6.54365e-05 0.0101127 0
6.43633e-05 0.0122818 0
2.98931e-05 0.011527 0
-3.09664e-05 0.0108675 0
1.20146e-05 0.0115398 0
0 0.0100398 0
0 0.0100638 0
6.00728e-06 0.0107898 0
0 0.0100518 0
6.00728e-06 0.0108018 0
1.21614e-05 0.0115399 0
4.88769e-05 0.0101127 0
2.29125e-05 0.0129412 0
3.05191e-05 0.0108263 0
3.58947e-05 0.011527 0
1.75369e-05 0.0122406 0
1.12901e-05 0.0115405 0
0.000202388 0.0126891 0
-7.48896e-05 0.0101147 0
0.000106839 0.0121148 0
6.37491e-05 0.0114019 0
-3.17997e-05 0.0108276 0
1.14369e-05 0.0115407 0
8.24126e-05 0.0128817 0
0.000167745 0.0126544 0
4.69248e-05 0.0122112 0
0.000125079 0.0127681 0
8.9591e-05 0.0120975 0
1.99226e-05 0.0113727 0
4.11082e-05 0.0101147 0
9.94615e-05 0.0126891 0
3.05154e-05 0.0107437 0
7.02849e-05 0.0114019 0
5.96921e-05 0.0120309 0
1.86617e-05 0.011374 0
0.000167966 0.0126206 0
0.000261758 0.0122282 0
9.33141e-05 0.0119973 0
0.000214862 0.0124244 0
0.00014021 0.0118011 0
2.01981e-05 0.011373 0
0 0.0100332 0
0 0.0100736 0
1.0099e-05 0.0107031 0
0 0.0100534 0
1.0099e-05 0.0107233 0
1.89372e-05 0.0113742 0
0.00028765 0.0122541 0
-8.67938e-05 0.01012 0
0.000153294 0.0118142 0
0.000100428 0.011187 0
-3.39283e-05 0.0107471 0
2.85464e-05 0.0111139 0
0 0.010029 0
0 0.0100861 0
1.42732e-05 0.0105715 0
0 0.0100575 0
1.42732e-05 0.0106 0
2.72445e-05 0.0111126 0
3.39014e-05 0.01012 0
0.00018268 0.0122541 0
3.05729e-05 0.0106163 0
0.00010829 0.011187 0
0.000104962 0.0116833 0
2.59878e-05 0.0111165 0
0.000392926 0.0116021 0
-0.000104494 0.0101335 0
0.000209457 0.0113593 0
0.000144216 0.0108678 0
-3.9253e-05 0.010625 0
2.46859e-05 0.0111152 0
0.000261948 0.0121748 0
0.000376528 0.0115857 0
0.000143317 0.011645 0
0.000319238 0.0118802 0
0.000200607 0.0113504 0
3.44715e-05 0.0107401 0
2.77948e-05 0.0101335 0
0.000283201 0.0116021 0
3.11332e-05 0.0104368 0
0.000155498 0.0108678 0
0.000158836 0.0111711 0
2.83504e-05 0.0107462 0
0.000375609 0.0115097 0
0.000550936 0.0106398 0
0.000201979 0.0111279 0
0.000463272 0.0110748 0
0.000289643 0.010693 0
3.85025e-05 0.0107441 0
0 0.0100287 0
0 0.0101057 0
1.92512e-05 0.0103864 0
0 0.0100672 0
1.92512e-05 0.0104249 0
3.23814e-05 0.0107502 0
0.000553352 0.0106423 0
-0.000138091 0.0101668 0
0.000292867 0.0106962 0
0.00020763 0.0104045 0
-5.28548e-05 0.0104585 0
5.28328e-05 0.0102065 0
0 0.0100412 0
0 0.0101469 0
2.64164e-05 0.0101239 0
0 0.010094 0
2.64164e-05 0.0101767 0
4.29118e-05 0.0101966 0
1.98825e-05 0.0101668 0
0.000435658 0.0106423 0
3.13972e-05 0.0101817 0
0.00022777 0.0104045 0
0.000239285 0.0104194 0
3.76175e-05 0.0102218 0
0.000925058 0.00905283 0
-0.000212204 0.0102534 0
0.000481338 0.00963729 0
0.000356427 0.00965312 0
-8.72932e-05 0.0102376 0
2.76965e-05 0.0102118 0
0.000532722 0.0105452 0
0.000970042 0.00909782 0
0.000280209 0.0103785 0
0.000751382 0.0098215 0
0.000498869 0.00965482 0
0.000101166 0.00920042 0
-4.7057e-05 0.0102534 0
0.000858353 0.00905283 0
2.70546e-05 0.00972692 0
0.000405648 0.00965312 0
0.00047976 0.00912662 0
5.05921e-05 0.00925099 0
0.00072917 0.00918202 0
0.00290442 0.00564961 0
0.000389881 0.0092165 0
0.0018168 0.00741581 0
0.00147751 0.0074503 0
0.000116871 0.00921612 0
0 0.0100667 0
0 0.0103005 0
5.84356e-05 0.00964143 0
0 0.0101836 0
5.84356e-05 0.0097583 0
6.62972e-05 0.0092667 0
0.00233087 0.00507606 0
-0.000529868 0.0105966 0
0.00119858 0.00717138 0
0.000900501 0.00783633 0
-0.000231786 0.00993165 0
0.00253503 0.00437575 0
0.0176386 0 0
0.00888704 0 0
0.0100868 0.00218788 0
0.0132628 0 0
0.00571103 0.00218788 0
0.00290433 0.00474506 0
0.00150639 0.0063917 0
0.0141663 -0.00347229 0
0.00220536 0.00556838 0
0.00783633 0.00145971 0
0.0085353 0.000636387 0
0.00178612 0.00512466 0
0 0.00888704 0
0 0.0124593 0
0.000893062 0.00700585 0
0 0.0106732 0
0.000893062 0.00879197 0
0.00215543 0.00549396 0
-0.00186269 0.0105966 0
0.00282204 0.00507606 0
0.00014637 0.00804528 0
0.000479675 0.00783633 0
0.00248873 0.00528501 0
VECTORS stress_2 float
0.0274021 0.0142434 0
0.00934334 0.0646228 0
0.0593352 0.0507484 0
0.0183727 0.0394331 0
0.0343393 0.0576856 0
0.0433687 0.0324959 0
0.0250971 0.0165484 0
0.013895 0.00933628 0
0.0320503 0.0419158 0
0.0194961 0.0129423 0
0.0229726 0.0256261 0
0.0285737 0.0292321 0
0.0227575 0.00959883 0
0.0085868 0 0
-0.0106109 0 0
0.0156722 0.00479941 0
-0.00101203 0 0
0.00607334 0.00479941 0
0.0204526 0.0119038 0
-0.00049398 -0.0101169 0
0.0179204 0.0133618 0
0.00997929 0.000893467 0
0.00871323 0.00162245 0
0.0191865 0.0126328 0
0.0167139 0.0296211 0
0.00763812 0.043197 0
0.0269682 0.0420184 0
0.012176 0.0364091 0
0.0173032 0.0426077 0
0.021841 0.0358197 0
0.0168093 0.0297165 0
0.0268657 0.0419158 0
0.0186848 0.00933628 0
0.0218375 0.0358162 0
0.0227752 0.0256261 0
0.017747 0.0195264 0
0.0168904 0.0294445 0
0.0165432 0.0177363 0
0.0131128 0.0377223 0
0.0167168 0.0235904 0
0.014828 0.0277293 0
0.0150016 0.0335834 0
0.0169858 0.02954 0
0.0148617 0.0131593 0
0.0155381 0.0167312 0
0.0159238 0.0213497 0
0.0151999 0.0149453 0
0.016262 0.0231356 0
0.012461 0.00885041 0
0.0107491 0.00626031 0
0.0164493 0.0171408 0
0.0116051 0.00755536 0
0.0135992 0.0117005 0
0.0144552 0.0129956 0
0.0124019 0.00890952 0
0.0155381 0.018052 0
0.0148617 0.012456 0
0.01397 0.0134808 0
0.0151999 0.015254 0
0.0136318 0.0106827 0
0.0124574 0.00884678 0
0.00666431 0.000816887 0
0.0117781 0.00728927 0
0.00956084 0.00483183 0
0.00922119 0.00405308 0
0.0121177 0.00806802 0
0.0123983 0.00890589 0
0.0128217 0.0104159 0
0.00645349 0.00102771 0
0.01261 0.00966089 0
0.00963757 0.00572181 0
0.00942588 0.0049668 0
0.0131174 0.0131995 0
0.0149677 0.0171408 0
0.0119698 0.00626031 0
0.0140426 0.0151701 0
0.0134688 0.0117005 0
0.0125436 0.00972991 0
0.0131068 0.0131889 0
0.01194 0.0187229 0
0.0154118 0.0175848 0
0.0125234 0.0159559 0
0.0136759 0.0181539 0
0.0142593 0.0153868 0
0.0131451 0.0131719 0
0.0113686 0.00686151 0
0.0125468 0.00923628 0
0.0122568 0.0100167 0
0.0119577 0.0080489 0
0.0128459 0.0112041 0
0.0131344 0.0131613 0
0.0123532 0.00904264 0
0.0128681 0.0177948 0
0.0127438 0.0111019 0
0.0126106 0.0134187 0
0.0130013 0.015478 0
0.0125737 0.0257577 0
0.0132461 0.0377223 0
0.0171894 0.0177363 0
0.0129099 0.03174 0
0.0152178 0.0277293 0
0.0148816 0.021747 0
0.0125767 0.0257547 0
0.0154118 0.0195139 0
0.01194 0.0173157 0
0.0139943 0.0226343 0
0.0136759 0.0184148 0
0.0122584 0.0215352 0
0.0125035 0.0256874 0
0.00724368 0.0291651 0
0.0112261 0.0357023 0
0.00987357 0.0274262 0
0.00923487 0.0324337 0
0.0118648 0.0306948 0
0.0125065 0.0256844 0
0.0127432 0.0181189 0
0.00795102 0.0284577 0
0.0126248 0.0219016 0
0.0103471 0.0232883 0
0.0102287 0.0270711 0
0.00476079 0.000418738 0
-0.000236711 0 0
-0.00107419 0 0
0.00226204 0.000209369 0
-0.000655449 0 0
0.0018433 0.000209369 0
0.00478378 0.000441731 0
0.0179204 0.00760163 0
-0.00049398 -0.000257269 0
0.0113521 0.00402168 0
0.00871323 0.00367218 0
0.0021449 9.2231e-05 0
0.0046253 0.000554231 0
-0.000330907 -0.000743281 0
0.00631376 0.00252447 0
0.0021472 -9.45246e-05 0
0.00299143 0.000890592 0
0.00546953 0.00153935 0
0.00464829 0.000577223 0
0.004817 0.00102771 0
0.0151062 0.0104159 0
0.00473265 0.000802466 0
0.00996159 0.00572181 0
0.00987723 0.00549656 0
0.00752843 0.00248013 0
0.0117781 0.00620784 0
0.00666431 0.00282232 0
0.00965325 0.00434399 0
0.00922119 0.00451508 0
0.00709637 0.00265123 0
0.00749399 0.00244569 0
0.00600409 0.00216211 0
0.00363227 0.000357454 0
0.00674904 0.0023039 0
0.00481818 0.00125978 0
0.00556313 0.00140157 0
0.0074961 0.00251246 0
0.00784637 0.00206377 0
0.0114356 0.00655035 0
0.00767124 0.00228812 0
0.00964097 0.00430706 0
0.00946583 0.00453141 0
0.00746166 0.00247802 0
0.00394396 4.57618e-05 0
0.00840386 0.00262126 0
0.00570281 0.00126189 0
0.00617391 0.00133351 0
0.00793276 0.00254964 0
0.00193917 6.40411e-05 0
0.00631376 0.00182592 0
-0.000330907 -0.000278586 0
0.00412647 0.000944981 0
0.00299143 0.000773667 0
0.000804133 -0.000107272 0
0.00194756 5.56572e-05 0
0.00356933 0.000357454 0
0.00597757 0.00216211 0
0.00275844 0.000206555 0
0.00477345 0.00125978 0
0.00396256 0.00110888 0
0.00196777 9.26375e-05 0
-5.23213e-05 0 0
-0.000237596 0 0
0.000957724 4.63188e-05 0
-0.000144959 0 0
0.000865087 4.63188e-05 0
0.00197615 8.42536e-05 0
-0.00020804 -2.95561e-05 0
0.00367133 0.00045946 0
0.000884057 2.73487e-05 0
0.00173165 0.000214952 0
0.00282374 0.000271857 0
0.00908919 0.0210066 0
0.00495879 0.0220213 0
0.00750107 0.0277399 0
0.00702399 0.021514 0
0.00622993 0.0248806 0
0.00829513 0.0243732 0
0.00909921 0.0210166 0
0.00821894 0.0284577 0
0.0127624 0.0181189 0
0.00865908 0.0247372 0
0.0104907 0.0232883 0
0.0109308 0.0195678 0
0.00908628 0.0210095 0
0.0103578 0.0154366 0
0.00537776 0.0216024 0
0.00972206 0.018223 0
0.0078678 0.0185195 0
0.00723202 0.0213059 0
0.0090963 0.0210195 0
0.0121306 0.0187507 0
0.00986697 0.0149457 0
0.0106134 0.0198851 0
0.0109988 0.0168482 0
0.00948163 0.0179826 0
0.0119348 0.01308 0
0.0120651 0.00921667 0
0.0103835 0.0152617 0
0.0119999 0.0111483 0
0.0112243 0.0122392 0
0.0111591 0.0141708 0
0.0119275 0.0130873 0
0.00986697 0.0157782 0
0.0121306 0.0176357 0
0.0108973 0.0144327 0
0.0109988 0.0167069 0
0.0120291 0.0153615 0
0.0119449 0.0130901 0
0.0123861 0.00958896 0
0.0119705 0.00912211 0
0.0121655 0.0113395 0
0.0121783 0.00935554 0
0.0119577 0.0111061 0
0.0119376 0.0130973 0
0.0122897 0.0177948 0
0.0129325 0.00904264 0
0.0121137 0.0154461 0
0.0126111 0.0134187 0
0.012435 0.01107 0
0.00707474 0.0161635 0
0.00556284 0.0216024 0
0.0102748 0.0154366 0
0.00631879 0.0188829 0
0.00791884 0.0185195 0
0.00867479 0.0158 0
0.00707239 0.0161658 0
0.00994935 0.0157621 0
0.00841687 0.0115406 0
0.00851087 0.0159639 0
0.00918311 0.0136513 0
0.00774463 0.0138532 0
0.00707144 0.0161602 0
0.00366718 0.0158313 0
0.00513373 0.0211733 0
0.00536931 0.0159957 0
0.00440045 0.0185023 0
0.00610259 0.0186667 0
0.00706909 0.0161625 0
0.00874898 0.0118727 0
0.00389758 0.0156009 0
0.00790904 0.0140176 0
0.00632328 0.0137368 0
0.00548334 0.0158817 0
0.0106589 0.011164 0
0.0101673 0.0152617 0
0.0123177 0.00921667 0
0.0104131 0.0132128 0
0.0112425 0.0122392 0
0.0114883 0.0101903 0
0.0106526 0.0111577 0
0.00841687 0.0121047 0
0.00994935 0.0150438 0
0.00953474 0.0116312 0
0.00918311 0.0135742 0
0.010301 0.0131007 0
0.0106619 0.0111609 0
0.0119494 0.00958498 0
0.011302 0.00765746 0
0.0113057 0.010373 0
0.0116257 0.00862122 0
0.0109819 0.0094092 0
0.0106557 0.0111547 0
0.0114557 0.00781116 0
0.00873954 0.0117821 0
0.0110557 0.00948292 0
0.0100976 0.00979661 0
0.00969759 0.0114684 0
0.0109174 0.00552209 0
0.0125468 0.00922063 0
0.0113686 0.00714012 0
0.0117321 0.00737136 0
0.0119577 0.00818037 0
0.011143 0.0063311 0
0.0109208 0.00551871 0
0.0107901 0.00395922 0
0.0127397 0.00902775 0
0.0108555 0.00473897 0
0.0117649 0.00649349 0
0.0118302 0.00727323 0
0.0109088 0.00551344 0
0.0107788 0.00655035 0
0.00836603 0.00206377 0
0.0108438 0.00603189 0
0.00957241 0.00430706 0
0.00963741 0.0037886 0
0.0109122 0.00551006 0
0.00837232 0.00205748 0
0.0111702 0.0043393 0
0.00964224 0.00378377 0
0.00977125 0.00319839 0
0.0110412 0.00492468 0
0.0120636 0.00694726 0
0.0119705 0.00946581 0
0.0123861 0.00923643 0
0.0120171 0.00820653 0
0.0121783 0.00935112 0
0.0122249 0.00809185 0
0.0120659 0.00694954 0
0.0121775 0.00902775 0
0.0112654 0.00395922 0
0.0121217 0.00798865 0
0.0117214 0.00649349 0
0.0116656 0.00545438 0
0.0120708 0.00694012 0
0.0121758 0.00481098 0
0.0122714 0.00916491 0
0.0121233 0.00587555 0
0.0122236 0.00698795 0
0.0121711 0.00805252 0
0.0120731 0.0069424 0
0.0110566 0.00416803 0
0.0123112 0.00494639 0
0.0115648 0.00555521 0
0.0116839 0.00455721 0
0.0121921 0.0059444 0
0.0113647 0.00324666 0
0.0118271 0.00223614 0
0.0124039 0.00483392 0
0.0115959 0.0027414 0
0.0121155 0.00353503 0
0.0118843 0.00404029 0
0.0113637 0.00324764 0
0.0123112 0.0049266 0
0.0110566 0.0042863 0
0.0118374 0.00408712 0
0.0116839 0.00460645 0
0.0112101 0.00376697 0
0.011362 0.00324398 0
0.00992815 0.00159209 0
0.0119895 0.00239848 0
0.0106451 0.00241803 0
0.0109588 0.00199528 0
0.0116757 0.00282123 0
0.011361 0.00324495 0
0.0108303 0.00405999 0
0.0099603 0.00155995 0
0.0110956 0.00365247 0
0.0103953 0.00280997 0
0.0106607 0.00240245 0
0.0125945 0.00358348 0
0.0121477 0.00483392 0
0.0120508 0.00223614 0
0.0123711 0.0042087 0
0.0120992 0.00353503 0
0.0123226 0.00290981 0
0.012594 0.00358305 0
0.0126803 0.00467388 0
0.0122477 0.00493394 0
0.0126372 0.00412847 0
0.012464 0.00480391 0
0.0124209 0.0042585 0
0.0125969 0.00358101 0
0.0119468 0.00234012 0
0.0131713 0.00241585 0
0.0122719 0.00296056 0
0.012559 0.00237798 0
0.0128841 0.00299843 0
0.0125965 0.00358059 0
0.0131031 0.00234764 0
0.0128219 0.00453231 0
0.0128498 0.00296412 0
0.0129625 0.00343997 0
0.0127092 0.00405645 0
0.0122048 0.00671734 0
0.0119412 0.00916491 0
0.0124824 0.00481098 0
0.012073 0.00794113 0
0.0122118 0.00698795 0
0.0123436 0.00576416 0
0.012209 0.00671314 0
0.0122477 0.00504571 0
0.0126803 0.00453573 0
0.0122284 0.00587942 0
0.012464 0.00479072 0
0.0124447 0.00562443 0
0.0122015 0.00671403 0
0.011302 0.00802147 0
0.0119494 0.00917308 0
0.0117517 0.00736775 0
0.0116257 0.00859727 0
0.0120754 0.00794356 0
0.0122057 0.00670983 0
0.0126799 0.00453533 0
0.0115595 0.00776393 0
0.0124428 0.00562258 0
0.0121197 0.00614963 0
0.0118826 0.00723688 0
0.00904911 0.00209899 0
0.0068826 0.000548049 0
0.00996017 0.00180351 0
0.00796586 0.00132352 0
0.00842138 0.00117578 0
0.00950464 0.00195125 0
0.00905774 0.00210761 0
0.0097166 0.00155995 0
0.0111213 0.00405999 0
0.00938717 0.00183378 0
0.010419 0.00280997 0
0.0100895 0.0030838 0
0.00905475 0.00209335 0
0.00806368 0.00228673 0
0.00679718 0.000633474 0
0.00855921 0.00219004 0
0.00743043 0.0014601 0
0.00792596 0.00136341 0
0.00906337 0.00210198 0
0.0111702 0.00401113 0
0.00837232 0.00259538 0
0.0101168 0.00305655 0
0.00977125 0.00330326 0
0.00871785 0.00234868 0
0.0107096 0.00134669 0
0.0119895 0.0022818 0
0.00992815 0.00178332 0
0.0113495 0.00181424 0
0.0109588 0.00203256 0
0.0103189 0.001565 0
0.0107067 0.00134381 0
0.0097777 0.00163287 0
0.00924108 0.000518138 0
0.0102422 0.00148834 0
0.00950939 0.0010755 0
0.00997389 0.000930975 0
0.0107084 0.00134789 0
0.0114988 0.000914633 0
0.0119945 0.00227681 0
0.0111036 0.00113126 0
0.0117466 0.00159572 0
0.0113514 0.00181235 0
0.0107055 0.00134502 0
0.00926031 0.000498908 0
0.0116169 0.0010327 0
0.0099829 0.000921964 0
0.0104386 0.000765803 0
0.0111612 0.00118886 0
0.00806339 0.000689823 0
0.00996017 0.00157217 0
0.0068826 0.000856186 0
0.00901178 0.001131 0
0.00842138 0.00121418 0
0.007473 0.000773004 0
0.0080598 0.000693412 0
0.00913529 0.000518138 0
0.00989947 0.00163287 0
0.00859755 0.000605775 0
0.00951738 0.0010755 0
0.00897964 0.00116314 0
0.00805915 0.000685583 0
0.0067389 0.000712481 0
0.00620167 0.000121458 0
0.00739903 0.000699032 0
0.00647029 0.00041697 0
0.00713041 0.000403521 0
0.00805556 0.000689172 0
0.0062656 5.75332e-05 0
0.00926011 0.000642954 0
0.00716058 0.000373353 0
0.00776285 0.000350243 0
0.00865783 0.000666063 0
0.00544862 0.000671432 0
0.00665079 0.000633474 0
0.00822813 0.00228673 0
0.0060497 0.000652453 0
0.00743946 0.0014601 0
0.00683837 0.00147908 0
0.00545903 0.000661023 0
0.00840386 0.002111 0
0.00394396 0.000681231 0
0.00693144 0.00138601 0
0.00617391 0.00139612 0
0.0047015 0.000671127 0
0.00543949 0.000662309 0
0.00313643 -7.4124e-05 0
0.00684287 0.00082556 0
0.00428796 0.000294092 0
0.00498965 0.000375718 0
0.00614118 0.000743935 0
0.0054499 0.0006519 0
0.00375421 0.000491481 0
0.0030021 6.02054e-05 0
0.00460206 0.00057169 0
0.00337816 0.000275843 0
0.004226 0.000356053 0
0.0120161 0.00540751 0
0.0107641 0.0057307 0
0.0113073 0.00769157 0
0.0113901 0.00556911 0
0.0110357 0.00671114 0
0.0116617 0.00654954 0
0.0120189 0.00541031 0
0.0113797 0.00776393 0
0.0128583 0.00453533 0
0.0116993 0.00658712 0
0.012119 0.00614963 0
0.0124386 0.00497282 0
0.0120187 0.00540495 0
0.0128159 0.00343668 0
0.0109687 0.00552603 0
0.0124173 0.00442081 0
0.0118923 0.00448136 0
0.0114937 0.00546549 0
0.0120215 0.00540775 0
0.012655 0.00473861 0
0.0127529 0.00337366 0
0.0123382 0.00507318 0
0.0127039 0.00405613 0
0.0123872 0.0043907 0
0.00970505 0.00834857 0
0.0113073 0.00806276 0
0.0107641 0.00540151 0
0.0105062 0.00820566 0
0.0110357 0.00673214 0
0.0102346 0.00687504 0
0.009704 0.00834961 0
0.00866489 0.0117821 0
0.0115589 0.00781116 0
0.00918445 0.0100658 0
0.0101119 0.00979661 0
0.0106314 0.00808039 0
0.00970183 0.00834534 0
0.0109187 0.00555611 0
0.00773533 0.00795126 0
0.0103102 0.00695073 0
0.00932699 0.00675368 0
0.00871858 0.0081483 0
0.00970078 0.00834639 0
0.00751643 0.00817017 0
0.00846906 0.0115862 0
0.0086086 0.00825828 0
0.00799274 0.0098782 0
0.00908492 0.00996631 0
0.0131946 0.00312688 0
0.0131426 0.00247077 0
0.0138152 0.00190221 0
0.0131686 0.00279883 0
0.0134789 0.00218649 0
0.0135049 0.00251455 0
0.0131923 0.00312914 0
0.012644 0.00453231 0
0.0132657 0.00234764 0
0.0129182 0.00383072 0
0.0129549 0.00343997 0
0.013229 0.00273839 0
0.0131932 0.00312547 0
0.0138149 0.00190201 0
0.0128941 0.00342812 0
0.0135041 0.00251374 0
0.0133545 0.00266506 0
0.0130436 0.00327679 0
0.0131909 0.00312773 0
0.0127529 0.00356937 0
0.012655 0.00454329 0
0.0129719 0.00334855 0
0.0127039 0.00405633 0
0.012923 0.00383551 0
0.0125385 0.00170439 0
0.0131713 0.00242034 0
0.0119468 0.00237932 0
0.0128549 0.00206236 0
0.012559 0.00239983 0
0.0122427 0.00204185 0
0.0125392 0.00170374 0
0.0131863 0.00108323 0
0.0132268 0.00236482 0
0.0128627 0.00139348 0
0.0132065 0.00172402 0
0.012883 0.00203428 0
0.0125376 0.00170349 0
0.0118443 0.00227681 0
0.0116287 0.000914633 0
0.012191 0.00199015 0
0.0117365 0.00159572 0
0.0120832 0.00130906 0
0.0125383 0.00170285 0
0.0115992 0.000944168 0
0.0132623 0.00115926 0
0.0120687 0.00132351 0
0.0124307 0.00105171 0
0.0129003 0.00143105 0
0.0136922 0.00162207 0
0.0138152 0.00198324 0
0.0131426 0.00240983 0
0.0137537 0.00180265 0
0.0134789 0.00219653 0
0.0134174 0.00201595 0
0.0136925 0.00162243 0
0.0130976 0.00236482 0
0.0133008 0.00108323 0
0.013395 0.00199362 0
0.0131992 0.00172402 0
0.0134966 0.00135283 0
0.0136935 0.00162073 0
0.0142804 0.000944185 0
0.0138907 0.00190765 0
0.0139869 0.00128246 0
0.0140856 0.00142592 0
0.0137921 0.00176419 0
0.0136938 0.00162109 0
0.0132436 0.00114037 0
0.0143103 0.000974141 0
0.0134687 0.00138073 0
0.013777 0.00105726 0
0.0140021 0.00129761 0
0.0118084 0.00346475 0
0.0108776 0.00552603 0
0.0129108 0.00343668 0
0.011343 0.00449539 0
0.0118942 0.00448136 0
0.0123596 0.00345072 0
0.0118101 0.00346305 0
0.0127443 0.00360318 0
0.012738 0.00174109 0
0.0122772 0.00353311 0
0.0127411 0.00267213 0
0.012274 0.00260207 0
0.0118063 0.0034627 0
0.0104362 0.00301916 0
0.0107736 0.00542205 0
0.0111213 0.00324093 0
0.0106049 0.00422061 0
0.01129 0.00444237 0
0.011808 0.00346099 0
0.0128322 0.00183533 0
0.0106005 0.00285489 0
0.0123201 0.00264816 0
0.0117163 0.00234511 0
0.0112042 0.00315794 0
0.0134582 0.00210079 0
0.0127873 0.00342812 0
0.0139159 0.00190201 0
0.0131228 0.00276446 0
0.0133516 0.00266506 0
0.0136871 0.0020014 0
0.0134566 0.00209919 0
0.012738 0.00195407 0
0.0127443 0.00338506 0
0.0130973 0.00202663 0
0.0127411 0.00266957 0
0.0131005 0.00274212 0
0.0134601 0.0020989 0
0.0137999 0.00201798 0
0.0141291 0.0010092 0
0.01363 0.00205844 0
0.0139645 0.00151359 0
0.0137946 0.00155405 0
0.0134585 0.00209729 0
0.0141735 0.00105358 0
0.0128623 0.00182978 0
0.013816 0.00157544 0
0.0135179 0.00144168 0
0.0131604 0.00196354 0
0.00584196 0.0114179 0
0.00289591 0.0102926 0
0.00375548 0.0153252 0
0.00436894 0.0108553 0
0.00332569 0.0128089 0
0.00479872 0.0133716 0
0.00584306 0.011419 0
0.00403118 0.0156009 0
0.00866675 0.0118727 0
0.00493712 0.01351 0
0.00634897 0.0137368 0
0.0072549 0.0116459 0
0.00584046 0.0114194 0
0.0077483 0.00799992 0
0.00304895 0.0101396 0
0.00679438 0.00970968 0
0.00539863 0.00906976 0
0.00444471 0.0107795 0
0.00584156 0.0114205 0
0.00846906 0.0120704 0
0.00751643 0.00776805 0
0.00715531 0.0117455 0
0.00799274 0.00991923 0
0.00667899 0.00959429 0
0.00909546 0.00512989 0
0.00771193 0.00795126 0
0.0109595 0.00555611 0
0.0084037 0.00654057 0
0.00933573 0.00675368 0
0.0100275 0.005343 0
0.00909369 0.00512812 0
0.00702294 0.00416373 0
0.00754442 0.00778375 0
0.00805832 0.00464592 0
0.00728368 0.00597374 0
0.00831906 0.00645594 0
0.00909604 0.00512931 0
0.0107736 0.00574204 0
0.0104362 0.00272434 0
0.00993481 0.00543568 0
0.0106049 0.00423319 0
0.00976611 0.00392682 0
0.00909427 0.00512754 0
0.0105812 0.00286936 0
0.00719107 0.00399559 0
0.00983774 0.00399845 0
0.00888614 0.00343248 0
0.00814267 0.00456157 0
0.00513592 0.0067938 0
0.00313589 0.0101396 0
0.0076878 0.00799992 0
0.0041359 0.0084667 0
0.00541184 0.00906976 0
0.00641186 0.00739686 0
0.00513486 0.00679485 0
0.00754442 0.0081433 0
0.00702294 0.00384566 0
0.00633964 0.00746908 0
0.00728368 0.00599448 0
0.0060789 0.00532026 0
0.00513574 0.00679362 0
0.00249516 0.00511631 0
0.00294446 0.00994817 0
0.00381545 0.00595497 0
0.00271981 0.00753224 0
0.0040401 0.00837089 0
0.00513468 0.00679467 0
0.00719429 0.00401701 0
0.00261671 0.00499476 0
0.00616448 0.00540584 0
0.0049055 0.00450589 0
0.0038757 0.00589472 0
0.00144773 8.67223e-07 0
-7.59891e-05 0 0
-7.77235e-05 0 0
0.00068587 4.33612e-07 0
-7.68563e-05 0 0
0.000685002 4.33612e-07 0
0.00143045 -1.64089e-05 0
0.00367133 0.000470336 0
-0.00020804 -0.000132051 0
0.00255089 0.000226964 0
0.00173165 0.000169143 0
0.000611206 -7.423e-05 0
0.00146019 -1.1599e-05 0
-0.000108605 3.08818e-05 0
0.00302021 3.96652e-05 0
0.000675795 9.64138e-06 0
0.0014558 3.52735e-05 0
0.0022402 1.40331e-05 0
0.00144292 -2.88752e-05 0
0.00304075 6.02054e-05 0
0.00365019 0.000491481 0
0.00224183 1.56651e-05 0
0.00334547 0.000275843 0
0.00254655 0.000231303 0
0.00137605 -2.21872e-05 0
0.00302021 9.78235e-05 0
-0.000108605 -6.16773e-05 0
0.00219813 3.78182e-05 0
0.0014558 1.80731e-05 0
0.000633723 -4.19323e-05 0
0.00138363 -2.97615e-05 0
0.00293336 -3.29422e-05 0
0.00303899 7.90475e-05 0
0.00215849 -3.13518e-05 0
0.00298617 2.30527e-05 0
0.00221131 2.4643e-05 0
0.0013851 -1.31366e-05 0
-4.6928e-05 0 0
-2.06548e-05 0 0
0.000669087 -6.56831e-06 0
-3.37914e-05 0 0
0.000682224 -6.56831e-06 0
0.00139268 -2.07109e-05 0
-4.79033e-05 2.72485e-05 0
0.0029134 -5.28972e-05 0
0.000672387 3.26883e-06 0
0.00143275 -1.28243e-05 0
0.00215304 -3.6804e-05 0
0.00473365 0.000113686 0
0.00684287 0.000637156 0
0.00313643 0.000125158 0
0.00578826 0.000375421 0
0.00498965 0.000381157 0
0.00393504 0.000119422 0
0.00473258 0.000112612 0
0.00309032 7.90475e-05 0
0.0029112 -3.29422e-05 0
0.00391145 9.58297e-05 0
0.00300076 2.30527e-05 0
0.00382189 3.98349e-05 0
0.00473125 0.000116088 0
0.00616579 0.000121458 0
0.00676755 0.000712481 0
0.00544852 0.000118773 0
0.00646667 0.00041697 0
0.0057494 0.000414285 0
0.00473018 0.000115014 0
0.00296047 -8.22079e-05 0
0.006231 0.000186675 0
0.00384532 1.64031e-05 0
0.00459573 5.22338e-05 0
0.00548059 0.000150845 0
0.0076097 0.000153083 0
0.00620284 0.000148391 0
0.00601216 -3.28971e-05 0
0.00690627 0.000150737 0
0.0061075 5.77471e-05 0
0.00681093 6.00931e-05 0
0.00761133 0.00015471 0
0.00926011 0.0005142 0
0.0062656 0.000211154 0
0.00843572 0.000334455 0
0.00776285 0.000362677 0
0.00693846 0.000182932 0
0.00760799 0.000154792 0
0.00604874 -6.94707e-05 0
0.00891727 0.00018051 0
0.00682836 4.26606e-05 0
0.007483 5.55198e-05 0
0.00826263 0.000167651 0
0.00760962 0.000156419 0
0.00885645 0.000119695 0
0.00921881 0.000555497 0
0.00823304 0.000138057 0
0.00903763 0.000337596 0
0.00841421 0.000355958 0
0.00452589 -4.05935e-05 0
0.00600505 -3.28971e-05 0
0.00620173 0.000148391 0
0.00526547 -3.67453e-05 0
0.00610339 5.77471e-05 0
0.00536381 5.38988e-05 0
0.00452603 -4.07374e-05 0
0.006231 0.000119117 0
0.00296047 -2.02845e-05 0
0.00537852 3.91897e-05 0
0.00459573 4.94161e-05 0
0.00374325 -3.0511e-05 0
0.00452647 -4.00145e-05 0
0.00297298 -6.36345e-05 0
0.00602714 -1.08076e-05 0
0.00374972 -5.18245e-05 0
0.00450006 -3.7221e-05 0
0.0052768 -2.5411e-05 0
0.00452661 -4.01584e-05 0
0.0029511 -2.96488e-05 0
0.00295556 -4.6215e-05 0
0.00373886 -3.49036e-05 0
0.00295333 -3.79319e-05 0
0.00374108 -4.31867e-05 0
0.0102956 0.000476907 0
0.0112823 0.000323969 0
0.0115981 0.000945667 0
0.0107889 0.000400438 0
0.0114402 0.000634818 0
0.0109469 0.000711287 0
0.0102968 0.000475719 0
0.0116169 0.000926921 0
0.00926031 0.000643282 0
0.0109568 0.00070132 0
0.0104386 0.000785101 0
0.00977854 0.0005595 0
0.0102938 0.000475097 0
0.00892621 9.33856e-05 0
0.0113565 0.000398197 0
0.00960999 0.000284242 0
0.0101414 0.000245791 0
0.0108252 0.000436647 0
0.010295 0.00047391 0
0.00917252 0.000555497 0
0.0088999 0.000119695 0
0.00973374 0.000514703 0
0.00903621 0.000337596 0
0.00959743 0.000296802 0
0.0123851 0.000720323 0
0.0115211 0.000945667 0
0.0113501 0.000323969 0
0.0119531 0.000832995 0
0.0114356 0.000634818 0
0.0118676 0.000522146 0
0.0123861 0.000721313 0
0.0132623 0.00111301 0
0.0115992 0.00102372 0
0.0128242 0.000917164 0
0.0124307 0.00106837 0
0.0119926 0.000872516 0
0.012385 0.000720467 0
0.0113533 0.000320758 0
0.013223 0.000514309 0
0.0118692 0.000520613 0
0.0122882 0.000417533 0
0.012804 0.000617388 0
0.012386 0.000721457 0
0.0131605 0.000451771 0
0.0132723 0.00110298 0
0.0127732 0.000586614 0
0.0132164 0.000777375 0
0.0128291 0.000912218 0
0.00742874 -1.70436e-08 0
0.00891727 0.000113114 0
0.00604874 4.59252e-06 0
0.00817301 5.65484e-05 0
0.007483 5.88532e-05 0
0.00673874 2.28774e-06 0
0.00742799 7.32628e-07 0
0.00873007 2.69134e-05 0
0.00889295 0.000137433 0
0.00807903 1.3823e-05 0
0.00881151 8.21733e-05 0
0.00816047 6.9083e-05 0
0.00742821 -5.53267e-07 0
0.00602094 -2.3205e-05 0
0.00596227 -3.65686e-05 0
0.00672457 -1.18791e-05 0
0.00599161 -2.98868e-05 0
0.00669524 -1.85609e-05 0
0.00742746 1.96405e-07 0
0.00598168 -5.59734e-05 0
0.00876021 5.70536e-05 0
0.00670457 -2.78885e-05 0
0.00737094 5.40091e-07 0
0.00809383 2.8625e-05 0
0.0100743 0.000147109 0
0.0113565 0.000321536 0
0.00892621 0.000187339 0
0.0107154 0.000234322 0
0.0101414 0.000254437 0
0.00950024 0.000167224 0
0.0100733 0.000146186 0
0.0088763 0.000137433 0
0.00874828 2.69134e-05 0
0.00947483 0.00014181 0
0.00881229 8.21733e-05 0
0.00941081 8.65497e-05 0
0.0100735 0.000147899 0
0.0111591 0.000128745 0
0.011335 0.000343026 0
0.0106163 0.000138322 0
0.0112471 0.000235885 0
0.0107043 0.000245463 0
0.0100726 0.000146977 0
0.00877029 4.89423e-06 0
0.011205 0.000174694 0
0.00942143 7.59355e-05 0
0.00998766 8.97941e-05 0
0.0106388 0.000160835 0
0.00143159 -1.20882e-05 0
-2.38068e-05 0 0
3.69698e-07 0 0
0.000703892 -6.04412e-06 0
-1.17185e-05 0 0
0.00071598 -6.04412e-06 0
0.0014269 -1.67795e-05 0
0.0029134 -1.23941e-05 0
-4.79033e-05 -2.40966e-05 0
0.00217015 -1.45868e-05 0
0.00143275 -1.82454e-05 0
0.000689498 -2.0438e-05 0
0.00143591 -1.64036e-05 0
-1.42688e-05 1.46385e-05 0
0.00295563 -5.49144e-05 0
0.000710818 -8.82543e-07 0
0.00147068 -2.0138e-05 0
0.00219577 -3.5659e-05 0
0.00143121 -2.10949e-05 0
0.00296433 -4.6215e-05 0
0.00293066 -2.96488e-05 0
0.00219777 -3.36549e-05 0
0.0029475 -3.79319e-05 0
0.00218094 -2.53718e-05 0
0.00449466 -5.69429e-05 0
0.00602714 -3.42063e-05 0
0.00297298 -4.50052e-05 0
0.0052609 -4.55746e-05 0
0.00450006 -3.96057e-05 0
0.00373382 -5.0974e-05 0
0.00449529 -5.63139e-05 0
0.00297233 -4.56488e-05 0
0.00301055 -2.8761e-05 0
0.00373381 -5.09814e-05 0
0.00299144 -3.72049e-05 0
0.00375292 -4.25374e-05 0
0.00449494 -5.72235e-05 0
0.00596146 -3.65686e-05 0
0.00601614 -2.3205e-05 0
0.0052282 -4.6896e-05 0
0.0059888 -2.98868e-05 0
0.00525554 -4.02142e-05 0
0.00449557 -5.65945e-05 0
0.00301654 -3.47482e-05 0
0.00596894 -2.90916e-05 0
0.00375605 -4.56713e-05 0
0.00449274 -3.19199e-05 0
0.00523225 -4.28431e-05 0
0.00148582 -1.04739e-05 0
0.00295563 -3.61181e-05 0
-1.42688e-05 -5.83222e-06 0
0.00222073 -2.3296e-05 0
0.00147068 -2.09752e-05 0
0.000735778 -8.15304e-06 0
0.0014882 -1.28475e-05 0
0.00301388 -2.8761e-05 0
0.00296516 -4.56488e-05 0
0.00225104 -2.08042e-05 0
0.00298952 -3.72049e-05 0
0.00222668 -2.92482e-05 0
0.00148816 -8.13968e-06 0
-8.43658e-06 0 0
7.84278e-06 0 0
0.000739861 -4.06984e-06 0
-2.96901e-07 0 0
0.000748001 -4.06984e-06 0
0.00149053 -1.05133e-05 0
3.69047e-06 4.15231e-06 0
0.00301208 -3.0556e-05 0
0.000747112 -3.1805e-06 0
0.00150789 -1.32018e-05 0
0.00225131 -2.05346e-05 0
0.00481261 0.00225453 0
0.00237684 0.000120222 0
0.0025167 0.00485189 0
0.00359473 0.00118738 0
0.00244677 0.00248606 0
0.00366465 0.00355321 0
0.00481228 0.00225421 0
0.00265957 0.00499476 0
0.00716293 0.00401701 0
0.00373593 0.00362449 0
0.00491125 0.00450589 0
0.0059876 0.00313561 0
0.00481192 0.00225522 0
0.0070075 0 0
0.00249707 0 0
0.00590971 0.00112761 0
0.00475229 0 0
0.00365449 0.00112761 0
0.0048116 0.0022549 0
0.00703551 0.00414443 0
0.00686981 -0.000137698 0
0.00592355 0.00319966 0
0.00695266 0.00200336 0
0.0058407 0.0010586 0
0.00880185 0.00172617 0
0.0104706 0 0
0.00701823 0 0
0.00963622 0.000863087 0
0.0087444 0 0
0.00791004 0.000863087 0
0.00880125 0.00172678 0
0.00686981 0.000148424 0
0.00703551 0.0038456 0
0.00783553 0.000937603 0
0.00695266 0.00199701 0
0.00791838 0.00278619 0
0.00880284 0.00172716 0
0.0104417 0.00302256 0
0.0103285 -0.000142035 0
0.00962228 0.00237486 0
0.0103851 0.00144026 0
0.00956569 0.00079256 0
0.00880223 0.00172776 0
0.0071855 0.00399559 0
0.0105949 0.00286936 0
0.00799387 0.00286168 0
0.00889022 0.00343248 0
0.00969858 0.00229856 0
0.00481192 -0.00225522 0
0.00249707 0 0
0.0070075 0 0
0.00365449 -0.00112761 0
0.00475229 0 0
0.00590971 -0.00112761 0
0.0048116 -0.0022549 0
0.00686981 0.000137698 0
0.00703551 -0.00414443 0
0.0058407 -0.0010586 0
0.00695266 -0.00200336 0
0.00592355 -0.00319966 0
0.00481261 -0.00225453 0
0.0025167 -0.00485189 0
0.00237684 -0.000120222 0
0.00366465 -0.00355321 0
0.00244677 -0.00248606 0
0.00359473 -0.00118738 0
0.00481228 -0.00225421 0
0.00716293 -0.00401701 0
0.00265957 -0.00499476 0
0.0059876 -0.00313561 0
0.00491125 -0.00450589 0
0.00373593 -0.00362449 0
0.00880185 -0.00172617 0
0.00701823 0 0
0.0104706 0 0
0.00791004 -0.000863087 0
0.0087444 0 0
0.00963622 -0.000863087 0
0.00880125 -0.00172678 0
0.00703551 -0.0038456 0
0.00686981 -0.000148424 0
0.00791838 -0.00278619 0
0.00695266 -0.00199701 0
0.00783553 -0.000937603 0
0.00880284 -0.00172716 0
0.0103285 0.000142035 0
0.0104417 -0.00302256 0
0.00956569 -0.00079256 0
0.0103851 -0.00144026 0
0.00962228 -0.00237486 0
0.00880223 -0.00172776 0
0.0105949 -0.00286936 0
0.0071855 -0.00399559 0
0.00969858 -0.00229856 0
0.00889022 -0.00343248 0
0.00799387 -0.00286168 0
0.0116833 0.00118815 0
0.0103285 0.000137966 0
0.0104417 0.00273427 0
0.0110059 0.000663058 0
0.0103851 0.00143612 0
0.0110625 0.00196121 0
0.0116849 0.00118974 0
0.0105623 0.00285489 0
0.0128731 0.00183533 0
0.0111236 0.00202232 0
0.0117177 0.00234511 0
0.012279 0.00151254 0
0.0116847 0.0011867 0
0.0128399 0 0
0.0104665 0 0
0.0122623 0.000593349 0
0.0116532 0 0
0.0110756 0.000593349 0
0.0116863 0.00118829 0
0.0127358 0.00197265 0
0.0127247 -0.000115181 0
0.0122111 0.00158047 0
0.0127302 0.000928734 0
0.0122055 0.000536555 0
0.013557 0.000734367 0
0.014296 0 0
0.0128272 0 0
0.0139265 0.000367183 0
0.0135616 0 0
0.0131921 0.000367183 0
0.0135553 0.000736031 0
0.0127247 0.000102505 0
0.0127358 0.00175258 0
0.01314 0.000419268 0
0.0127302 0.000927545 0
0.0131455 0.00124431 0
0.0135586 0.00073597 0
0.0141228 0.00115179 0
0.014221 -7.49552e-05 0
0.0138407 0.000943879 0
0.0141719 0.000538416 0
0.0138898 0.000330508 0
0.0135569 0.000737634 0
0.012813 0.00182978 0
0.0142211 0.00105358 0
0.0131849 0.00128371 0
0.013517 0.00144168 0
0.013889 0.000895605 0
0.013557 -0.000734367 0
0.0128272 0 0
0.014296 0 0
0.0131921 -0.000367183 0
0.0135616 0 0
0.0139265 -0.000367183 0
0.0135553 -0.000736031 0
0.0127358 -0.00175258 0
0.0127247 -0.000102505 0
0.0131455 -0.00124431 0
0.0127302 -0.000927545 0
0.01314 -0.000419268 0
0.0135586 -0.00073597 0
0.014221 7.49552e-05 0
0.0141228 -0.00115179 0
0.0138898 -0.000330508 0
0.0141719 -0.000538416 0
0.0138407 -0.000943879 0
0.0135569 -0.000737634 0
0.0142211 -0.00105358 0
0.012813 -0.00182978 0
0.013889 -0.000895605 0
0.013517 -0.00144168 0
0.0131849 -0.00128371 0
0.0116847 -0.0011867 0
0.0104665 0 0
0.0128399 0 0
0.0110756 -0.000593349 0
0.0116532 0 0
0.0122623 -0.000593349 0
0.0116863 -0.00118829 0
0.0127247 0.000115181 0
0.0127358 -0.00197265 0
0.0122055 -0.000536555 0
0.0127302 -0.000928734 0
0.0122111 -0.00158047 0
0.0116833 -0.00118815 0
0.0104417 -0.00273427 0
0.0103285 -0.000137966 0
0.0110625 -0.00196121 0
0.0103851 -0.00143612 0
0.0110059 -0.000663058 0
0.0116849 -0.00118974 0
0.0128731 -0.00183533 0
0.0105623 -0.00285489 0
0.012279 -0.00151254 0
0.0117177 -0.00234511 0
0.0111236 -0.00202232 0
0.0146511 0.0004113 0
0.014221 6.01638e-05 0
0.0141228 0.0010185 0
0.0144361 0.000235732 0
0.0141719 0.000539331 0
0.014387 0.000714899 0
0.0146524 0.000412559 0
0.0141592 0.00105481 0
0.0149331 0.000544273 0
0.0144058 0.000733687 0
0.0145461 0.000799544 0
0.0147927 0.000478416 0
0.0146525 0.000409893 0
0.015101 0 0
0.0142812 0 0
0.0148767 0.000204947 0
0.0146911 0 0
0.0144668 0.000204947 0
0.0146538 0.000411152 0
0.0148781 0.000599264 0
0.0150648 -3.61569e-05 0
0.0147659 0.000505208 0
0.0149715 0.000281553 0
0.0148593 0.000187498 0
0.0143528 0.0011455 0
0.0141291 0.00112915 0
0.0137999 0.00190564 0
0.0142409 0.00113732 0
0.0139645 0.0015174 0
0.0140763 0.00152557 0
0.0143542 0.00114403 0
0.0148924 0.000544273 0
0.0142035 0.00105481 0
0.0146233 0.000844149 0
0.0145479 0.000799544 0
0.0142788 0.00109942 0
0.0143537 0.00114647 0
0.0138019 0.00190765 0
0.0143608 0.000944185 0
0.0140778 0.00152706 0
0.0140814 0.00142592 0
0.0143573 0.00104533 0
0.0143552 0.001145 0
0.0142974 0.00100762 0
0.0148844 0.00053625 0
0.0143263 0.00107631 0
0.0145909 0.000771935 0
0.0146198 0.000840624 0
0.00909604 -0.00512931 0
0.0104362 -0.00272434 0
0.0107736 -0.00574204 0
0.00976611 -0.00392682 0
0.0106049 -0.00423319 0
0.00993481 -0.00543568 0
0.00909427 -0.00512754 0
0.00719107 -0.00399559 0
0.0105812 -0.00286936 0
0.00814267 -0.00456157 0
0.00888614 -0.00343248 0
0.00983774 -0.00399845 0
0.00909546 -0.00512989 0
0.0109595 -0.00555611 0
0.00771193 -0.00795126 0
0.0100275 -0.005343 0
0.00933573 -0.00675368 0
0.0084037 -0.00654057 0
0.00909369 -0.00512812 0
0.00754442 -0.00778375 0
0.00702294 -0.00416373 0
0.00831906 -0.00645594 0
0.00728368 -0.00597374 0
0.00805832 -0.00464592 0
0.0118063 -0.0034627 0
0.0107736 -0.00542205 0
0.0104362 -0.00301916 0
0.01129 -0.00444237 0
0.0106049 -0.00422061 0
0.0111213 -0.00324093 0
0.011808 -0.00346099 0
0.0106005 -0.00285489 0
0.0128322 -0.00183533 0
0.0112042 -0.00315794 0
0.0117163 -0.00234511 0
0.0123201 -0.00264816 0
0.0118084 -0.00346475 0
0.0129108 -0.00343668 0
0.0108776 -0.00552603 0
0.0123596 -0.00345072 0
0.0118942 -0.00448136 0
0.011343 -0.00449539 0
0.0118101 -0.00346305 0
0.012738 -0.00174109 0
0.0127443 -0.00360318 0
0.012274 -0.00260207 0
0.0127411 -0.00267213 0
0.0122772 -0.00353311 0
0.00513574 -0.00679362 0
0.00294446 -0.00994817 0
0.00249516 -0.00511631 0
0.0040401 -0.00837089 0
0.00271981 -0.00753224 0
0.00381545 -0.00595497 0
0.00513468 -0.00679467 0
0.00261671 -0.00499476 0
0.00719429 -0.00401701 0
0.0038757 -0.00589472 0
0.0049055 -0.00450589 0
0.00616448 -0.00540584 0
0.00513592 -0.0067938 0
0.0076878 -0.00799992 0
0.00313589 -0.0101396 0
0.00641186 -0.00739686 0
0.00541184 -0.00906976 0
0.0041359 -0.0084667 0
0.00513486 -0.00679485 0
0.00702294 -0.00384566 0
0.00754442 -0.0081433 0
0.0060789 -0.00532026 0
0.00728368 -0.00599448 0
0.00633964 -0.00746908 0
0.00970183 -0.00834534 0
0.00773533 -0.00795126 0
0.0109187 -0.00555611 0
0.00871858 -0.0081483 0
0.00932699 -0.00675368 0
0.0103102 -0.00695073 0
0.00970078 -0.00834639 0
0.00846906 -0.0115862 0
0.00751643 -0.00817017 0
0.00908492 -0.00996631 0
0.00799274 -0.0098782 0
0.0086086 -0.00825828 0
0.00970505 -0.00834857 0
0.0107641 -0.00540151 0
0.0113073 -0.00806276 0
0.0102346 -0.00687504 0
0.0110357 -0.00673214 0
0.0105062 -0.00820566 0
0.009704 -0.00834961 0
0.0115589 -0.00781116 0
0.00866489 -0.0117821 0
0.0106314 -0.00808039 0
0.0101119 -0.00979661 0
0.00918445 -0.0100658 0
0.00584046 -0.0114194 0
0.00304895 -0.0101396 0
0.0077483 -0.00799992 0
0.00444471 -0.0107795 0
0.00539863 -0.00906976 0
0.00679438 -0.00970968 0
0.00584156 -0.0114205 0
0.00751643 -0.00776805 0
0.00846906 -0.0120704 0
0.00667899 -0.00959429 0
0.00799274 -0.00991923 0
0.00715531 -0.0117455 0
0.00584196 -0.0114179 0
0.00375548 -0.0153252 0
0.00289591 -0.0102926 0
0.00479872 -0.0133716 0
0.00332569 -0.0128089 0
0.00436894 -0.0108553 0
0.00584306 -0.011419 0
0.00866675 -0.0118727 0
0.00403118 -0.0156009 0
0.0072549 -0.0116459 0
0.00634897 -0.0137368 0
0.00493712 -0.01351 0
0.0134601 -0.0020989 0
0.0141291 -0.0010092 0
0.0137999 -0.00201798 0
0.0137946 -0.00155405 0
0.0139645 -0.00151359 0
0.01363 -0.00205844 0
0.0134585 -0.00209729 0
0.0128623 -0.00182978 0
0.0141735 -0.00105358 0
0.0131604 -0.00196354 0
0.0135179 -0.00144168 0
0.013816 -0.00157544 0
0.0134582 -0.00210079 0
0.0139159 -0.00190201 0
0.0127873 -0.00342812 0
0.0136871 -0.0020014 0
0.0133516 -0.00266506 0
0.0131228 -0.00276446 0
0.0134566 -0.00209919 0
0.0127443 -0.00338506 0
0.012738 -0.00195407 0
0.0131005 -0.00274212 0
0.0127411 -0.00266957 0
0.0130973 -0.00202663 0
0.0146511 -0.0004113 0
0.0141228 -0.0010185 0
0.014221 -6.01638e-05 0
0.014387 -0.000714899 0
0.0141719 -0.000539331 0
0.0144361 -0.000235732 0
0.0146524 -0.000412559 0
0.0149331 -0.000544273 0
0.0141592 -0.00105481 0
0.0147927 -0.000478416 0
0.0145461 -0.000799544 0
0.0144058 -0.000733687 0
0.0146525 -0.000409893 0
0.0142812 0 0
0.015101 0 0
0.0144668 -0.000204947 0
0.0146911 0 0
0.0148767 -0.000204947 0
0.0146538 -0.000411152 0
0.0150648 3.61569e-05 0
0.0148781 -0.000599264 0
0.0148593 -0.000187498 0
0.0149715 -0.000281553 0
0.0147659 -0.000505208 0
0.0143528 -0.0011455 0
0.0137999 -0.00190564 0
0.0141291 -0.00112915 0
0.0140763 -0.00152557 0
0.0139645 -0.0015174 0
0.0142409 -0.00113732 0
0.0143542 -0.00114403 0
0.0142035 -0.00105481 0
0.0148924 -0.000544273 0
0.0142788 -0.00109942 0
0.0145479 -0.000799544 0
0.0146233 -0.000844149 0
0.0143537 -0.00114647 0
0.0143608 -0.000944185 0
0.0138019 -0.00190765 0
0.0143573 -0.00104533 0
0.0140814 -0.00142592 0
0.0140778 -0.00152706 0
0.0143552 -0.001145 0
0.0148844 -0.00053625 0
0.0142974 -0.00100762 0
0.0146198 -0.000840624 0
0.0145909 -0.000771935 0
0.0143263 -0.00107631 0
0.0120187 -0.00540495 0
0.0109687 -0.00552603 0
0.0128159 -0.00343668 0
0.0114937 -0.00546549 0
0.0118923 -0.00448136 0
0.0124173 -0.00442081 0
0.0120215 -0.00540775 0
0.0127529 -0.00337366 0
0.012655 -0.00473861 0
0.0123872 -0.0043907 0
0.0127039 -0.00405613 0
0.0123382 -0.00507318 0
0.0120161 -0.00540751 0
0.0113073 -0.00769157 0
0.0107641 -0.0057307 0
0.0116617 -0.00654954 0
0.0110357 -0.00671114 0
0.0113901 -0.00556911 0
0.0120189 -0.00541031 0
0.0128583 -0.00453533 0
0.0113797 -0.00776393 0
0.0124386 -0.00497282 0
0.012119 -0.00614963 0
0.0116993 -0.00658712 0
0.0131932 -0.00312547 0
0.0128941 -0.00342812 0
0.0138149 -0.00190201 0
0.0130436 -0.00327679 0
0.0133545 -0.00266506 0
0.0135041 -0.00251374 0
0.0131909 -0.00312773 0
0.012655 -0.00454329 0
0.0127529 -0.00356937 0
0.012923 -0.00383551 0
0.0127039 -0.00405633 0
0.0129719 -0.00334855 0
0.0131946 -0.00312688 0
0.0138152 -0.00190221 0
0.0131426 -0.00247077 0
0.0135049 -0.00251455 0
0.0134789 -0.00218649 0
0.0131686 -0.00279883 0
0.0131923 -0.00312914 0
0.0132657 -0.00234764 0
0.012644 -0.00453231 0
0.013229 -0.00273839 0
0.0129549 -0.00343997 0
0.0129182 -0.00383072 0
0.013863 0.000758288 0
0.014471 0.000429172 0
0.0143383 0.000954707 0
0.014167 0.00059373 0
0.0144046 0.000691939 0
0.0141006 0.000856498 0
0.0138624 0.000758879 0
0.0143103 0.000982682 0
0.0132436 0.00115349 0
0.0140863 0.000870781 0
0.013777 0.00106809 0
0.013553 0.000956185 0
0.0138628 0.00075817 0
0.0132149 0.000467212 0
0.0145099 0.000468097 0
0.0135389 0.000612691 0
0.0138624 0.000467654 0
0.0141864 0.000613134 0
0.0138623 0.000758762 0
0.0131931 0.00110298 0
0.0132303 0.000451771 0
0.0135277 0.00093087 0
0.0132117 0.000777375 0
0.0135463 0.000605267 0
0.0147886 0.000567906 0
0.0142773 0.000954707 0
0.0145253 0.000429172 0
0.0145329 0.000761306 0
0.0144013 0.000691939 0
0.014657 0.000498539 0
0.0147881 0.000567414 0
0.0148844 0.000580347 0
0.0142974 0.000974837 0
0.0148363 0.000573881 0
0.0145909 0.000777592 0
0.0145428 0.000771125 0
0.0147896 0.00056698 0
0.0145024 0.000452081 0
0.015256 0.000272802 0
0.014646 0.000509531 0
0.0148792 0.000362442 0
0.0150228 0.000419891 0
0.0147891 0.000566489 0
0.0152418 0.000258634 0
0.0149161 0.000548643 0
0.0150154 0.000412562 0
0.015079 0.000403639 0
0.0148526 0.000557566 0
0.0138998 0.000340343 0
0.0145099 0.000438291 0
0.0132149 0.000513034 0
0.0142048 0.000389317 0
0.0138624 0.000475663 0
0.0135573 0.000426689 0
0.0138996 0.000340147 0
0.013169 0.000467142 0
0.0131597 0.000203877 0
0.0135343 0.000403644 0
0.0131643 0.000335509 0
0.0135296 0.000272012 0
0.0139 0.000340143 0
0.0145444 0.000205704 0
0.014509 0.0004392 0
0.0142222 0.000272924 0
0.0145267 0.000322452 0
0.0142045 0.000389672 0
0.0138998 0.000339947 0
0.0131674 0.000196224 0
0.0145835 0.00024486 0
0.0135336 0.000268085 0
0.0138755 0.000220542 0
0.0142417 0.000292403 0
0.0122588 0.000289163 0
0.013223 0.000456754 0
0.0113533 0.000398059 0
0.0127409 0.000372958 0
0.0122882 0.000427406 0
0.0118061 0.000343611 0
0.0122585 0.000289469 0
0.0131206 0.000203877 0
0.0132126 0.000467142 0
0.0126896 0.000246673 0
0.0131666 0.000335509 0
0.0127356 0.000378305 0
0.0122582 0.000288492 0
0.0112983 0.000343026 0
0.0111931 0.000128745 0
0.0117782 0.000315759 0
0.0112457 0.000235885 0
0.0117256 0.000208618 0
0.0122579 0.000288798 0
0.0112087 0.000113124 0
0.0131684 0.000251725 0
0.0117333 0.000200961 0
0.0121886 0.000182425 0
0.0127131 0.000270261 0
0.0152323 0.000208173 0
0.0155045 0 0
0.0150882 0 0
0.0153684 0.000104086 0
0.0152964 0 0
0.0151603 0.000104086 0
0.0152313 0.000209154 0
0.0150648 2.33994e-05 0
0.0148781 0.000543143 0
0.0151481 0.000116277 0
0.0149715 0.000283271 0
0.0150547 0.000376148 0
0.0152332 0.000209011 0
0.0152518 0.000277786 0
0.0154984 -6.10917e-06 0
0.0152425 0.000243398 0
0.0153751 0.000135838 0
0.0153658 0.000101451 0
0.0152322 0.000209992 0
0.0148836 0.000548643 0
0.0152709 0.000258634 0
0.0150579 0.000379318 0
0.0150773 0.000403639 0
0.0152516 0.000234313 0
0.0152323 -0.000208173 0
0.0150882 0 0
0.0155045 0 0
0.0151603 -0.000104086 0
0.0152964 0 0
0.0153684 -0.000104086 0
0.0152313 -0.000209154 0
0.0148781 -0.000543143 0
0.0150648 -2.33994e-05 0
0.0150547 -0.000376148 0
0.0149715 -0.000283271 0
0.0151481 -0.000116277 0
0.0152332 -0.000209011 0
0.0154984 6.10916e-06 0
0.0152518 -0.000277786 0
0.0153658 -0.000101451 0
0.0153751 -0.000135838 0
0.0152425 -0.000243398 0
0.0152322 -0.000209992 0
0.0152709 -0.000258634 0
0.0148836 -0.000548643 0
0.0152516 -0.000234313 0
0.0150773 -0.000403639 0
0.0150579 -0.000379318 0
0.0149812 0.000269735 0
0.015256 0.000265314 0
0.0145024 0.000469409 0
0.0151186 0.000267524 0
0.0148792 0.000367362 0
0.0147418 0.000369572 0
0.0149818 0.000269223 0
0.0154051 0.000127788 0
0.0152578 0.000263447 0
0.0151934 0.000198506 0
0.0153314 0.000195618 0
0.0151198 0.000266335 0
0.0149815 0.000269963 0
0.0144722 0.0004392 0
0.0145772 0.000205704 0
0.0147268 0.000354582 0
0.0145247 0.000322452 0
0.0147793 0.000237834 0
0.014982 0.000269452 0
0.0145809 0.000202012 0
0.0154312 0.000153918 0
0.0147814 0.000235732 0
0.015006 0.000177965 0
0.0152066 0.000211685 0
0.0155156 0.000102037 0
0.0154984 -3.04763e-06 0
0.0152518 0.000277989 0
0.015507 4.94948e-05 0
0.0153751 0.000137471 0
0.0153837 0.000190013 0
0.0155161 0.00010254 0
0.0152372 0.000263447 0
0.0154234 0.000127788 0
0.0153767 0.000182994 0
0.0153303 0.000195618 0
0.0154698 0.000115164 0
0.0155162 0.000101433 0
0.0156983 0 0
0.0154954 0 0
0.0156072 5.07166e-05 0
0.0155968 0 0
0.0155058 5.07166e-05 0
0.0155167 0.000101936 0
0.0154293 0.000121921 0
0.0157122 1.39359e-05 0
0.015473 0.000111929 0
0.0155707 6.79283e-05 0
0.0156145 5.79362e-05 0
0.0156597 5.73233e-05 0
0.0158074 0 0
0.0156927 0 0
0.0157335 2.86616e-05 0
0.0157501 0 0
0.0156762 2.86616e-05 0
0.0156594 5.7672e-05 0
0.0157122 -1.94563e-05 0
0.0154293 0.000157797 0
0.0156858 1.91078e-05 0
0.0155707 6.91703e-05 0
0.0155443 0.000107734 0
0.01566 5.76115e-05 0
0.0155292 6.74877e-05 0
0.0158328 2.54539e-05 0
0.0155946 6.25496e-05 0
0.015681 4.64708e-05 0
0.0157464 4.15327e-05 0
0.0156596 5.79601e-05 0
0.0154034 0.000131951 0
0.0155081 8.86091e-05 0
0.0155315 9.49557e-05 0
0.0154557 0.00011028 0
0.0155838 7.32846e-05 0
0.0156597 -5.73233e-05 0
0.0156927 0 0
0.0158074 0 0
0.0156762 -2.86617e-05 0
0.0157501 0 0
0.0157335 -2.86617e-05 0
0.0156594 -5.7672e-05 0
0.0154293 -0.000157797 0
0.0157122 1.94563e-05 0
0.0155443 -0.000107734 0
0.0155707 -6.91703e-05 0
0.0156858 -1.91078e-05 0
0.01566 -5.76115e-05 0
0.0158328 -2.54539e-05 0
0.0155292 -6.74877e-05 0
0.0157464 -4.15327e-05 0
0.015681 -4.64708e-05 0
0.0155946 -6.25496e-05 0
0.0156596 -5.79601e-05 0
0.0155081 -8.86091e-05 0
0.0154034 -0.000131951 0
0.0155838 -7.32846e-05 0
0.0154557 -0.00011028 0
0.0155315 -9.49558e-05 0
0.0155162 -0.000101433 0
0.0154954 0 0
0.0156983 0 0
0.0155058 -5.07166e-05 0
0.0155968 0 0
0.0156072 -5.07166e-05 0
0.0155167 -0.000101936 0
0.0157122 -1.39359e-05 0
0.0154293 -0.000121921 0
0.0156145 -5.79362e-05 0
0.0155707 -6.79283e-05 0
0.015473 -0.000111929 0
0.0155156 -0.000102037 0
0.0152518 -0.000277989 0
0.0154984 3.04763e-06 0
0.0153837 -0.000190013 0
0.0153751 -0.000137471 0
0.015507 -4.94948e-05 0
0.0155161 -0.00010254 0
0.0154234 -0.000127788 0
0.0152372 -0.000263447 0
0.0154698 -0.000115164 0
0.0153303 -0.000195618 0
0.0153767 -0.000182994 0
0.0150724 0.00015205 0
0.0146248 0.000129724 0
0.0155296 0.000120162 0
0.0148486 0.000140887 0
0.0150772 0.000124943 0
0.015301 0.000136106 0
0.0150723 0.000151929 0
0.015498 8.86091e-05 0
0.0154147 0.000131951 0
0.0152852 0.000120269 0
0.0154564 0.00011028 0
0.0152435 0.00014194 0
0.0150721 0.000152327 0
0.014547 0.000213651 0
0.0146053 0.000149254 0
0.0148096 0.000182989 0
0.0145762 0.000181453 0
0.0148387 0.00015079 0
0.015072 0.000152206 0
0.0154312 0.000115486 0
0.0145809 0.000247472 0
0.0152516 0.000133846 0
0.015006 0.000181479 0
0.0148264 0.000199839 0
0.0157562 4.71487e-05 0
0.0158328 -2.77439e-05 0
0.0155292 0.000122548 0
0.0157945 9.7024e-06 0
0.015681 4.74022e-05 0
0.0156427 8.48486e-05 0
0.0157563 4.73026e-05 0
0.0154988 9.21631e-05 0
0.0155854 8.90778e-05 0
0.0156275 6.97329e-05 0
0.0155421 9.06205e-05 0
0.0156709 6.81902e-05 0
0.0157563 4.69547e-05 0
0.015899 0 0
0.0158051 0 0
0.0158277 2.34773e-05 0
0.015852 0 0
0.0157807 2.34773e-05 0
0.0157565 4.71086e-05 0
0.0156142 6.0304e-05 0
0.0159291 3.00512e-05 0
0.0156854 5.37063e-05 0
0.0157716 4.51776e-05 0
0.0158428 3.85799e-05 0
0.015139 0.00013022 0
0.0155296 6.56558e-05 0
0.0146248 0.000189257 0
0.0153343 9.79379e-05 0
0.0150772 0.000127456 0
0.0148819 0.000159739 0
0.0151392 0.000130044 0
0.0155819 8.90778e-05 0
0.0155031 9.21631e-05 0
0.0153605 0.000109561 0
0.0155425 9.06205e-05 0
0.0153211 0.000111103 0
0.0151391 0.0001303 0
0.0145913 0.000155689 0
0.0146503 0.000163975 0
0.0148652 0.000142995 0
0.0146208 0.000159832 0
0.0148947 0.000147137 0
0.0151393 0.000130124 0
0.0146787 0.000135577 0
0.0156141 0.000121268 0
0.014909 0.00013285 0
0.0151464 0.000128422 0
0.0153767 0.000125696 0
0.0139044 0.000192 0
0.0145877 0.000149254 0
0.0145666 0.000213651 0
0.0142461 0.000170627 0
0.0145771 0.000181453 0
0.0142355 0.000202826 0
0.0139044 0.000192069 0
0.0145835 0.000196687 0
0.0131674 0.000254499 0
0.014244 0.000194378 0
0.0138755 0.000225593 0
0.0135359 0.000223284 0
0.0139043 0.000191888 0
0.0131423 0.000144278 0
0.0146245 0.000186121 0
0.0135233 0.000168083 0
0.0138834 0.000165199 0
0.0142644 0.000189005 0
0.0139043 0.000191958 0
0.0131274 0.00021452 0
0.0131223 0.000164271 0
0.0135158 0.000203239 0
0.0131248 0.000189395 0
0.0135133 0.000178114 0
0.0149812 -0.000269735 0
0.0145024 -0.000469409 0
0.015256 -0.000265314 0
0.0147418 -0.000369572 0
0.0148792 -0.000367362 0
0.0151186 -0.000267524 0
0.0149818 -0.000269223 0
0.0152578 -0.000263447 0
0.0154051 -0.000127788 0
0.0151198 -0.000266335 0
0.0153314 -0.000195618 0
0.0151934 -0.000198506 0
0.0149815 -0.000269963 0
0.0145772 -0.000205704 0
0.0144722 -0.0004392 0
0.0147793 -0.000237834 0
0.0145247 -0.000322452 0
0.0147268 -0.000354582 0
0.014982 -0.000269452 0
0.0154312 -0.000153918 0
0.0145809 -0.000202012 0
0.0152066 -0.000211685 0
0.015006 -0.000177965 0
0.0147814 -0.000235732 0
0.0147896 -0.00056698 0
0.015256 -0.000272802 0
0.0145024 -0.000452081 0
0.0150228 -0.000419891 0
0.0148792 -0.000362442 0
0.014646 -0.000509531 0
0.0147891 -0.000566489 0
0.0149161 -0.000548643 0
0.0152418 -0.000258634 0
0.0148526 -0.000557566 0
0.015079 -0.000403639 0
0.0150154 -0.000412562 0
0.0147886 -0.000567906 0
0.0145253 -0.000429172 0
0.0142773 -0.000954707 0
0.014657 -0.000498539 0
0.0144013 -0.000691939 0
0.0145329 -0.000761306 0
0.0147881 -0.000567414 0
0.0142974 -0.000974837 0
0.0148844 -0.000580347 0
0.0145428 -0.000771125 0
0.0145909 -0.000777592 0
0.0148363 -0.000573881 0
0.0150724 -0.00015205 0
0.0155296 -0.000120162 0
0.0146248 -0.000129724 0
0.015301 -0.000136106 0
0.0150772 -0.000124943 0
0.0148486 -0.000140887 0
0.0150723 -0.000151929 0
0.0154147 -0.000131951 0
0.015498 -8.86091e-05 0
0.0152435 -0.00014194 0
0.0154564 -0.00011028 0
0.0152852 -0.000120269 0
0.0150721 -0.000152327 0
0.0146053 -0.000149254 0
0.014547 -0.000213651 0
0.0148387 -0.00015079 0
0.0145762 -0.000181453 0
0.0148096 -0.000182989 0
0.015072 -0.000152206 0
0.0145809 -0.000247472 0
0.0154312 -0.000115486 0
0.0148264 -0.000199839 0
0.015006 -0.000181479 0
0.0152516 -0.000133846 0
0.0157562 -4.71487e-05 0
0.0155292 -0.000122548 0
0.0158328 2.77439e-05 0
0.0156427 -8.48486e-05 0
0.015681 -4.74023e-05 0
0.0157945 -9.7024e-06 0
0.0157563 -4.73026e-05 0
0.0155854 -8.90778e-05 0
0.0154988 -9.21631e-05 0
0.0156709 -6.81902e-05 0
0.0155421 -9.06205e-05 0
0.0156275 -6.97329e-05 0
0.0157563 -4.69547e-05 0
0.0158051 0 0
0.015899 0 0
0.0157807 -2.34773e-05 0
0.015852 0 0
0.0158277 -2.34773e-05 0
0.0157565 -4.71086e-05 0
0.0159291 -3.00512e-05 0
0.0156142 -6.0304e-05 0
0.0158428 -3.85799e-05 0
0.0157716 -4.51776e-05 0
0.0156854 -5.37063e-05 0
0.015139 -0.00013022 0
0.0146248 -0.000189257 0
0.0155296 -6.56558e-05 0
0.0148819 -0.000159739 0
0.0150772 -0.000127456 0
0.0153343 -9.79379e-05 0
0.0151392 -0.000130044 0
0.0155031 -9.21631e-05 0
0.0155819 -8.90778e-05 0
0.0153211 -0.000111103 0
0.0155425 -9.06205e-05 0
0.0153605 -0.000109561 0
0.0151391 -0.0001303 0
0.0146503 -0.000163975 0
0.0145913 -0.000155689 0
0.0148947 -0.000147137 0
0.0146208 -0.000159832 0
0.0148652 -0.000142995 0
0.0151393 -0.000130124 0
0.0156141 -0.000121268 0
0.0146787 -0.000135577 0
0.0153767 -0.000125696 0
0.0151464 -0.000128422 0
0.014909 -0.00013285 0
0.0139 -0.000340143 0
0.014509 -0.0004392 0
0.0145444 -0.000205704 0
0.0142045 -0.000389672 0
0.0145267 -0.000322452 0
0.0142222 -0.000272924 0
0.0138998 -0.000339947 0
0.0145835 -0.00024486 0
0.0131674 -0.000196224 0
0.0142417 -0.000292403 0
0.0138755 -0.000220542 0
0.0135336 -0.000268085 0
0.0138998 -0.000340343 0
0.0132149 -0.000513034 0
0.0145099 -0.000438291 0
0.0135573 -0.000426689 0
0.0138624 -0.000475663 0
0.0142048 -0.000389317 0
0.0138996 -0.000340147 0
0.0131597 -0.000203877 0
0.013169 -0.000467142 0
0.0135296 -0.000272012 0
0.0131643 -0.000335509 0
0.0135343 -0.000403644 0
0.0139044 -0.000192 0
0.0145666 -0.000213651 0
0.0145877 -0.000149254 0
0.0142355 -0.000202826 0
0.0145771 -0.000181453 0
0.0142461 -0.000170627 0
0.0139044 -0.000192069 0
0.0131674 -0.000254499 0
0.0145835 -0.000196687 0
0.0135359 -0.000223284 0
0.0138755 -0.000225593 0
0.014244 -0.000194378 0
0.0139043 -0.000191888 0
0.0146245 -0.000186121 0
0.0131423 -0.000144278 0
0.0142644 -0.000189005 0
0.0138834 -0.000165199 0
0.0135233 -0.000168083 0
0.0139043 -0.000191958 0
0.0131223 -0.000164271 0
0.0131274 -0.00021452 0
0.0135133 -0.000178114 0
0.0131248 -0.000189395 0
0.0135158 -0.000203239 0
0.013863 -0.000758288 0
0.0143383 -0.000954707 0
0.014471 -0.000429172 0
0.0141006 -0.000856498 0
0.0144046 -0.000691939 0
0.014167 -0.00059373 0
0.0138624 -0.000758879 0
0.0132436 -0.00115349 0
0.0143103 -0.000982682 0
0.013553 -0.000956185 0
0.013777 -0.00106809 0
0.0140863 -0.000870781 0
0.0138628 -0.00075817 0
0.0145099 -0.000468097 0
0.0132149 -0.000467212 0
0.0141864 -0.000613134 0
0.0138624 -0.000467654 0
0.0135389 -0.000612691 0
0.0138623 -0.000758762 0
0.0132303 -0.000451771 0
0.0131931 -0.00110298 0
0.0135463 -0.000605267 0
0.0132117 -0.000777375 0
0.0135277 -0.00093087 0
0.0136935 -0.00162073 0
0.0138907 -0.00190765 0
0.0142804 -0.000944185 0
0.0137921 -0.00176419 0
0.0140856 -0.00142592 0
0.0139869 -0.00128246 0
0.0136938 -0.00162109 0
0.0143103 -0.000974141 0
0.0132436 -0.00114037 0
0.0140021 -0.00129761 0
0.013777 -0.00105726 0
0.0134687 -0.00138073 0
0.0136922 -0.00162207 0
0.0131426 -0.00240983 0
0.0138152 -0.00198324 0
0.0134174 -0.00201595 0
0.0134789 -0.00219653 0
0.0137537 -0.00180265 0
0.0136925 -0.00162243 0
0.0133008 -0.00108323 0
0.0130976 -0.00236482 0
0.0134966 -0.00135283 0
0.0131992 -0.00172402 0
0.013395 -0.00199362 0
0.0121802 0.00016533 0
0.0111327 0.000113728 0
0.0131395 0.000201987 0
0.0116565 0.000139529 0
0.0121361 0.000157858 0
0.0126599 0.000183659 0
0.0121806 0.000165657 0
0.0131018 0.000164271 0
0.0131493 0.00021452 0
0.0126412 0.000164964 0
0.0131255 0.000189395 0
0.0126649 0.000190088 0
0.0121805 0.000165101 0
0.0111688 0.000139872 0
0.0111124 0.000133984 0
0.0116746 0.000152487 0
0.0111406 0.000136928 0
0.0116464 0.000149543 0
0.0121808 0.000165428 0
0.0131684 0.000195374 0
0.0112087 0.000179811 0
0.0126746 0.000180401 0
0.0121886 0.000187592 0
0.0116947 0.00017262 0
0.0121485 0.000192981 0
0.0131395 0.000148193 0
0.0111327 0.000173086 0
0.012644 0.000170587 0
0.0121361 0.000160639 0
0.0116406 0.000183034 0
0.0121485 0.000193044 0
0.0131178 0.000211666 0
0.0131155 0.000172177 0
0.0126331 0.000202355 0
0.0131166 0.000191921 0
0.012632 0.000182611 0
0.0121485 0.000192928 0
0.0111009 0.00014133 0
0.011078 0.000221628 0
0.0116247 0.000167129 0
0.0110895 0.000181479 0
0.0116133 0.000207278 0
0.0121484 0.00019299 0
0.0111018 0.000197908 0
0.0131496 0.000243453 0
0.0116251 0.000195449 0
0.0121257 0.000220681 0
0.012649 0.000218222 0
0.0139221 0.000182562 0
0.0146245 0.000129751 0
0.0131423 0.00020718 0
0.0142733 0.000156156 0
0.0138834 0.000168466 0
0.0135322 0.000194871 0
0.0139221 0.000182564 0
0.0131073 0.000172177 0
0.013126 0.000211666 0
0.0135147 0.00017737 0
0.0131166 0.000191921 0
0.013524 0.000197115 0
0.0139222 0.000182474 0
0.0146439 0.000163975 0
0.0145986 0.000155689 0
0.014283 0.000173224 0
0.0146212 0.000159832 0
0.0142604 0.000169082 0
0.0139222 0.000182476 0
0.0131534 0.000184182 0
0.0146775 0.000197613 0
0.0135378 0.000183329 0
0.0139155 0.000190897 0
0.0142999 0.000190044 0
0.0099599 9.16959e-05 0
0.0110951 0.000133984 0
0.0111856 0.000139872 0
0.0105275 0.00011284 0
0.0111404 0.000136928 0
0.0105728 0.000115784 0
0.00996037 9.12311e-05 0
0.011205 0.000120463 0
0.00877029 6.58782e-05 0
0.0105827 0.000105847 0
0.00998766 9.31705e-05 0
0.00936533 7.85546e-05 0
0.00995951 9.13039e-05 0
0.00868894 6.0718e-05 0
0.011126 0.000164814 0
0.00932423 7.60109e-05 0
0.00990746 0.000112766 0
0.0105427 0.000128059 0
0.00995997 9.08391e-05 0
0.00873985 3.54301e-05 0
0.00867163 7.8032e-05 0
0.00934991 6.31346e-05 0
0.00870574 5.6731e-05 0
0.0093158 8.44355e-05 0
0.0152154 0.000132494 0
0.0146493 0.000170327 0
0.0147209 0.000166204 0
0.0149324 0.00015141 0
0.0146851 0.000168265 0
0.0149681 0.000149349 0
0.0152154 0.00013247 0
0.0156141 6.1797e-05 0
0.0146787 0.000199715 0
0.0154147 9.71335e-05 0
0.0151464 0.000130756 0
0.014947 0.000166092 0
0.0152155 0.000132359 0
0.0147537 0.000133348 0
0.0157005 0.000110118 0
0.0149846 0.000132853 0
0.0152271 0.000121733 0
0.015458 0.000121238 0
0.0152155 0.000132335 0
0.0156729 8.24623e-05 0
0.0155833 9.26028e-05 0
0.0154442 0.000107399 0
0.0156281 8.75325e-05 0
0.0153994 0.000112469 0
0.013971 0.000208139 0
0.0147255 0.000166204 0
0.0146458 0.000170327 0
0.0143483 0.000187172 0
0.0146857 0.000168265 0
0.0143084 0.000189233 0
0.0139708 0.00020832 0
0.0146775 0.000138589 0
0.0131534 0.000249172 0
0.0143242 0.000173455 0
0.0139155 0.00019388 0
0.0135621 0.000228746 0
0.013971 0.000208209 0
0.0132052 0.000211064 0
0.0147536 0.000194313 0
0.0135881 0.000209637 0
0.0139794 0.000202688 0
0.0143623 0.000201261 0
0.0139709 0.00020839 0
0.0131237 0.000219414 0
0.0131713 0.000244953 0
0.0135473 0.000213902 0
0.0131475 0.000232184 0
0.0135711 0.000226672 0
0.0158471 4.51566e-05 0
0.0159901 0 0
0.0158998 0 0
0.0159186 2.25783e-05 0
0.0159449 0 0
0.0158734 2.25783e-05 0
0.015847 4.52331e-05 0
0.0159291 -2.92989e-05 0
0.0156142 0.000121396 0
0.015888 7.96711e-06 0
0.0157716 4.60486e-05 0
0.0157306 8.33146e-05 0
0.0158471 4.51884e-05 0
0.0157001 5.22944e-05 0
0.0160182 2.81413e-05 0
0.0157736 4.87414e-05 0
0.0158592 4.02178e-05 0
0.0159326 3.66648e-05 0
0.015847 4.5265e-05 0
0.0155854 9.26028e-05 0
0.0156699 8.24623e-05 0
0.0157162 6.89339e-05 0
0.0156277 8.75325e-05 0
0.0157585 6.38636e-05 0
0.0158471 -4.51566e-05 0
0.0158998 0 0
0.0159901 0 0
0.0158734 -2.25783e-05 0
0.0159449 0 0
0.0159186 -2.25783e-05 0
0.015847 -4.52332e-05 0
0.0156142 -0.000121396 0
0.0159291 2.92989e-05 0
0.0157306 -8.33146e-05 0
0.0157716 -4.60486e-05 0
0.015888 -7.96712e-06 0
0.0158471 -4.51884e-05 0
0.0160182 -2.81413e-05 0
0.0157001 -5.22944e-05 0
0.0159326 -3.66648e-05 0
0.0158592 -4.02179e-05 0
0.0157736 -4.87414e-05 0
0.015847 -4.5265e-05 0
0.0156699 -8.24623e-05 0
0.0155854 -9.26028e-05 0
0.0157585 -6.38636e-05 0
0.0156277 -8.75325e-05 0
0.0157162 -6.89339e-05 0
0.0152955 8.81849e-05 0
0.0157005 5.64121e-05 0
0.0147537 0.000193101 0
0.015498 7.22985e-05 0
0.0152271 0.000124757 0
0.0150246 0.000140643 0
0.0152956 8.81111e-05 0
0.0157422 1.76896e-05 0
0.0156703 8.66221e-05 0
0.0155189 5.29003e-05 0
0.0157063 5.21559e-05 0
0.015483 8.73666e-05 0
0.0152954 8.80622e-05 0
0.0147347 0.000174024 0
0.0147951 6.25599e-05 0
0.015015 0.000131043 0
0.0147649 0.000118292 0
0.0150452 7.5311e-05 0
0.0152954 8.79883e-05 0
0.0148286 2.90562e-05 0
0.0157579 3.33757e-05 0
0.015062 5.85223e-05 0
0.0152933 3.12159e-05 0
0.0155267 6.0682e-05 0
0.0159245 2.67957e-05 0
0.0160182 -2.40712e-05 0
0.0157001 0.000106672 0
0.0159714 1.36225e-06 0
0.0158592 4.13003e-05 0
0.0158123 6.67338e-05 0
0.0159244 2.66498e-05 0
0.0156801 8.66221e-05 0
0.0157311 1.76896e-05 0
0.0158022 5.6636e-05 0
0.0157056 5.21559e-05 0
0.0158277 2.21697e-05 0
0.0159245 2.68702e-05 0
0.0160479 0 0
0.0159941 0 0
0.0159862 1.34351e-05 0
0.016021 0 0
0.0159593 1.34351e-05 0
0.0159243 2.67242e-05 0
0.0157561 -7.37707e-06 0
0.0160665 1.86137e-05 0
0.0158402 9.67358e-06 0
0.0159113 5.61832e-06 0
0.0159954 2.2669e-05 0
0.0121589 0.000260032 0
0.0110743 0.000228755 0
0.0110821 0.000299131 0
0.0116166 0.000244394 0
0.0110782 0.000263943 0
0.0116205 0.000279581 0
0.0121588 0.000259881 0
0.0131496 0.000190003 0
0.0111018 0.000256245 0
0.0126542 0.000224942 0
0.0121257 0.000223124 0
0.0116303 0.000258063 0
0.0121591 0.000259861 0
0.0111122 0.000269057 0
0.0132027 0.000272427 0
0.0116356 0.000264459 0
0.0121574 0.000270742 0
0.0126809 0.000266144 0
0.0121589 0.000259709 0
0.0131752 0.000244953 0
0.0131201 0.000219414 0
0.0126671 0.000252331 0
0.0131477 0.000232184 0
0.0126395 0.000239561 0
0.00989821 0.000162523 0
0.0110697 0.000221628 0
0.0111076 0.00014133 0
0.0104839 0.000192075 0
0.0110886 0.000181479 0
0.0105029 0.000151926 0
0.00989812 0.000162442 0
0.00862952 0.000173101 0
0.0110939 0.000245886 0
0.00926382 0.000167772 0
0.00986173 0.000209493 0
0.010496 0.000204164 0
0.00989843 0.000162294 0
0.011126 0.000122953 0
0.00868894 0.000104899 0
0.0105122 0.000142623 0
0.00990746 0.000113926 0
0.00929369 0.000133596 0
0.00989835 0.000162213 0
0.0086669 8.28547e-05 0
0.00861397 0.000188645 0
0.00928263 0.000122534 0
0.00864044 0.00013575 0
0.00925616 0.000175429 0
0.00986476 0.000268841 0
0.0110823 0.000299131 0
0.0110725 0.000228755 0
0.0104735 0.000283986 0
0.0110774 0.000263943 0
0.0104686 0.000248798 0
0.00986472 0.000268872 0
0.0110939 0.000207348 0
0.00862952 0.000213333 0
0.0104793 0.00023811 0
0.00986173 0.00021034 0
0.00924712 0.000241103 0
0.00986493 0.000269012 0
0.00858139 0.000278367 0
0.011105 0.000321813 0
0.00922316 0.000273689 0
0.0098432 0.00030009 0
0.010485 0.000295413 0
0.0098649 0.000269043 0
0.00860941 0.000193229 0
0.00856216 0.000297599 0
0.00923715 0.000231136 0
0.00858578 0.000245414 0
0.00921353 0.000283321 0
0.0140485 0.000167245 0
0.0147536 0.000137822 0
0.0132052 0.000276043 0
0.0144011 0.000152533 0
0.0139794 0.000206932 0
0.0136268 0.000221644 0
0.0140485 0.000167265 0
0.0131844 0.000255231 0
0.013252 0.000146936 0
0.0136164 0.000211248 0
0.0132182 0.000201083 0
0.0136503 0.0001571 0
0.0140488 0.000166964 0
0.0148148 6.25599e-05 0
0.0147174 0.000174024 0
0.0144318 0.000114762 0
0.0147661 0.000118292 0
0.0143831 0.000170494 0
0.0140488 0.000166984 0
0.0132929 0.000106005 0
0.0148315 7.92438e-05 0
0.0136709 0.000136494 0
0.0140622 9.26243e-05 0
0.0144401 0.000123114 0
0.0122154 0.000256559 0
0.0132027 0.000216937 0
0.0111122 0.000332887 0
0.012709 0.000236748 0
0.0121574 0.000274912 0
0.0116638 0.000294723 0
0.0122159 0.00025608 0
0.0132744 0.000146936 0
0.0131644 0.000255231 0
0.0127451 0.000201508 0
0.0132194 0.000201083 0
0.0126901 0.000255656 0
0.0122157 0.000256832 0
0.011089 0.00030969 0
0.011138 0.000253011 0
0.0116523 0.000283261 0
0.0111135 0.000281351 0
0.0116768 0.000254922 0
0.0122161 0.000256354 0
0.0111805 0.000210473 0
0.0132948 0.000167393 0
0.0116983 0.000233414 0
0.0122377 0.000188933 0
0.0127555 0.000211874 0
0.00734993 1.47177e-05 0
0.00594319 1.67917e-05 0
0.00867894 9.45109e-05 0
0.00664656 1.57547e-05 0
0.00731107 5.56513e-05 0
0.00801443 5.46143e-05 0
0.0073501 1.48947e-05 0
0.00866247 7.8032e-05 0
0.00874614 3.54301e-05 0
0.00800628 4.64634e-05 0
0.0087043 5.6731e-05 0
0.00804812 2.51624e-05 0
0.00735032 1.43216e-05 0
0.00596835 -3.28551e-05 0
0.00593342 2.65646e-05 0
0.00665934 -9.26674e-06 0
0.00595088 -3.14525e-06 0
0.00664187 2.04431e-05 0
0.0073505 1.44986e-05 0
0.00876021 2.13598e-05 0
0.00598168 -1.95275e-05 0
0.00805535 1.79292e-05 0
0.00737094 9.16163e-07 0
0.00666609 -2.51442e-06 0
0.0072922 0.000104159 0
0.00867894 7.39406e-05 0
0.00594319 3.62137e-05 0
0.00798557 8.90499e-05 0
0.00731107 5.50772e-05 0
0.0066177 7.01865e-05 0
0.00729188 0.000104483 0
0.0086075 0.000188645 0
0.00867003 8.28547e-05 0
0.00794969 0.000146564 0
0.00863876 0.00013575 0
0.00798095 9.36687e-05 0
0.0072921 0.000104057 0
0.0059352 2.8224e-05 0
0.00587438 0.000119068 0
0.00661365 6.61404e-05 0
0.00590479 7.36461e-05 0
0.00658324 0.000111563 0
0.00729178 0.00010438 0
0.0058791 0.000114341 0
0.00861882 0.000199969 0
0.00658544 0.000109361 0
0.00724896 0.000157155 0
0.0079553 0.000152175 0
0.00449615 -1.93903e-05 0
0.00593279 2.65646e-05 0
0.00596528 -3.28551e-05 0
0.00521447 3.58717e-06 0
0.00594904 -3.14525e-06 0
0.00523072 -2.61227e-05 0
0.00449602 -1.92637e-05 0
0.00596894 -3.65105e-05 0
0.00301654 -2.99434e-05 0
0.00523248 -2.78871e-05 0
0.00449274 -3.3227e-05 0
0.00375628 -2.46035e-05 0
0.00449643 -1.91097e-05 0
0.00303034 4.91381e-07 0
0.00593462 2.83887e-05 0
0.00376339 -9.30915e-06 0
0.00448248 1.44401e-05 0
0.00521552 4.63952e-06 0
0.0044963 -1.89831e-05 0
0.00301774 -2.87419e-05 0
0.0030289 1.93566e-06 0
0.00375702 -2.38625e-05 0
0.00302332 -1.34031e-05 0
0.0037626 -8.52371e-06 0
0.0125385 -0.00170439 0
0.0119468 -0.00237932 0
0.0131713 -0.00242034 0
0.0122427 -0.00204185 0
0.012559 -0.00239983 0
0.0128549 -0.00206236 0
0.0125392 -0.00170374 0
0.0132268 -0.00236482 0
0.0131863 -0.00108323 0
0.012883 -0.00203428 0
0.0132065 -0.00172402 0
0.0128627 -0.00139348 0
0.0125376 -0.00170349 0
0.0116287 -0.000914633 0
0.0118443 -0.00227681 0
0.0120832 -0.00130906 0
0.0117365 -0.00159572 0
0.012191 -0.00199015 0
0.0125383 -0.00170285 0
0.0132623 -0.00115926 0
0.0115992 -0.000944168 0
0.0129003 -0.00143105 0
0.0124307 -0.00105171 0
0.0120687 -0.00132351 0
0.0125969 -0.00358101 0
0.0131713 -0.00241585 0
0.0119468 -0.00234012 0
0.0128841 -0.00299843 0
0.012559 -0.00237798 0
0.0122719 -0.00296056 0
0.0125965 -0.00358059 0
0.0128219 -0.00453231 0
0.0131031 -0.00234764 0
0.0127092 -0.00405645 0
0.0129625 -0.00343997 0
0.0128498 -0.00296412 0
0.0125945 -0.00358348 0
0.0120508 -0.00223614 0
0.0121477 -0.00483392 0
0.0123226 -0.00290981 0
0.0120992 -0.00353503 0
0.0123711 -0.0042087 0
0.012594 -0.00358305 0
0.0122477 -0.00493394 0
0.0126803 -0.00467388 0
0.0124209 -0.0042585 0
0.012464 -0.00480391 0
0.0126372 -0.00412847 0
0.0123851 -0.000720323 0
0.0113501 -0.000323969 0
0.0115211 -0.000945667 0
0.0118676 -0.000522146 0
0.0114356 -0.000634818 0
0.0119531 -0.000832995 0
0.0123861 -0.000721313 0
0.0115992 -0.00102372 0
0.0132623 -0.00111301 0
0.0119926 -0.000872516 0
0.0124307 -0.00106837 0
0.0128242 -0.000917164 0
0.012385 -0.000720467 0
0.013223 -0.000514309 0
0.0113533 -0.000320758 0
0.012804 -0.000617388 0
0.0122882 -0.000417534 0
0.0118692 -0.000520613 0
0.012386 -0.000721457 0
0.0132723 -0.00110298 0
0.0131605 -0.000451771 0
0.0128291 -0.000912218 0
0.0132164 -0.000777375 0
0.0127732 -0.000586614 0
0.0107084 -0.00134789 0
0.0119945 -0.00227681 0
0.0114988 -0.000914633 0
0.0113514 -0.00181235 0
0.0117466 -0.00159572 0
0.0111036 -0.00113126 0
0.0107055 -0.00134502 0
0.0116169 -0.0010327 0
0.00926031 -0.000498908 0
0.0111612 -0.00118886 0
0.0104386 -0.000765803 0
0.0099829 -0.000921964 0
0.0107096 -0.00134669 0
0.00992815 -0.00178332 0
0.0119895 -0.0022818 0
0.0103189 -0.001565 0
0.0109588 -0.00203256 0
0.0113495 -0.00181424 0
0.0107067 -0.00134381 0
0.00924108 -0.000518138 0
0.0097777 -0.00163287 0
0.00997389 -0.000930975 0
0.00950939 -0.0010755 0
0.0102422 -0.00148834 0
0.0102956 -0.000476907 0
0.0115981 -0.000945667 0
0.0112823 -0.000323969 0
0.0109469 -0.000711287 0
0.0114402 -0.000634818 0
0.0107889 -0.000400438 0
0.0102968 -0.000475719 0
0.00926031 -0.000643282 0
0.0116169 -0.000926921 0
0.00977854 -0.0005595 0
0.0104386 -0.000785101 0
0.0109568 -0.00070132 0
0.0102938 -0.000475097 0
0.0113565 -0.000398197 0
0.00892621 -9.33856e-05 0
0.0108252 -0.000436647 0
0.0101414 -0.000245791 0
0.00960999 -0.000284242 0
0.010295 -0.00047391 0
0.0088999 -0.000119695 0
0.00917252 -0.000555497 0
0.00959743 -0.000296802 0
0.00903621 -0.000337596 0
0.00973374 -0.000514703 0
0.0122588 -0.000289163 0
0.0113533 -0.000398059 0
0.013223 -0.000456754 0
0.0118061 -0.000343611 0
0.0122882 -0.000427406 0
0.0127409 -0.000372958 0
0.0122585 -0.000289469 0
0.0132126 -0.000467142 0
0.0131206 -0.000203877 0
0.0127356 -0.000378305 0
0.0131666 -0.000335509 0
0.0126896 -0.000246673 0
0.0122582 -0.000288492 0
0.0111931 -0.000128745 0
0.0112983 -0.000343026 0
0.0117256 -0.000208618 0
0.0112457 -0.000235885 0
0.0117782 -0.000315759 0
0.0122579 -0.000288798 0
0.0131684 -0.000251725 0
0.0112087 -0.000113124 0
0.0127131 -0.000270261 0
0.0121886 -0.000182425 0
0.0117333 -0.000200961 0
0.0122048 -0.00671734 0
0.0124824 -0.00481098 0
0.0119412 -0.00916491 0
0.0123436 -0.00576416 0
0.0122118 -0.00698795 0
0.012073 -0.00794113 0
0.012209 -0.00671314 0
0.0126803 -0.00453573 0
0.0122477 -0.00504571 0
0.0124447 -0.00562443 0
0.012464 -0.00479072 0
0.0122284 -0.00587942 0
0.0122015 -0.00671403 0
0.0119494 -0.00917308 0
0.011302 -0.00802147 0
0.0120754 -0.00794356 0
0.0116257 -0.00859727 0
0.0117517 -0.00736775 0
0.0122057 -0.00670983 0
0.0115595 -0.00776393 0
0.0126799 -0.00453533 0
0.0118826 -0.00723688 0
0.0121197 -0.00614963 0
0.0124428 -0.00562258 0
0.0113647 -0.00324666 0
0.0124039 -0.00483392 0
0.0118271 -0.00223614 0
0.0118843 -0.00404029 0
0.0121155 -0.00353503 0
0.0115959 -0.0027414 0
0.0113637 -0.00324764 0
0.0110566 -0.0042863 0
0.0123112 -0.0049266 0
0.0112101 -0.00376697 0
0.0116839 -0.00460645 0
0.0118374 -0.00408712 0
0.011362 -0.00324398 0
0.0119895 -0.00239848 0
0.00992815 -0.00159209 0
0.0116757 -0.00282123 0
0.0109588 -0.00199528 0
0.0106451 -0.00241803 0
0.011361 -0.00324495 0
0.0099603 -0.00155995 0
0.0108303 -0.00405999 0
0.0106607 -0.00240245 0
0.0103953 -0.00280997 0
0.0110956 -0.00365247 0
0.0120708 -0.00694012 0
0.0122714 -0.00916491 0
0.0121758 -0.00481098 0
0.0121711 -0.00805252 0
0.0122236 -0.00698795 0
0.0121233 -0.00587555 0
0.0120731 -0.0069424 0
0.0123112 -0.00494639 0
0.0110566 -0.00416803 0
0.0121921 -0.0059444 0
0.0116839 -0.00455721 0
0.0115648 -0.00555521 0
0.0120636 -0.00694726 0
0.0123861 -0.00923643 0
0.0119705 -0.00946581 0
0.0122249 -0.00809185 0
0.0121783 -0.00935112 0
0.0120171 -0.00820653 0
0.0120659 -0.00694954 0
0.0112654 -0.00395922 0
0.0121775 -0.00902775 0
0.0116656 -0.00545438 0
0.0117214 -0.00649349 0
0.0121217 -0.00798865 0
0.0106619 -0.0111609 0
0.011302 -0.00765746 0
0.0119494 -0.00958498 0
0.0109819 -0.0094092 0
0.0116257 -0.00862122 0
0.0113057 -0.010373 0
0.0106557 -0.0111547 0
0.00873954 -0.0117821 0
0.0114557 -0.00781116 0
0.00969759 -0.0114684 0
0.0100976 -0.00979661 0
0.0110557 -0.00948292 0
0.0106589 -0.011164 0
0.0123177 -0.00921667 0
0.0101673 -0.0152617 0
0.0114883 -0.0101903 0
0.0112425 -0.0122392 0
0.0104131 -0.0132128 0
0.0106526 -0.0111577 0
0.00994935 -0.0150438 0
0.00841687 -0.0121047 0
0.010301 -0.0131007 0
0.00918311 -0.0135742 0
0.00953474 -0.0116312 0
0.0121802 -0.00016533 0
0.0131395 -0.000201987 0
0.0111327 -0.000113728 0
0.0126599 -0.000183659 0
0.0121361 -0.000157858 0
0.0116565 -0.000139529 0
0.0121806 -0.000165657 0
0.0131493 -0.00021452 0
0.0131018 -0.000164271 0
0.0126649 -0.000190088 0
0.0131255 -0.000189395 0
0.0126412 -0.000164964 0
0.0121805 -0.000165101 0
0.0111124 -0.000133984 0
0.0111688 -0.000139872 0
0.0116464 -0.000149543 0
0.0111406 -0.000136928 0
0.0116746 -0.000152487 0
0.0121808 -0.000165428 0
0.0112087 -0.000179811 0
0.0131684 -0.000195374 0
0.0116947 -0.00017262 0
0.0121886 -0.000187592 0
0.0126746 -0.000180401 0
0.0121485 -0.000192981 0
0.0111327 -0.000173086 0
0.0131395 -0.000148193 0
0.0116406 -0.000183034 0
0.0121361 -0.000160639 0
0.012644 -0.000170587 0
0.0121485 -0.000193044 0
0.0131155 -0.000172177 0
0.0131178 -0.000211666 0
0.012632 -0.000182611 0
0.0131166 -0.000191921 0
0.0126331 -0.000202355 0
0.0121485 -0.000192928 0
0.011078 -0.000221628 0
0.0111009 -0.00014133 0
0.0116133 -0.000207278 0
0.0110895 -0.000181479 0
0.0116247 -0.000167129 0
0.0121484 -0.00019299 0
0.0131496 -0.000243453 0
0.0111018 -0.000197908 0
0.012649 -0.000218222 0
0.0121257 -0.000220681 0
0.0116251 -0.000195449 0
0.0139221 -0.000182562 0
0.0131423 -0.00020718 0
0.0146245 -0.000129751 0
0.0135322 -0.000194871 0
0.0138834 -0.000168466 0
0.0142733 -0.000156156 0
0.0139221 -0.000182564 0
0.013126 -0.000211666 0
0.0131073 -0.000172177 0
0.013524 -0.000197115 0
0.0131166 -0.000191921 0
0.0135147 -0.00017737 0
0.0139222 -0.000182474 0
0.0145986 -0.000155689 0
0.0146439 -0.000163975 0
0.0142604 -0.000169082 0
0.0146212 -0.000159832 0
0.014283 -0.000173224 0
0.0139222 -0.000182476 0
0.0146775 -0.000197613 0
0.0131534 -0.000184182 0
0.0142999 -0.000190044 0
0.0139155 -0.000190897 0
0.0135378 -0.000183329 0
0.0099599 -9.16959e-05 0
0.0111856 -0.000139872 0
0.0110951 -0.000133984 0
0.0105728 -0.000115784 0
0.0111404 -0.000136928 0
0.0105275 -0.00011284 0
0.00996037 -9.12311e-05 0
0.00877029 -6.58782e-05 0
0.011205 -0.000120463 0
0.00936533 -7.85546e-05 0
0.00998766 -9.31705e-05 0
0.0105827 -0.000105847 0
0.00995951 -9.13039e-05 0
0.011126 -0.000164814 0
0.00868894 -6.0718e-05 0
0.0105427 -0.000128059 0
0.00990746 -0.000112766 0
0.00932423 -7.60109e-05 0
0.00995997 -9.08391e-05 0
0.00867163 -7.8032e-05 0
0.00873985 -3.54301e-05 0
0.0093158 -8.44355e-05 0
0.00870574 -5.6731e-05 0
0.00934991 -6.31346e-05 0
0.0100735 -0.000147899 0
0.011335 -0.000343026 0
0.0111591 -0.000128745 0
0.0107043 -0.000245463 0
0.0112471 -0.000235885 0
0.0106163 -0.000138322 0
0.0100726 -0.000146977 0
0.011205 -0.000174694 0
0.00877029 -4.89423e-06 0
0.0106388 -0.000160835 0
0.00998766 -8.97941e-05 0
0.00942143 -7.59355e-05 0
0.0100743 -0.000147109 0
0.00892621 -0.000187339 0
0.0113565 -0.000321536 0
0.00950024 -0.000167224 0
0.0101414 -0.000254437 0
0.0107154 -0.000234322 0
0.0100733 -0.000146186 0
0.00874828 -2.69134e-05 0
0.0088763 -0.000137433 0
0.00941081 -8.65497e-05 0
0.00881229 -8.21733e-05 0
0.00947483 -0.00014181 0
0.0152154 -0.000132494 0
0.0147209 -0.000166204 0
0.0146493 -0.000170327 0
0.0149681 -0.000149349 0
0.0146851 -0.000168265 0
0.0149324 -0.00015141 0
0.0152154 -0.00013247 0
0.0146787 -0.000199715 0
0.0156141 -6.1797e-05 0
0.014947 -0.000166092 0
0.0151464 -0.000130756 0
0.0154147 -9.71335e-05 0
0.0152155 -0.000132359 0
0.0157005 -0.000110118 0
0.0147537 -0.000133348 0
0.015458 -0.000121238 0
0.0152271 -0.000121733 0
0.0149846 -0.000132853 0
0.0152155 -0.000132335 0
0.0155833 -9.26028e-05 0
0.0156729 -8.24623e-05 0
0.0153994 -0.000112469 0
0.0156281 -8.75325e-05 0
0.0154442 -0.000107399 0
0.013971 -0.000208139 0
0.0146458 -0.000170327 0
0.0147255 -0.000166204 0
0.0143084 -0.000189233 0
0.0146857 -0.000168265 0
0.0143483 -0.000187172 0
0.0139708 -0.00020832 0
0.0131534 -0.000249172 0
0.0146775 -0.000138589 0
0.0135621 -0.000228746 0
0.0139155 -0.00019388 0
0.0143242 -0.000173455 0
0.013971 -0.000208209 0
0.0147536 -0.000194313 0
0.0132052 -0.000211064 0
0.0143623 -0.000201261 0
0.0139794 -0.000202688 0
0.0135881 -0.000209637 0
0.0139709 -0.00020839 0
0.0131713 -0.000244953 0
0.0131237 -0.000219414 0
0.0135711 -0.000226672 0
0.0131475 -0.000232184 0
0.0135473 -0.000213902 0
0.0152955 -8.81849e-05 0
0.0147537 -0.000193101 0
0.0157005 -5.64121e-05 0
0.0150246 -0.000140643 0
0.0152271 -0.000124757 0
0.015498 -7.22985e-05 0
0.0152956 -8.81111e-05 0
0.0156703 -8.66221e-05 0
0.0157422 -1.76896e-05 0
0.015483 -8.73666e-05 0
0.0157063 -5.21559e-05 0
0.0155189 -5.29003e-05 0
0.0152954 -8.80622e-05 0
0.0147951 -6.25599e-05 0
0.0147347 -0.000174024 0
0.0150452 -7.53111e-05 0
0.0147649 -0.000118292 0
0.015015 -0.000131043 0
0.0152954 -8.79883e-05 0
0.0157579 -3.33757e-05 0
0.0148286 -2.90562e-05 0
0.0155267 -6.0682e-05 0
0.0152933 -3.12159e-05 0
0.015062 -5.85223e-05 0
0.0159245 -2.67958e-05 0
0.0157001 -0.000106672 0
0.0160182 2.40712e-05 0
0.0158123 -6.67338e-05 0
0.0158592 -4.13004e-05 0
0.0159714 -1.36226e-06 0
0.0159244 -2.66498e-05 0
0.0157311 -1.76896e-05 0
0.0156801 -8.66221e-05 0
0.0158277 -2.21697e-05 0
0.0157056 -5.21559e-05 0
0.0158022 -5.6636e-05 0
0.0159245 -2.68702e-05 0
0.0159941 0 0
0.0160479 0 0
0.0159593 -1.34351e-05 0
0.016021 0 0
0.0159862 -1.34351e-05 0
0.0159243 -2.67242e-05 0
0.0160665 -1.86137e-05 0
0.0157561 7.37707e-06 0
0.0159954 -2.2669e-05 0
0.0159113 -5.61832e-06 0
0.0158402 -9.67359e-06 0
0.0121589 -0.000260032 0
0.0110821 -0.000299131 0
0.0110743 -0.000228755 0
0.0116205 -0.000279581 0
0.0110782 -0.000263943 0
0.0116166 -0.000244394 0
0.0121588 -0.000259881 0
0.0111018 -0.000256245 0
0.0131496 -0.000190003 0
0.0116303 -0.000258063 0
0.0121257 -0.000223124 0
0.0126542 -0.000224942 0
0.0121591 -0.000259861 0
0.0132027 -0.000272427 0
0.0111122 -0.000269057 0
0.0126809 -0.000266144 0
0.0121574 -0.000270742 0
0.0116356 -0.000264459 0
0.0121589 -0.000259709 0
0.0131201 -0.000219414 0
0.0131752 -0.000244953 0
0.0126395 -0.000239561 0
0.0131477 -0.000232184 0
0.0126671 -0.000252331 0
0.00989821 -0.000162523 0
0.0111076 -0.00014133 0
0.0110697 -0.000221628 0
0.0105029 -0.000151926 0
0.0110886 -0.000181479 0
0.0104839 -0.000192075 0
0.00989812 -0.000162442 0
0.0110939 -0.000245886 0
0.00862952 -0.000173101 0
0.010496 -0.000204164 0
0.00986173 -0.000209493 0
0.00926382 -0.000167772 0
0.00989843 -0.000162294 0
0.00868894 -0.000104899 0
0.011126 -0.000122953 0
0.00929369 -0.000133596 0
0.00990746 -0.000113926 0
0.0105122 -0.000142623 0
0.00989835 -0.000162213 0
0.00861397 -0.000188645 0
0.0086669 -8.28547e-05 0
0.00925616 -0.000175429 0
0.00864044 -0.00013575 0
0.00928263 -0.000122534 0
0.00986476 -0.000268841 0
0.0110725 -0.000228755 0
0.0110823 -0.000299131 0
0.0104686 -0.000248798 0
0.0110774 -0.000263943 0
0.0104735 -0.000283986 0
0.00986472 -0.000268872 0
0.00862952 -0.000213333 0
0.0110939 -0.000207348 0
0.00924712 -0.000241103 0
0.00986173 -0.00021034 0
0.0104793 -0.00023811 0
0.00986493 -0.000269012 0
0.011105 -0.000321813 0
0.00858139 -0.000278367 0
0.010485 -0.000295413 0
0.0098432 -0.00030009 0
0.00922316 -0.000273689 0
0.0098649 -0.000269043 0
0.00856216 -0.000297599 0
0.00860941 -0.000193229 0
0.00921353 -0.000283321 0
0.00858578 -0.000245414 0
0.00923715 -0.000231136 0
0.0140485 -0.000167245 0
0.0132052 -0.000276043 0
0.0147536 -0.000137822 0
0.0136268 -0.000221644 0
0.0139794 -0.000206932 0
0.0144011 -0.000152533 0
0.0140485 -0.000167265 0
0.013252 -0.000146936 0
0.0131844 -0.000255231 0
0.0136503 -0.0001571 0
0.0132182 -0.000201083 0
0.0136164 -0.000211248 0
0.0140488 -0.000166964 0
0.0147174 -0.000174024 0
0.0148148 -6.25599e-05 0
0.0143831 -0.000170494 0
0.0147661 -0.000118292 0
0.0144318 -0.000114762 0
0.0140488 -0.000166984 0
0.0148315 -7.92438e-05 0
0.0132929 -0.000106005 0
0.0144401 -0.000123114 0
0.0140622 -9.26243e-05 0
0.0136709 -0.000136494 0
0.0122154 -0.000256559 0
0.0111122 -0.000332887 0
0.0132027 -0.000216937 0
0.0116638 -0.000294723 0
0.0121574 -0.000274912 0
0.012709 -0.000236748 0
0.0122159 -0.00025608 0
0.0131644 -0.000255231 0
0.0132744 -0.000146936 0
0.0126901 -0.000255656 0
0.0132194 -0.000201083 0
0.0127451 -0.000201508 0
0.0122157 -0.000256832 0
0.011138 -0.000253011 0
0.011089 -0.00030969 0
0.0116768 -0.000254922 0
0.0111135 -0.000281351 0
0.0116523 -0.000283261 0
0.0122161 -0.000256354 0
0.0132948 -0.000167393 0
0.0111805 -0.000210473 0
0.0127555 -0.000211874 0
0.0122377 -0.000188933 0
0.0116983 -0.000233414 0
0.00760799 -0.000154792 0
0.00891727 -0.00018051 0
0.00604874 6.94707e-05 0
0.00826263 -0.000167651 0
0.007483 -5.55198e-05 0
0.00682836 -4.26606e-05 0
0.00760962 -0.000156419 0
0.00921881 -0.000555497 0
0.00885645 -0.000119695 0
0.00841421 -0.000355958 0
0.00903763 -0.000337596 0
0.00823304 -0.000138057 0
0.0076097 -0.000153083 0
0.00601216 3.28971e-05 0
0.00620284 -0.000148391 0
0.00681093 -6.00931e-05 0
0.0061075 -5.77471e-05 0
0.00690627 -0.000150737 0
0.00761133 -0.00015471 0
0.0062656 -0.000211154 0
0.00926011 -0.0005142 0
0.00693846 -0.000182932 0
0.00776285 -0.000362677 0
0.00843572 -0.000334455 0
0.00742874 1.70432e-08 0
0.00604874 -4.59252e-06 0
0.00891727 -0.000113114 0
0.00673874 -2.28774e-06 0
0.007483 -5.88532e-05 0
0.00817301 -5.65484e-05 0
0.00742799 -7.32628e-07 0
0.00889295 -0.000137433 0
0.00873007 -2.69134e-05 0
0.00816047 -6.9083e-05 0
0.00881151 -8.21733e-05 0
0.00807903 -1.3823e-05 0
0.00742821 5.53267e-07 0
0.00596227 3.65686e-05 0
0.00602094 2.3205e-05 0
0.00669524 1.85609e-05 0
0.00599161 2.98868e-05 0
0.00672457 1.18791e-05 0
0.00742746 -1.96405e-07 0
0.00876021 -5.70536e-05 0
0.00598168 5.59734e-05 0
0.00809383 -2.8625e-05 0
0.00737094 -5.40092e-07 0
0.00670457 2.78885e-05 0
0.00806339 -0.000689823 0
0.0068826 -0.000856186 0
0.00996017 -0.00157217 0
0.007473 -0.000773004 0
0.00842138 -0.00121418 0
0.00901178 -0.001131 0
0.0080598 -0.000693412 0
0.00989947 -0.00163287 0
0.00913529 -0.000518138 0
0.00897964 -0.00116314 0
0.00951738 -0.0010755 0
0.00859755 -0.000605775 0
0.00805915 -0.000685583 0
0.00620167 -0.000121458 0
0.0067389 -0.000712481 0
0.00713041 -0.000403521 0
0.00647029 -0.00041697 0
0.00739903 -0.000699032 0
0.00805556 -0.000689172 0
0.00926011 -0.000642954 0
0.0062656 -5.75332e-05 0
0.00865783 -0.000666063 0
0.00776285 -0.000350243 0
0.00716058 -0.000373353 0
0.00904911 -0.00209899 0
0.00996017 -0.00180351 0
0.0068826 -0.000548049 0
0.00950464 -0.00195125 0
0.00842138 -0.00117578 0
0.00796586 -0.00132352 0
0.00905774 -0.00210761 0
0.0111213 -0.00405999 0
0.0097166 -0.00155995 0
0.0100895 -0.0030838 0
0.010419 -0.00280997 0
0.00938717 -0.00183378 0
0.00905475 -0.00209335 0
0.00679718 -0.000633474 0
0.00806368 -0.00228673 0
0.00792596 -0.00136341 0
0.00743043 -0.0014601 0
0.00855921 -0.00219004 0
0.00906337 -0.00210198 0
0.00837232 -0.00259538 0
0.0111702 -0.00401113 0
0.00871785 -0.00234868 0
0.00977125 -0.00330326 0
0.0101168 -0.00305655 0
0.00452589 4.05936e-05 0
0.00620173 -0.000148391 0
0.00600505 3.28971e-05 0
0.00536381 -5.38988e-05 0
0.00610339 -5.77471e-05 0
0.00526547 3.67453e-05 0
0.00452603 4.07375e-05 0
0.00296047 2.02845e-05 0
0.006231 -0.000119117 0
0.00374325 3.0511e-05 0
0.00459573 -4.94161e-05 0
0.00537852 -3.91897e-05 0
0.00452647 4.00145e-05 0
0.00602714 1.08076e-05 0
0.00297298 6.36345e-05 0
0.0052768 2.5411e-05 0
0.00450006 3.7221e-05 0
0.00374972 5.18245e-05 0
0.00452661 4.01584e-05 0
0.00295556 4.6215e-05 0
0.0029511 2.96488e-05 0
0.00374108 4.31867e-05 0
0.00295333 3.79319e-05 0
0.00373886 3.49036e-05 0
0.00473125 -0.000116088 0
0.00676755 -0.000712481 0
0.00616579 -0.000121458 0
0.0057494 -0.000414285 0
0.00646667 -0.00041697 0
0.00544852 -0.000118773 0
0.00473018 -0.000115014 0
0.006231 -0.000186675 0
0.00296047 8.22079e-05 0
0.00548059 -0.000150845 0
0.00459573 -5.22338e-05 0
0.00384532 -1.64031e-05 0
0.00473365 -0.000113686 0
0.00313643 -0.000125158 0
0.00684287 -0.000637156 0
0.00393504 -0.000119422 0
0.00498965 -0.000381157 0
0.00578826 -0.000375421 0
0.00473258 -0.000112612 0
0.0029112 3.29422e-05 0
0.00309032 -7.90475e-05 0
0.00382189 -3.98349e-05 0
0.00300076 -2.30527e-05 0
0.00391145 -9.58297e-05 0
0.00734993 -1.47177e-05 0
0.00867894 -9.45109e-05 0
0.00594319 -1.67917e-05 0
0.00801443 -5.46143e-05 0
0.00731107 -5.56513e-05 0
0.00664656 -1.57547e-05 0
0.0073501 -1.48947e-05 0
0.00874614 -3.54301e-05 0
0.00866247 -7.8032e-05 0
0.00804812 -2.51624e-05 0
0.0087043 -5.6731e-05 0
0.00800628 -4.64634e-05 0
0.00735032 -1.43216e-05 0
0.00593342 -2.65646e-05 0
0.00596835 3.28551e-05 0
0.00664187 -2.04431e-05 0
0.00595088 3.14525e-06 0
0.00665934 9.26674e-06 0
0.0073505 -1.44986e-05 0
0.00598168 1.95275e-05 0
0.00876021 -2.13598e-05 0
0.00666609 2.51442e-06 0
0.00737094 -9.16163e-07 0
0.00805535 -1.79292e-05 0
0.0072922 -0.000104159 0
0.00594319 -3.62137e-05 0
0.00867894 -7.39406e-05 0
0.0066177 -7.01865e-05 0
0.00731107 -5.50772e-05 0
0.00798557 -8.90499e-05 0
0.00729188 -0.000104483 0
0.00867003 -8.28547e-05 0
0.0086075 -0.000188645 0
0.00798095 -9.36687e-05 0
0.00863876 -0.00013575 0
0.00794969 -0.000146564 0
0.0072921 -0.000104057 0
0.00587438 -0.000119068 0
0.0059352 -2.8224e-05 0
0.00658324 -0.000111563 0
0.00590479 -7.36461e-05 0
0.00661365 -6.61405e-05 0
0.00729178 -0.00010438 0
0.00861882 -0.000199969 0
0.0058791 -0.000114341 0
0.0079553 -0.000152175 0
0.00724896 -0.000157155 0
0.00658544 -0.000109361 0
0.00449494 5.72235e-05 0
0.00601614 2.3205e-05 0
0.00596146 3.65686e-05 0
0.00525554 4.02142e-05 0
0.0059888 2.98868e-05 0
0.0052282 4.6896e-05 0
0.00449557 5.65945e-05 0
0.00596894 2.90916e-05 0
0.00301654 3.47482e-05 0
0.00523225 4.28431e-05 0
0.00449274 3.19199e-05 0
0.00375605 4.56713e-05 0
0.00449466 5.69429e-05 0
0.00297298 4.50052e-05 0
0.00602714 3.42063e-05 0
0.00373382 5.0974e-05 0
0.00450006 3.96057e-05 0
0.0052609 4.55746e-05 0
0.00449529 5.63139e-05 0
0.00301055 2.8761e-05 0
0.00297233 4.56488e-05 0
0.00375292 4.25374e-05 0
0.00299144 3.72049e-05 0
0.00373381 5.09814e-05 0
0.00449615 1.93903e-05 0
0.00596528 3.28551e-05 0
0.00593279 -2.65646e-05 0
0.00523072 2.61227e-05 0
0.00594904 3.14525e-06 0
0.00521447 -3.58717e-06 0
0.00449602 1.92637e-05 0
0.00301654 2.99434e-05 0
0.00596894 3.65105e-05 0
0.00375628 2.46035e-05 0
0.00449274 3.3227e-05 0
0.00523248 2.78871e-05 0
0.00449643 1.91097e-05 0
0.00593462 -2.83887e-05 0
0.00303034 -4.91381e-07 0
0.00521552 -4.63952e-06 0
0.00448248 -1.44401e-05 0
0.00376339 9.30915e-06 0
0.0044963 1.89831e-05 0
0.0030289 -1.93566e-06 0
0.00301774 2.87419e-05 0
0.0037626 8.52371e-06 0
0.00302332 1.34031e-05 0
0.00375702 2.38625e-05 0
0.00707144 -0.0161602 0
0.00513373 -0.0211733 0
0.00366718 -0.0158313 0
0.00610259 -0.0186667 0
0.00440045 -0.0185023 0
0.00536931 -0.0159957 0
0.00706909 -0.0161625 0
0.00389758 -0.0156009 0
0.00874898 -0.0118727 0
0.00548334 -0.0158817 0
0.00632328 -0.0137368 0
0.00790904 -0.0140176 0
0.00707474 -0.0161635 0
0.0102748 -0.0154366 0
0.00556284 -0.0216024 0
0.00867479 -0.0158 0
0.00791884 -0.0185195 0
0.00631879 -0.0188829 0
0.00707239 -0.0161658 0
0.00841687 -0.0115406 0
0.00994935 -0.0157621 0
0.00774463 -0.0138532 0
0.00918311 -0.0136513 0
0.00851087 -0.0159639 0
0.00908628 -0.0210095 0
0.00537776 -0.0216024 0
0.0103578 -0.0154366 0
0.00723202 -0.0213059 0
0.0078678 -0.0185195 0
0.00972206 -0.018223 0
0.0090963 -0.0210195 0
0.00986697 -0.0149457 0
0.0121306 -0.0187507 0
0.00948163 -0.0179826 0
0.0109988 -0.0168482 0
0.0106134 -0.0198851 0
0.00908919 -0.0210066 0
0.00750107 -0.0277399 0
0.00495879 -0.0220213 0
0.00829513 -0.0243732 0
0.00622993 -0.0248806 0
0.00702399 -0.021514 0
0.00909921 -0.0210166 0
0.0127624 -0.0181189 0
0.00821894 -0.0284577 0
0.0109308 -0.0195678 0
0.0104907 -0.0232883 0
0.00865908 -0.0247372 0
0.0119348 -0.01308 0
0.0103835 -0.0152617 0
0.0120651 -0.00921667 0
0.0111591 -0.0141708 0
0.0112243 -0.0122392 0
0.0119999 -0.0111483 0
0.0119275 -0.0130873 0
0.0121306 -0.0176357 0
0.00986697 -0.0157782 0
0.0120291 -0.0153615 0
0.0109988 -0.0167069 0
0.0108973 -0.0144327 0
0.0119449 -0.0130901 0
0.0119705 -0.00912211 0
0.0123861 -0.00958896 0
0.0119577 -0.0111061 0
0.0121783 -0.00935554 0
0.0121655 -0.0113395 0
0.0119376 -0.0130973 0
0.0129325 -0.00904264 0
0.0122897 -0.0177948 0
0.012435 -0.01107 0
0.0126111 -0.0134187 0
0.0121137 -0.0154461 0
0.0109174 -0.00552209 0
0.0113686 -0.00714012 0
0.0125468 -0.00922063 0
0.011143 -0.0063311 0
0.0119577 -0.00818037 0
0.0117321 -0.00737136 0
0.0109208 -0.00551871 0
0.0127397 -0.00902775 0
0.0107901 -0.00395922 0
0.0118302 -0.00727323 0
0.0117649 -0.00649349 0
0.0108555 -0.00473897 0
0.0109088 -0.00551344 0
0.00836603 -0.00206377 0
0.0107788 -0.00655035 0
0.00963741 -0.0037886 0
0.00957241 -0.00430706 0
0.0108438 -0.00603189 0
0.0109122 -0.00551006 0
0.0111702 -0.0043393 0
0.00837232 -0.00205748 0
0.0110412 -0.00492468 0
0.00977125 -0.00319839 0
0.00964224 -0.00378377 0
0.0131451 -0.0131719 0
0.0125468 -0.00923628 0
0.0113686 -0.00686151 0
0.0128459 -0.0112041 0
0.0119577 -0.0080489 0
0.0122568 -0.0100167 0
0.0131344 -0.0131613 0
0.0128681 -0.0177948 0
0.0123532 -0.00904264 0
0.0130013 -0.015478 0
0.0126106 -0.0134187 0
0.0127438 -0.0111019 0
0.0131174 -0.0131995 0
0.0119698 -0.00626031 0
0.0149677 -0.0171408 0
0.0125436 -0.00972991 0
0.0134688 -0.0117005 0
0.0140426 -0.0151701 0
0.0131068 -0.0131889 0
0.0154118 -0.0175848 0
0.01194 -0.0187229 0
0.0142593 -0.0153868 0
0.0136759 -0.0181539 0
0.0125234 -0.0159559 0
0.0074961 -0.00251246 0
0.0114356 -0.00655035 0
0.00784637 -0.00206377 0
0.00946583 -0.00453141 0
0.00964097 -0.00430706 0
0.00767124 -0.00228812 0
0.00746166 -0.00247802 0
0.00840386 -0.00262126 0
0.00394396 -4.57618e-05 0
0.00793276 -0.00254964 0
0.00617391 -0.00133351 0
0.00570281 -0.00126189 0
0.00752843 -0.00248013 0
0.00666431 -0.00282232 0
0.0117781 -0.00620784 0
0.00709637 -0.00265123 0
0.00922119 -0.00451508 0
0.00965325 -0.00434399 0
0.00749399 -0.00244569 0
0.00363227 -0.000357454 0
0.00600409 -0.00216211 0
0.00556313 -0.00140157 0
0.00481818 -0.00125978 0
0.00674904 -0.0023039 0
0.00544862 -0.000671432 0
0.00822813 -0.00228673 0
0.00665079 -0.000633474 0
0.00683837 -0.00147908 0
0.00743946 -0.0014601 0
0.0060497 -0.000652453 0
0.00545903 -0.000661023 0
0.00394396 -0.000681231 0
0.00840386 -0.002111 0
0.0047015 -0.000671127 0
0.00617391 -0.00139612 0
0.00693144 -0.00138601 0
0.00543949 -0.000662309 0
0.00684287 -0.00082556 0
0.00313643 7.4124e-05 0
0.00614118 -0.000743935 0
0.00498965 -0.000375718 0
0.00428796 -0.000294092 0
0.0054499 -0.0006519 0
0.0030021 -6.02054e-05 0
0.00375421 -0.000491481 0
0.004226 -0.000356053 0
0.00337816 -0.000275843 0
0.00460206 -0.00057169 0
0.0125035 -0.0256874 0
0.0112261 -0.0357023 0
0.00724368 -0.0291651 0
0.0118648 -0.0306948 0
0.00923487 -0.0324337 0
0.00987357 -0.0274262 0
0.0125065 -0.0256844 0
0.00795102 -0.0284577 0
0.0127432 -0.0181189 0
0.0102287 -0.0270711 0
0.0103471 -0.0232883 0
0.0126248 -0.0219016 0
0.0125737 -0.0257577 0
0.0171894 -0.0177363 0
0.0132461 -0.0377223 0
0.0148816 -0.021747 0
0.0152178 -0.0277293 0
0.0129099 -0.03174 0
0.0125767 -0.0257547 0
0.01194 -0.0173157 0
0.0154118 -0.0195139 0
0.0122584 -0.0215352 0
0.0136759 -0.0184148 0
0.0139943 -0.0226343 0
0.012461 -0.00885041 0
0.0164493 -0.0171408 0
0.0107491 -0.00626031 0
0.0144552 -0.0129956 0
0.0135992 -0.0117005 0
0.0116051 -0.00755536 0
0.0124019 -0.00890952 0
0.0148617 -0.012456 0
0.0155381 -0.018052 0
0.0136318 -0.0106827 0
0.0151999 -0.015254 0
0.01397 -0.0134808 0
0.0124574 -0.00884678 0
0.0117781 -0.00728927 0
0.00666431 -0.000816887 0
0.0121177 -0.00806802 0
0.00922119 -0.00405308 0
0.00956084 -0.00483183 0
0.0123983 -0.00890589 0
0.00645349 -0.00102771 0
0.0128217 -0.0104159 0
0.00942588 -0.0049668 0
0.00963757 -0.00572181 0
0.01261 -0.00966089 0
0.0168904 -0.0294445 0
0.0131128 -0.0377223 0
0.0165432 -0.0177363 0
0.0150016 -0.0335834 0
0.014828 -0.0277293 0
0.0167168 -0.0235904 0
0.0169858 -0.02954 0
0.0155381 -0.0167312 0
0.0148617 -0.0131593 0
0.016262 -0.0231356 0
0.0151999 -0.0149453 0
0.0159238 -0.0213497 0
0.0167139 -0.0296211 0
0.0269682 -0.0420184 0
0.00763812 -0.043197 0
0.021841 -0.0358197 0
0.0173032 -0.0426077 0
0.012176 -0.0364091 0
0.0168093 -0.0297165 0
0.0186848 -0.00933628 0
0.0268657 -0.0419158 0
0.017747 -0.0195264 0
0.0227752 -0.0256261 0
0.0218375 -0.0358162 0
0.00152251 -3.22055e-06 0
2.12719e-06 0 0
8.56828e-06 0 0
0.000762318 -1.61027e-06 0
5.34774e-06 0 0
0.000765538 -1.61027e-06 0
0.00152162 -4.11231e-06 0
0.00301208 -2.58965e-05 0
3.69047e-06 1.56327e-06 0
0.00226685 -1.50044e-05 0
0.00150789 -1.21666e-05 0
0.000762654 -1.27452e-06 0
0.00152361 -4.32304e-06 0
1.12995e-05 -2.73121e-06 0
0.00303128 1.9108e-06 0
0.000767455 -3.52713e-06 0
0.00152129 -4.10205e-07 0
0.00227745 -1.20612e-06 0
0.00152272 -5.2148e-06 0
0.00303131 1.93566e-06 0
0.00301493 -2.87419e-05 0
0.00227701 -1.63957e-06 0
0.00302312 -1.34031e-05 0
0.00226882 -1.69784e-05 0
0.00152191 2.4362e-06 0
0.00303128 8.22343e-07 0
1.12995e-05 2.07116e-06 0
0.0022766 1.62927e-06 0
0.00152129 1.44675e-06 0
0.000766607 2.25368e-06 0
0.00152198 2.3697e-06 0
0.0029936 3.96565e-05 0
0.00303031 1.79262e-06 0
0.00225779 2.10131e-05 0
0.00301196 2.07246e-05 0
0.00227615 2.08116e-06 0
0.00152169 2.21375e-06 0
9.22834e-06 0 0
4.80084e-06 0 0
0.00076546 1.10687e-06 0
7.01459e-06 0 0
0.000763246 1.10687e-06 0
0.00152176 2.14724e-06 0
1.05274e-05 -5.72656e-06 0
0.0029906 3.66595e-05 0
0.000766143 -1.78966e-06 0
0.00150057 1.54665e-05 0
0.00225618 1.94034e-05 0
0.00446808 4.21376e-05 0
0.00593462 2.81443e-05 0
0.00303034 -6.4648e-07 0
0.00520135 3.51409e-05 0
0.00448248 1.37489e-05 0
0.00374921 2.07455e-05 0
0.00446793 4.19824e-05 0
0.00303278 1.79262e-06 0
0.00299027 3.96565e-05 0
0.00375036 2.18875e-05 0
0.00301152 2.07246e-05 0
0.0037291 4.08195e-05 0
0.00446784 4.23785e-05 0
0.005872 0.000119068 0
0.00593454 2.8224e-05 0
0.00516992 8.07233e-05 0
0.00590327 7.36461e-05 0
0.00520119 3.53013e-05 0
0.00446769 4.22233e-05 0
0.00298849 4.14314e-05 0
0.00587063 0.000117692 0
0.00372809 4.18274e-05 0
0.00442956 7.95614e-05 0
0.00516916 7.99574e-05 0
0.00438488 0.000115506 0
0.00576655 0.000216931 0
0.00587299 0.000120526 0
0.00507571 0.000166219 0
0.00581977 0.000168728 0
0.00512894 0.000118016 0
0.0043856 0.000114785 0
0.00587063 0.000122894 0
0.00298849 3.49709e-05 0
0.00512811 0.000118839 0
0.00442956 7.89323e-05 0
0.00368704 7.4878e-05 0
0.00438428 0.000114909 0
0.00288 8.75524e-05 0
0.00576286 0.000213246 0
0.00363214 0.000101231 0
0.00432143 0.000150399 0
0.00507357 0.000164077 0
0.004385 0.000114188 0
0.00299296 3.94421e-05 0
0.00288579 8.1762e-05 0
0.00368898 7.6815e-05 0
0.00293938 6.0602e-05 0
0.0036354 9.79749e-05 0
0.00722054 0.000218697 0
0.0058716 0.000120526 0
0.00577166 0.000216931 0
0.00654607 0.000169611 0
0.00582163 0.000168728 0
0.0064961 0.000217814 0
0.0072206 0.00021875 0
0.00861882 0.000184764 0
0.0058791 0.000128032 0
0.00791971 0.000201757 0
0.00724896 0.000156398 0
0.00654985 0.000173391 0
0.00722024 0.000219 0
0.00577552 0.000213069 0
0.00856903 0.000308996 0
0.00649788 0.000216035 0
0.00717228 0.000261033 0
0.00789464 0.000263998 0
0.00722029 0.000219053 0
0.00855764 0.000297599 0
0.00861036 0.000193229 0
0.00788896 0.000258326 0
0.008584 0.000245414 0
0.00791533 0.000206141 0
0.00147856 8.34941e-06 0
1.3476e-05 0 0
-3.22283e-06 0 0
0.000746018 4.1747e-06 0
5.12657e-06 0 0
0.000737668 4.1747e-06 0
0.00147993 9.72477e-06 0
0.0029906 3.83123e-05 0
1.05274e-05 -2.94858e-06 0
0.00223527 2.40186e-05 0
0.00150057 1.76819e-05 0
0.000745231 3.3881e-06 0
0.0014775 9.40983e-06 0
8.25138e-07 -4.04797e-06 0
0.0028791 7.10236e-05 0
0.000739162 2.68093e-06 0
0.00143996 3.34878e-05 0
0.0021783 4.02167e-05 0
0.00147887 1.07852e-05 0
0.00288984 8.1762e-05 0
0.00298947 3.94421e-05 0
0.00218436 4.62736e-05 0
0.00293966 6.0602e-05 0
0.00223417 2.51137e-05 0
0.00424747 0.000188206 0
0.00576286 0.000223205 0
0.00288 7.5289e-05 0
0.00500517 0.000205706 0
0.00432143 0.000149247 0
0.00356374 0.000131748 0
0.00424653 0.000187259 0
0.00288623 8.15156e-05 0
0.00271735 0.000124123 0
0.00356638 0.000134387 0
0.00280179 0.000102819 0
0.00348194 0.000155691 0
0.00424623 0.000189448 0
0.00563919 0.000285639 0
0.005766 0.00022007 0
0.00494271 0.000237544 0
0.00570259 0.000252855 0
0.00500612 0.000204759 0
0.00424528 0.000188501 0
0.00270702 0.000134447 0
0.00563577 0.000282223 0
0.00347615 0.000161474 0
0.0041714 0.000208335 0
0.00494053 0.000235362 0
0.0013907 1.84622e-05 0
0.0028791 8.491e-05 0
8.25138e-07 -1.36078e-05 0
0.0021349 5.16861e-05 0
0.00143996 3.56511e-05 0
0.000695765 2.42716e-06 0
0.00138802 2.11471e-05 0
0.00271915 0.000124123 0
0.0028825 8.15156e-05 0
0.00205359 7.26351e-05 0
0.00280082 0.000102819 0
0.00213526 5.13313e-05 0
0.00138776 1.55142e-05 0
1.4433e-05 0 0
-1.65955e-05 0 0
0.000701095 7.75711e-06 0
-1.08124e-06 0 0
0.000685581 7.75711e-06 0
0.00138507 1.81991e-05 0
-2.11515e-05 4.55602e-06 0
0.00269544 0.000100411 0
0.00068196 1.13776e-05 0
0.00133714 5.24836e-05 0
0.00204026 5.93052e-05 0
0.00714316 0.000311012 0
0.00856903 0.000289966 0
0.00577552 0.000231723 0
0.00785609 0.000300489 0
0.00717228 0.000260844 0
0.00645934 0.000271367 0
0.00714308 0.000311087 0
0.00854603 0.000324159 0
0.00855351 0.00030549 0
0.00784456 0.000317623 0
0.00854977 0.000314825 0
0.00784829 0.000308289 0
0.00714337 0.000311223 0
0.00576387 0.00022007 0
0.00564713 0.000285639 0
0.00645362 0.000265646 0
0.0057055 0.000252855 0
0.00639525 0.000298431 0
0.00714329 0.000311297 0
0.00565795 0.000274825 0
0.00856267 0.000340794 0
0.00640062 0.000293061 0
0.00711031 0.000307809 0
0.00785298 0.000326045 0
0.00986804 0.00032255 0
0.011105 0.000277705 0
0.00858139 0.000327372 0
0.0104865 0.000300127 0
0.0098432 0.000302538 0
0.00922471 0.000324961 0
0.00986851 0.000323028 0
0.00855951 0.00030549 0
0.0085431 0.000324159 0
0.00921401 0.000314259 0
0.0085513 0.000314825 0
0.00920581 0.000323593 0
0.00986851 0.000322078 0
0.0111545 0.000253011 0
0.011073 0.00030969 0
0.0105115 0.000287544 0
0.0111138 0.000281351 0
0.0104708 0.000315884 0
0.00986899 0.000322556 0
0.00857592 0.000291336 0
0.0111774 0.000275954 0
0.00922245 0.000306946 0
0.00987668 0.000283645 0
0.0105232 0.000299255 0
0.0123245 3.18568e-05 0
0.0111681 0.000271369 0
0.0112721 -0.000103692 0
0.0117463 0.000151613 0
0.0112201 8.38384e-05 0
0.0117983 -3.59178e-05 0
0.0123243 3.16783e-05 0
0.0132948 0.000110597 0
0.0111805 0.000283809 0
0.0128096 7.11379e-05 0
0.0122377 0.000197203 0
0.0117524 0.000157744 0
0.0123252 3.10796e-05 0
0.0113347 -0.000166327 0
0.0133976 -0.000248164 0
0.01183 -6.76238e-05 0
0.0123662 -0.000207246 0
0.0128614 -0.000108542 0
0.0123251 3.09011e-05 0
0.0133944 -0.000251382 0
0.0132433 0.000162098 0
0.0128597 -0.00011024 0
0.0133189 -4.46417e-05 0
0.0127842 9.64997e-05 0
0.009952 0.000184014 0
0.0113231 -0.000103692 0
0.0111227 0.000271369 0
0.0106375 4.01609e-05 0
0.0112229 8.38384e-05 0
0.0105374 0.000227692 0
0.00995079 0.000185229 0
0.0111774 0.000216652 0
0.00857592 0.000364875 0
0.0105641 0.00020094 0
0.00987668 0.000290764 0
0.00926336 0.000275052 0
0.00995282 0.000184835 0
0.00869553 4.72881e-05 0
0.0113421 -8.46747e-05 0
0.00932418 0.000116062 0
0.0100188 -1.86933e-05 0
0.0106475 5.00802e-05 0
0.00995161 0.00018605 0
0.00855225 0.000341204 0
0.00863209 0.000110731 0
0.00925193 0.000263627 0
0.00859217 0.000225967 0
0.00929185 0.00014839 0
0.0141273 -7.02565e-05 0
0.0133884 -0.000298665 0
0.0148434 -0.000275804 0
0.0137579 -0.000184461 0
0.0141159 -0.000287234 0
0.0144854 -0.00017303 0
0.0141271 -6.99836e-05 0
0.0132904 0.000162098 0
0.0133411 -0.000251382 0
0.0137088 4.60573e-05 0
0.0133158 -4.46417e-05 0
0.0137341 -0.000160683 0
0.0141276 -7.00157e-05 0
0.0148496 -0.000269585 0
0.014793 7.28699e-05 0
0.0144886 -0.0001698 0
0.0148213 -9.83576e-05 0
0.0144603 1.42707e-06 0
0.0141273 -6.97428e-05 0
0.0148315 3.43528e-05 0
0.0132929 0.000164581 0
0.0144794 -1.7695e-05 0
0.0140622 9.94669e-05 0
0.0137101 4.74191e-05 0
0.0124687 -0.000652409 0
0.0133976 -0.000295384 0
0.0113347 -9.02453e-05 0
0.0129332 -0.000473897 0
0.0123662 -0.000192815 0
0.0119017 -0.000371327 0
0.0124695 -0.000653163 0
0.0134538 -0.00119621 0
0.0133331 -0.000230838 0
0.0129616 -0.000924687 0
0.0133934 -0.000713524 0
0.0129013 -0.000442001 0
0.0124683 -0.000652828 0
0.0113514 -7.35028e-05 0
0.0114911 -0.00109249 0
0.0119099 -0.000363165 0
0.0114213 -0.000582997 0
0.0119797 -0.000872659 0
0.0124691 -0.000653582 0
0.0115759 -0.00117731 0
0.0134175 -0.00123255 0
0.0120225 -0.000915446 0
0.0124967 -0.00120493 0
0.0129433 -0.000943068 0
0.0141297 -0.000679736 0
0.0148434 -0.00029125 0
0.0133884 -0.000263647 0
0.0144866 -0.000485493 0
0.0141159 -0.000277448 0
0.0137591 -0.000471692 0
0.0141289 -0.000680506 0
0.0134212 -0.000230838 0
0.0133552 -0.00119621 0
0.0137751 -0.000455672 0
0.0133882 -0.000713524 0
0.0137421 -0.000938358 0
0.0141297 -0.00067973 0
0.0146964 -0.000989185 0
0.0148094 -0.000257247 0
0.0144131 -0.000834457 0
0.0147529 -0.000623216 0
0.0144696 -0.000468489 0
0.0141289 -0.000680501 0
0.0134014 -0.00124244 0
0.0146498 -0.00103578 0
0.0137652 -0.000961471 0
0.0140256 -0.00113911 0
0.0143894 -0.000858138 0
0.0153291 -8.76162e-05 0
0.0148298 7.28699e-05 0
0.0148083 -0.000269585 0
0.0150794 -7.37315e-06 0
0.014819 -9.83576e-05 0
0.0150687 -0.000178601 0
0.0153295 -8.72042e-05 0
0.0157579 -6.62474e-07 0
0.0148286 7.1731e-05 0
0.0155437 -4.39333e-05 0
0.0152933 3.55343e-05 0
0.015079 -7.73658e-06 0
0.015329 -8.75264e-05 0
0.0148367 -0.000298056 0
0.015699 -0.000175845 0
0.0150829 -0.000192791 0
0.0152679 -0.00023695 0
0.015514 -0.000131686 0
0.0153294 -8.71144e-05 0
0.0157061 -0.000168727 0
0.0157344 2.28323e-05 0
0.0155177 -0.000127921 0
0.0157203 -7.29475e-05 0
0.0155319 -3.2141e-05 0
0.00711948 0.000294952 0
0.00561727 0.000205342 0
0.00868832 0.000138716 0
0.00636837 0.000250147 0
0.00715279 0.000172029 0
0.0079039 0.000216834 0
0.00711846 0.000293937 0
0.00866033 0.000110731 0
0.00852439 0.000341204 0
0.0078894 0.000202334 0
0.00859236 0.000225967 0
0.00782143 0.00031757 0
0.00711865 0.000295776 0
0.00563505 0.000294694 0
0.0055804 0.00024221 0
0.00637685 0.000295235 0
0.00560772 0.000268452 0
0.00634953 0.000268993 0
0.00711764 0.000294761 0
0.00856267 0.000302929 0
0.00565795 0.000317593 0
0.00784015 0.000298845 0
0.00711031 0.000310261 0
0.00638779 0.000306177 0
0.0101822 -0.000403039 0
0.0113421 -0.000165031 0
0.00869553 0.000161781 0
0.0107621 -0.000284035 0
0.0100188 -1.62518e-06 0
0.00943887 -0.000120629 0
0.0101829 -0.000402367 0
0.00868135 0.000147606 0
0.00895458 -0.000679111 0
0.00943212 -0.00012738 0
0.00881797 -0.000265752 0
0.00956873 -0.000540739 0
0.0101842 -0.000405057 0
0.0116064 -0.00109249 0
0.0112506 -7.35028e-05 0
0.0108953 -0.000748774 0
0.0114285 -0.000582997 0
0.0107174 -0.00023928 0
0.0101849 -0.000404384 0
0.00907166 -0.000796189 0
0.0116004 -0.00109849 0
0.00962828 -0.000600287 0
0.0103361 -0.000947338 0
0.0108927 -0.000751435 0
0.00728157 -3.4203e-05 0
0.00868832 5.48471e-05 0
0.00561727 0.000312401 0
0.00798494 1.03221e-05 0
0.00715279 0.000183624 0
0.00644942 0.000139099 0
0.00728464 -3.72755e-05 0
0.00905251 -0.000679111 0
0.00859556 0.000147606 0
0.00816858 -0.000358193 0
0.00882403 -0.000265752 0
0.0079401 5.51652e-05 0
0.00728418 -3.15928e-05 0
0.00557523 0.000270368 0
0.00576651 -0.000142282 0
0.00642971 0.000119388 0
0.00567087 6.40431e-05 0
0.00652534 -8.69373e-05 0
0.00728725 -3.46653e-05 0
0.00587281 -0.000248583 0
0.00909237 -0.000639255 0
0.00658003 -0.000141624 0
0.00748259 -0.000443919 0
0.00818981 -0.00033696 0
0.00408486 0.000239583 0
0.00557446 0.00024221 0
0.00563219 0.000294694 0
0.00482966 0.000240896 0
0.00560332 0.000268452 0
0.00485853 0.000267138 0
0.00408636 0.000238088 0
0.00563577 0.000291117 0
0.00270702 0.00012104 0
0.00486106 0.000264603 0
0.0041714 0.000206079 0
0.00339669 0.000179564 0
0.00408405 0.000238769 0
0.00250195 0.000162971 0
0.00558069 0.00024844 0
0.003293 0.00020087 0
0.00404132 0.000205706 0
0.00483237 0.000243605 0
0.00408555 0.000237275 0
0.00271006 0.000124079 0
0.00251226 0.000152664 0
0.0033978 0.000180677 0
0.00261116 0.000138372 0
0.0032989 0.000194969 0
0.0159287 -3.70872e-05 0
0.0159817 0 0
0.0160559 0 0
0.0159552 -1.85436e-05 0
0.0160188 0 0
0.0159923 -1.85436e-05 0
0.015929 -3.73988e-05 0
0.0160665 -1.0576e-05 0
0.0157561 2.47338e-05 0
0.0159977 -2.39874e-05 0
0.0159113 7.07891e-06 0
0.0158426 -6.33248e-06 0
0.0159282 -3.75068e-05 0
0.0156957 -0.000180408 0
0.0159811 -6.65708e-07 0
0.0158119 -0.000108958 0
0.0158384 -9.05371e-05 0
0.0159547 -1.90862e-05 0
0.0159286 -3.78183e-05 0
0.0157542 2.28323e-05 0
0.015684 -0.000168727 0
0.0158414 -7.493e-06 0
0.0157191 -7.29475e-05 0
0.0158063 -0.000103273 0
0.0159287 3.70872e-05 0
0.0160559 0 0
0.0159817 0 0
0.0159923 1.85436e-05 0
0.0160188 0 0
0.0159552 1.85436e-05 0
0.015929 3.73988e-05 0
0.0157561 -2.47338e-05 0
0.0160665 1.0576e-05 0
0.0158426 6.33248e-06 0
0.0159113 -7.07892e-06 0
0.0159977 2.39874e-05 0
0.0159282 3.75068e-05 0
0.0159811 6.65708e-07 0
0.0156957 0.000180408 0
0.0159547 1.90862e-05 0
0.0158384 9.05371e-05 0
0.0158119 0.000108958 0
0.0159286 3.78183e-05 0
0.015684 0.000168727 0
0.0157542 -2.28323e-05 0
0.0158063 0.000103273 0
0.0157191 7.29475e-05 0
0.0158414 7.49299e-06 0
0.0157363 -0.000182672 0
0.0159811 1.32772e-05 0
0.0156957 -0.000190844 0
0.0158587 -8.46974e-05 0
0.0158384 -8.87835e-05 0
0.015716 -0.000186758 0
0.0157355 -0.000183439 0
0.0157235 -0.000162991 0
0.0153737 -0.000553691 0
0.0157295 -0.000173215 0
0.0155486 -0.000358341 0
0.0155546 -0.000368565 0
0.0157357 -0.000182034 0
0.0156303 0 0
0.0159944 0 0
0.015683 -9.10169e-05 0
0.0158123 0 0
0.015865 -9.10169e-05 0
0.0157349 -0.000182801 0
0.0153612 -0.000541199 0
0.0155988 -3.14489e-05 0
0.0155481 -0.000362 0
0.01548 -0.000286324 0
0.0156669 -0.000107125 0
0.0152069 -0.000500203 0
0.015699 -0.000170482 0
0.0148367 -0.000292449 0
0.0154529 -0.000335343 0
0.0152679 -0.000231466 0
0.0150218 -0.000396326 0
0.0152065 -0.000499788 0
0.0154086 -0.000553691 0
0.0156915 -0.000162991 0
0.0153075 -0.00052674 0
0.0155501 -0.000358341 0
0.015449 -0.000331389 0
0.0152061 -0.000501031 0
0.0148719 -0.000257247 0
0.0146276 -0.000989185 0
0.015039 -0.000379139 0
0.0147498 -0.000623216 0
0.0149168 -0.000745108 0
0.0152056 -0.000500615 0
0.0146408 -0.00100244 0
0.0153652 -0.000597142 0
0.0149232 -0.000751527 0
0.015003 -0.00079979 0
0.0152854 -0.000548879 0
0.015329 8.75264e-05 0
0.015699 0.000175845 0
0.0148367 0.000298056 0
0.015514 0.000131686 0
0.0152679 0.00023695 0
0.0150829 0.000192791 0
0.0153294 8.71144e-05 0
0.0157344 -2.28323e-05 0
0.0157061 0.000168727 0
0.0155319 3.2141e-05 0
0.0157203 7.29475e-05 0
0.0155177 0.000127921 0
0.0153291 8.76162e-05 0
0.0148083 0.000269585 0
0.0148298 -7.28699e-05 0
0.0150687 0.000178601 0
0.014819 9.83576e-05 0
0.0150794 7.37315e-06 0
0.0153295 8.72042e-05 0
0.0148286 -7.1731e-05 0
0.0157579 6.62471e-07 0
0.015079 7.73658e-06 0
0.0152933 -3.55343e-05 0
0.0155437 4.39333e-05 0
0.0157363 0.000182672 0
0.0156957 0.000190844 0
0.0159811 -1.32772e-05 0
0.015716 0.000186758 0
0.0158384 8.87835e-05 0
0.0158587 8.46974e-05 0
0.0157355 0.000183439 0
0.0153737 0.000553691 0
0.0157235 0.000162991 0
0.0155546 0.000368565 0
0.0155486 0.000358341 0
0.0157295 0.000173215 0
0.0157357 0.000182034 0
0.0159944 0 0
0.0156303 0 0
0.015865 9.10169e-05 0
0.0158123 0 0
0.015683 9.10169e-05 0
0.0157349 0.000182801 0
0.0155988 3.14489e-05 0
0.0153612 0.000541199 0
0.0156669 0.000107125 0
0.01548 0.000286324 0
0.0155481 0.000362 0
0.0152069 0.000500203 0
0.0148367 0.000292449 0
0.015699 0.000170482 0
0.0150218 0.000396326 0
0.0152679 0.000231466 0
0.0154529 0.000335343 0
0.0152065 0.000499788 0
0.0156915 0.000162991 0
0.0154086 0.000553691 0
0.015449 0.000331389 0
0.0155501 0.000358341 0
0.0153075 0.00052674 0
0.0152061 0.000501031 0
0.0146276 0.000989185 0
0.0148719 0.000257247 0
0.0149168 0.000745108 0
0.0147498 0.000623216 0
0.015039 0.000379139 0
0.0152056 0.000500615 0
0.0153652 0.000597142 0
0.0146408 0.00100244 0
0.0152854 0.000548879 0
0.015003 0.00079979 0
0.0149232 0.000751527 0
0.0141276 7.00157e-05 0
0.014793 -7.28699e-05 0
0.0148496 0.000269585 0
0.0144603 -1.42707e-06 0
0.0148213 9.83576e-05 0
0.0144886 0.0001698 0
0.0141273 6.97428e-05 0
0.0132929 -0.000164581 0
0.0148315 -3.43528e-05 0
0.0137101 -4.74191e-05 0
0.0140622 -9.94669e-05 0
0.0144794 1.7695e-05 0
0.0141273 7.02565e-05 0
0.0148434 0.000275804 0
0.0133884 0.000298665 0
0.0144854 0.00017303 0
0.0141159 0.000287234 0
0.0137579 0.000184461 0
0.0141271 6.99836e-05 0
0.0133411 0.000251382 0
0.0132904 -0.000162098 0
0.0137341 0.000160683 0
0.0133158 4.46417e-05 0
0.0137088 -4.60573e-05 0
0.0138882 -0.00188359 0
0.0141174 -0.00227103 0
0.0146358 -0.000977738 0
0.0140028 -0.00207731 0
0.0143766 -0.00162438 0
0.014262 -0.00143067 0
0.0138888 -0.00188425 0
0.0146498 -0.000991693 0
0.0134014 -0.00126522 0
0.0142693 -0.00143797 0
0.0140256 -0.00112846 0
0.0136451 -0.00157473 0
0.0138868 -0.001885 0
0.0131181 -0.00302027 0
0.0140118 -0.00237665 0
0.0135025 -0.00245264 0
0.013565 -0.00269846 0
0.0139493 -0.00213083 0
0.0138874 -0.00188566 0
0.0134921 -0.00117455 0
0.0130934 -0.00299549 0
0.0136898 -0.0015301 0
0.0132927 -0.00208502 0
0.0134904 -0.00244057 0
0.0147344 -0.00127325 0
0.0147249 -0.000977738 0
0.0140226 -0.00227103 0
0.0147297 -0.00112549 0
0.0143738 -0.00162438 0
0.0143785 -0.00177214 0
0.0147357 -0.00127202 0
0.0153652 -0.000527132 0
0.0146408 -0.00106179 0
0.0150504 -0.000899577 0
0.015003 -0.000794463 0
0.0146882 -0.00116691 0
0.0147336 -0.00127238 0
0.014005 -0.00225341 0
0.0145169 -0.00130816 0
0.0143693 -0.0017629 0
0.0142609 -0.00178078 0
0.0146252 -0.00129027 0
0.0147348 -0.00127115 0
0.0146091 -0.00121596 0
0.0153867 -0.000548696 0
0.0146719 -0.00124356 0
0.0149979 -0.000882329 0
0.0150608 -0.000909925 0
0.012546 -0.00214349 0
0.0116575 -0.00105336 0
0.0116859 -0.0032052 0
0.0121017 -0.00159842 0
0.0116717 -0.00212928 0
0.0121159 -0.00267434 0
0.0125476 -0.00214193 0
0.0134175 -0.00123668 0
0.0115759 -0.0011349 0
0.0129825 -0.0016893 0
0.0124967 -0.00118579 0
0.0120617 -0.00163841 0
0.012546 -0.00214343 0
0.011772 -0.00329134 0
0.0131328 -0.00310427 0
0.012159 -0.00271738 0
0.0124524 -0.0031978 0
0.0128394 -0.00262385 0
0.0125475 -0.00214187 0
0.0132416 -0.00299549 0
0.0133553 -0.00117455 0
0.0128946 -0.00256868 0
0.0132985 -0.00208502 0
0.0129514 -0.00165821 0
0.0106018 -0.00192079 0
0.0118911 -0.0032052 0
0.0114742 -0.00105336 0
0.0112464 -0.00256299 0
0.0116827 -0.00212928 0
0.011038 -0.00148708 0
0.0106002 -0.00191922 0
0.0116004 -0.00117962 0
0.00907166 -0.000651339 0
0.0111003 -0.00154942 0
0.0103361 -0.00091548 0
0.00983593 -0.00128528 0
0.0106005 -0.00192203 0
0.00979585 -0.00289411 0
0.0118037 -0.00329261 0
0.0101982 -0.00240807 0
0.0107998 -0.00309336 0
0.0112021 -0.00260732 0
0.010599 -0.00192046 0
0.00911179 -0.00061121 0
0.00962161 -0.00271988 0
0.00985538 -0.00126583 0
0.0093667 -0.00166554 0
0.0101103 -0.00232017 0
0.0131089 -0.0038974 0
0.0140118 -0.00223588 0
0.0131181 -0.00314811 0
0.0135603 -0.00306664 0
0.013565 -0.002692 0
0.0131135 -0.00352275 0
0.0131072 -0.00389906 0
0.0132829 -0.00298333 0
0.01218 -0.00591767 0
0.0131951 -0.0034412 0
0.0127315 -0.0044505 0
0.0126436 -0.00490836 0
0.0131075 -0.00389599 0
0.0127632 -0.00424899 0
0.0140411 -0.00226515 0
0.0129353 -0.00407249 0
0.0134021 -0.00325707 0
0.0135743 -0.00308057 0
0.0131058 -0.00389766 0
0.0121522 -0.00588979 0
0.0125909 -0.0044213 0
0.012629 -0.00489372 0
0.0123715 -0.00515554 0
0.0128483 -0.00415948 0
0.012273 -0.00483024 0
0.0131328 -0.00300418 0
0.011772 -0.00336302 0
0.0127029 -0.00391721 0
0.0124524 -0.0031836 0
0.0120225 -0.00409663 0
0.0122714 -0.00482862 0
0.0123558 -0.00591767 0
0.013112 -0.00298333 0
0.0123136 -0.00537314 0
0.0127339 -0.0044505 0
0.0126917 -0.00390598 0
0.0122707 -0.00483256 0
0.0119579 -0.00317709 0
0.0114644 -0.00698157 0
0.0121143 -0.00400482 0
0.0117112 -0.00507933 0
0.0118676 -0.00590706 0
0.0122691 -0.00483094 0
0.0114931 -0.00701027 0
0.0121541 -0.00611934 0
0.0118811 -0.0059206 0
0.0118236 -0.0065648 0
0.0122116 -0.00547514 0
0.0151458 -0.000446502 0
0.0147543 0 0
0.0156473 0 0
0.0149501 -0.000223251 0
0.0152008 0 0
0.0153966 -0.000223251 0
0.0151468 -0.000447485 0
0.0155988 4.85123e-05 0
0.0153612 -0.00061792 0
0.0153728 -0.000199486 0
0.01548 -0.000284704 0
0.015254 -0.000532702 0
0.0151447 -0.00044759 0
0.0145141 -0.00116716 0
0.0146813 -7.30763e-05 0
0.0148294 -0.000807375 0
0.0145977 -0.000620118 0
0.014913 -0.000260333 0
0.0151457 -0.000448573 0
0.0154304 -0.000548696 0
0.0145629 -0.00121596 0
0.0152881 -0.000498635 0
0.0149967 -0.000882329 0
0.0148543 -0.000832267 0
0.0151458 0.000446502 0
0.0156473 0 0
0.0147543 0 0
0.0153966 0.000223251 0
0.0152008 0 0
0.0149501 0.000223251 0
0.0151468 0.000447485 0
0.0153612 0.00061792 0
0.0155988 -4.85123e-05 0
0.015254 0.000532702 0
0.01548 0.000284704 0
0.0153728 0.000199486 0
0.0151447 0.00044759 0
0.0146813 7.30763e-05 0
0.0145141 0.00116716 0
0.014913 0.000260333 0
0.0145977 0.000620118 0
0.0148294 0.000807375 0
0.0151457 0.000448573 0
0.0145629 0.00121596 0
0.0154304 0.000548696 0
0.0148543 0.000832267 0
0.0149967 0.000882329 0
0.0152881 0.000498635 0
0.0136319 -0.00251006 0
0.0145169 -0.00114874 0
0.014005 -0.00240686 0
0.0140744 -0.0018294 0
0.0142609 -0.0017778 0
0.0138184 -0.00245846 0
0.0136306 -0.00250879 0
0.0129899 -0.00221241 0
0.0145816 -0.00121345 0
0.0133102 -0.0023606 0
0.0137857 -0.00171293 0
0.0141061 -0.00186112 0
0.0136305 -0.00251144 0
0.0141467 -0.00226515 0
0.0126555 -0.00424899 0
0.0138886 -0.00238829 0
0.0134011 -0.00325707 0
0.013143 -0.00338021 0
0.0136292 -0.00251017 0
0.01259 -0.00418356 0
0.0128436 -0.00235868 0
0.0131096 -0.00334686 0
0.0127168 -0.00327112 0
0.0132364 -0.00243443 0
0.0138853 -0.000864645 0
0.0146813 9.31776e-05 0
0.0145141 -0.00133164 0
0.0142833 -0.000385734 0
0.0145977 -0.000619231 0
0.0141997 -0.00109814 0
0.013884 -0.000865895 0
0.0146323 -0.00121345 0
0.0129383 -0.00221241 0
0.0142582 -0.00103967 0
0.0137853 -0.00171293 0
0.0134111 -0.00153915 0
0.0138841 -0.000863428 0
0.0130476 0 0
0.0147744 0 0
0.0134658 -0.000431714 0
0.013911 0 0
0.0143293 -0.000431714 0
0.0138828 -0.000864678 0
0.0128432 -0.00211733 0
0.0129264 -0.000121226 0
0.013363 -0.001491 0
0.0128848 -0.00111928 0
0.0134046 -0.000492952 0
0.00124688 2.41236e-05 0
9.87416e-06 0 0
-3.8373e-05 0 0
0.000628376 1.20618e-05 0
-1.42494e-05 0 0
0.000604252 1.20618e-05 0
0.00125242 2.96618e-05 0
0.00269544 0.000138432 0
-2.11515e-05 -3.10256e-05 0
0.00197393 8.40467e-05 0
0.00133714 5.3703e-05 0
0.000615632 -6.81941e-07 0
0.00124135 2.96495e-05 0
-6.3581e-05 2.5208e-05 0
0.00246113 0.000110366 0
0.000588885 2.74287e-05 0
0.00119877 6.77868e-05 0
0.00185124 7.00075e-05 0
0.00124689 3.51877e-05 0
0.00250342 0.000152664 0
0.00270979 0.000124079 0
0.00187516 9.39257e-05 0
0.00260661 0.000138372 0
0.00197834 7.96336e-05 0
0.0010767 4.3116e-05 0
0.00246113 0.000187522 0
-6.3581e-05 -5.66286e-05 0
0.00176891 0.000115319 0
0.00119877 6.54467e-05 0
0.000506558 -6.7563e-06 0
0.00106526 5.45547e-05 0
0.00233347 0.000115043 0
0.00249402 0.000154624 0
0.00169936 8.47991e-05 0
0.00241374 0.000134834 0
0.00177964 0.000104589 0
0.00106622 3.26395e-05 0
-6.95239e-06 0 0
-7.22314e-05 0 0
0.000529634 1.63198e-05 0
-3.95919e-05 0 0
0.000496995 1.63198e-05 0
0.00105478 4.40783e-05 0
-0.000143404 7.11726e-05 0
0.00227128 5.28591e-05 0
0.000455689 5.76255e-05 0
0.00106394 6.20159e-05 0
0.00166303 4.84687e-05 0
0.00401205 0.000188654 0
0.00558069 0.000232405 0
0.00250195 0.000173865 0
0.00479637 0.00021053 0
0.00404132 0.000203135 0
0.003257 0.00018126 0
0.00401337 0.000189975 0
0.00248271 0.000154624 0
0.00237243 0.000115043 0
0.00324804 0.000172299 0
0.00242757 0.000134834 0
0.0031929 0.000152509 0
0.00401213 0.000188573 0
0.00579178 -0.000142282 0
0.00554272 0.000270368 0
0.00490196 2.31455e-05 0
0.00566725 6.40431e-05 0
0.00477743 0.00022947 0
0.00401345 0.000189893 0
0.00239072 9.67496e-05 0
0.0058335 -0.000100568 0
0.00320208 0.000143322 0
0.00411211 -1.90943e-06 0
0.00492347 4.46625e-05 0
0.00788308 -0.00117333 0
0.00582604 -5.31186e-05 0
0.00658816 -0.00153143 0
0.00685456 -0.000613227 0
0.0062071 -0.000792275 0
0.00723562 -0.00135238 0
0.00788063 -0.00117578 0
0.00909237 -0.00080244 0
0.00587281 -6.3459e-06 0
0.0084865 -0.000989108 0
0.00748259 -0.000404393 0
0.00687672 -0.000591061 0
0.00788891 -0.00117917 0
0.00684537 -0.00178865 0
0.00986634 -0.00272254 0
0.00736714 -0.00148391 0
0.00835586 -0.00225559 0
0.00887762 -0.00195085 0
0.00788647 -0.00118161 0
0.009869 -0.00271988 0
0.00890114 -0.00061121 0
0.00887773 -0.00195074 0
0.00938507 -0.00166554 0
0.0083938 -0.000896411 0
0.00434686 -0.000239952 0
0.00677219 -0.00153143 0
0.00566754 -5.31186e-05 0
0.00555952 -0.000885692 0
0.00621986 -0.000792275 0
0.0050072 -0.000146535 0
0.00433735 -0.00023044 0
0.0058335 -0.000219073 0
0.00239072 0.000231411 0
0.00508542 -0.000224756 0
0.00411211 6.16938e-06 0
0.00336403 4.85854e-07 0
0.00435768 -0.000229132 0
0.00281254 -0.000390965 0
0.00690774 -0.00139588 0
0.00358511 -0.000310048 0
0.00486014 -0.000893422 0
0.00563271 -0.000812505 0
0.00434817 -0.000219619 0
0.00229774 0.000138428 0
0.00264849 -0.000226913 0
0.00332295 -4.05953e-05 0
0.00247311 -4.42423e-05 0
0.00349833 -0.000223266 0
0.00909315 -0.00427492 0
0.00986634 -0.00290718 0
0.00684537 -0.0014326 0
0.00947974 -0.00359105 0
0.00835586 -0.00216989 0
0.00796926 -0.00285376 0
0.00909512 -0.00427689 0
0.0107977 -0.00709543 0
0.00960759 -0.00264844 0
0.0099464 -0.00568616 0
0.0102026 -0.00487193 0
0.00935136 -0.00346267 0
0.00908661 -0.00428145 0
0.00694923 -0.00132875 0
0.00852596 -0.00565743 0
0.00801792 -0.0028051 0
0.00773759 -0.00349309 0
0.00880628 -0.00496944 0
0.00908858 -0.00428343 0
0.00892484 -0.00605631 0
0.0105446 -0.00734855 0
0.00900671 -0.00516987 0
0.0097347 -0.00670243 0
0.00981657 -0.00581599 0
0.0110205 -0.00506349 0
0.0118037 -0.00328033 0
0.00979585 -0.00283886 0
0.0114121 -0.00417191 0
0.0107998 -0.0030596 0
0.0104082 -0.00395118 0
0.0110168 -0.00506716 0
0.00998627 -0.00264844 0
0.0103767 -0.00709543 0
0.0105016 -0.0038578 0
0.0101815 -0.00487193 0
0.0106968 -0.0060813 0
0.0110192 -0.00506213 0
0.0117349 -0.00698157 0
0.0117005 -0.00317709 0
0.011377 -0.00602185 0
0.0117177 -0.00507933 0
0.0113598 -0.00411961 0
0.0110155 -0.0050658 0
0.0105142 -0.00723289 0
0.0115002 -0.00721627 0
0.0107648 -0.00614934 0
0.0110072 -0.00722458 0
0.0112578 -0.00614104 0
0.000909726 3.5264e-05 0
-5.72947e-05 0 0
-0.000127823 0 0
0.000426216 1.7632e-05 0
-9.25587e-05 0 0
0.000390952 1.7632e-05 0
0.000928867 5.44051e-05 0
0.00227128 0.000184034 0
-0.000143404 -8.61094e-05 0
0.00160007 0.000119219 0
0.00106394 4.89622e-05 0
0.000392731 -1.58522e-05 0
0.000885695 5.92948e-05 0
-0.000299725 0.000171902 0
0.00251609 -0.000273069 0
0.000292985 0.000115598 0
0.00110818 -5.05835e-05 0
0.00170089 -0.000106887 0
0.000904836 7.84358e-05 0
0.00256224 -0.000226913 0
0.00231689 0.000138428 0
0.00173354 -7.42386e-05 0
0.00243956 -4.42423e-05 0
0.00161086 0.000108432 0
0.00588841 -0.00209532 0
0.00690774 -0.00180621 0
0.00281254 0.000250336 0
0.00639808 -0.00195076 0
0.00486014 -0.000777936 0
0.00435048 -0.00092249 0
0.00590233 -0.0020814 0
0.00260036 3.81559e-05 0
0.00446659 -0.00233474 0
0.00425134 -0.00102162 0
0.00353347 -0.00114829 0
0.00518446 -0.00220807 0
0.00591705 -0.00212395 0
0.00916856 -0.00565743 0
0.00643028 -0.00132875 0
0.0075428 -0.00389069 0
0.00779942 -0.00349309 0
0.00617366 -0.00172635 0
0.00593096 -0.00211004 0
0.00523683 -0.00310499 0
0.00917304 -0.00565294 0
0.0055839 -0.00260751 0
0.00720494 -0.00437896 0
0.007552 -0.00388149 0
0.00116188 -6.85067e-07 0
0.00251609 -0.000152504 0
-0.000299725 -4.51086e-05 0
0.00183898 -7.65945e-05 0
0.00110818 -9.88062e-05 0
0.000431077 -2.28968e-05 0
0.00110054 6.06514e-05 0
0.00474331 -0.00233474 0
0.00232543 3.81559e-05 0
0.00292193 -0.00113704 0
0.00353437 -0.00114829 0
0.00171298 4.94036e-05 0
0.00113711 -2.54491e-05 0
-0.000254616 0 0
-0.000203718 0 0
0.000441249 -1.27245e-05 0
-0.000229167 0 0
0.000466698 -1.27245e-05 0
0.00107578 3.58874e-05 0
-0.000720891 0.000517173 0
0.00523384 -0.00184422 0
0.000177444 0.00027653 0
0.00225647 -0.000663522 0
0.00315481 -0.000904164 0
0.0274021 -0.0142434 0
0.0593352 -0.0507484 0
0.00934334 -0.0646228 0
0.0433687 -0.0324959 0
0.0343393 -0.0576856 0
0.0183727 -0.0394331 0
0.0250971 -0.0165484 0
0.0320503 -0.0419158 0
0.013895 -0.00933628 0
0.0285737 -0.0292321 0
0.0229726 -0.0256261 0
0.0194961 -0.0129423 0
0.0227575 -0.00959883 0
-0.0106109 0 0
0.0085868 0 0
0.00607334 -0.00479941 0
-0.00101203 0 0
0.0156722 -0.00479941 0
0.0204526 -0.0119038 0
0.0179204 -0.0133618 0
-0.00049398 0.0101169 0
0.0191865 -0.0126328 0
0.00871323 -0.00162245 0
0.00997929 -0.000893467 0
0.00476079 -0.000418738 0
-0.00107419 0 0
-0.000236711 0 0
0.0018433 -0.000209369 0
-0.000655449 0 0
0.00226204 -0.000209369 0
0.00478378 -0.000441731 0
-0.00049398 0.000257269 0
0.0179204 -0.00760163 0
0.0021449 -9.2231e-05 0
0.00871323 -0.00367218 0
0.0113521 -0.00402168 0
0.0046253 -0.000554231 0
0.00631376 -0.00252447 0
-0.000330907 0.000743281 0
0.00546953 -0.00153935 0
0.00299143 -0.000890592 0
0.0021472 9.45246e-05 0
0.00464829 -0.000577223 0
0.0151062 -0.0104159 0
0.004817 -0.00102771 0
0.00987723 -0.00549656 0
0.00996159 -0.00572181 0
0.00473265 -0.000802466 0
0.00193917 -6.40411e-05 0
-0.000330907 0.000278586 0
0.00631376 -0.00182592 0
0.000804133 0.000107272 0
0.00299143 -0.000773667 0
0.00412647 -0.000944981 0
0.00194756 -5.56572e-05 0
0.00597757 -0.00216211 0
0.00356933 -0.000357454 0
0.00396256 -0.00110888 0
0.00477345 -0.00125978 0
0.00275844 -0.000206555 0
0.00196777 -9.26375e-05 0
-0.000237596 0 0
-5.23213e-05 0 0
0.000865087 -4.63188e-05 0
-0.000144959 0 0
0.000957724 -4.63188e-05 0
0.00197615 -8.42536e-05 0
0.00367133 -0.00045946 0
-0.00020804 2.95561e-05 0
0.00282374 -0.000271857 0
0.00173165 -0.000214952 0
0.000884057 -2.73487e-05 0
0.00144773 -8.67223e-07 0
-7.77235e-05 0 0
-7.59891e-05 0 0
0.000685002 -4.33612e-07 0
-7.68563e-05 0 0
0.00068587 -4.33612e-07 0
0.00143045 1.64089e-05 0
-0.00020804 0.000132051 0
0.00367133 -0.000470336 0
0.000611206 7.423e-05 0
0.00173165 -0.000169143 0
0.00255089 -0.000226964 0
0.00146019 1.1599e-05 0
0.00302021 -3.96652e-05 0
-0.000108605 -3.08818e-05 0
0.0022402 -1.40331e-05 0
0.0014558 -3.52735e-05 0
0.000675795 -9.64138e-06 0
0.00144292 2.88752e-05 0
0.00365019 -0.000491481 0
0.00304075 -6.02054e-05 0
0.00254655 -0.000231303 0
0.00334547 -0.000275843 0
0.00224183 -1.56651e-05 0
0.00137605 2.21872e-05 0
-0.000108605 6.16773e-05 0
0.00302021 -9.78235e-05 0
0.000633723 4.19323e-05 0
0.0014558 -1.80731e-05 0
0.00219813 -3.78182e-05 0
0.00138363 2.97615e-05 0
0.00303899 -7.90475e-05 0
0.00293336 3.29422e-05 0
0.00221131 -2.4643e-05 0
0.00298617 -2.30527e-05 0
0.00215849 3.13518e-05 0
0.0013851 1.31366e-05 0
-2.06548e-05 0 0
-4.6928e-05 0 0
0.000682224 6.56831e-06 0
-3.37914e-05 0 0
0.000669087 6.56831e-06 0
0.00139268 2.07109e-05 0
0.0029134 5.28972e-05 0
-4.79033e-05 -2.72485e-05 0
0.00215304 3.6804e-05 0
0.00143275 1.28243e-05 0
0.000672387 -3.26883e-06 0
0.00143159 1.20882e-05 0
3.69698e-07 0 0
-2.38068e-05 0 0
0.00071598 6.04412e-06 0
-1.17185e-05 0 0
0.000703892 6.04412e-06 0
0.0014269 1.67795e-05 0
-4.79033e-05 2.40966e-05 0
0.0029134 1.23941e-05 0
0.000689498 2.0438e-05 0
0.00143275 1.82454e-05 0
0.00217015 1.45868e-05 0
0.00143591 1.64036e-05 0
0.00295563 5.49144e-05 0
-1.42688e-05 -1.46385e-05 0
0.00219577 3.5659e-05 0
0.00147068 2.0138e-05 0
0.000710818 8.82543e-07 0
0.00143121 2.10949e-05 0
0.00293066 2.96488e-05 0
0.00296433 4.6215e-05 0
0.00218094 2.53718e-05 0
0.0029475 3.79319e-05 0
0.00219777 3.36549e-05 0
0.00148582 1.04739e-05 0
-1.42688e-05 5.83222e-06 0
0.00295563 3.61181e-05 0
0.000735778 8.15304e-06 0
0.00147068 2.09752e-05 0
0.00222073 2.3296e-05 0
0.0014882 1.28475e-05 0
0.00296516 4.56488e-05 0
0.00301388 2.8761e-05 0
0.00222668 2.92482e-05 0
0.00298952 3.72049e-05 0
0.00225104 2.08042e-05 0
0.00148816 8.13968e-06 0
7.84278e-06 0 0
-8.43658e-06 0 0
0.000748001 4.06984e-06 0
-2.96901e-07 0 0
0.000739861 4.06984e-06 0
0.00149053 1.05133e-05 0
0.00301208 3.0556e-05 0
3.69047e-06 -4.15231e-06 0
0.00225131 2.05346e-05 0
0.00150789 1.32018e-05 0
0.000747112 3.1805e-06 0
0.00152251 3.22055e-06 0
8.56828e-06 0 0
2.12719e-06 0 0
0.000765538 1.61027e-06 0
5.34774e-06 0 0
0.000762318 1.61027e-06 0
0.00152162 4.11231e-06 0
3.69047e-06 -1.56327e-06 0
0.00301208 2.58965e-05 0
0.000762654 1.27452e-06 0
0.00150789 1.21666e-05 0
0.00226685 1.50044e-05 0
0.00152361 4.32304e-06 0
0.00303128 -1.9108e-06 0
1.12995e-05 2.73121e-06 0
0.00227745 1.20612e-06 0
0.00152129 4.10205e-07 0
0.000767455 3.52713e-06 0
0.00152272 5.2148e-06 0
0.00301493 2.87419e-05 0
0.00303131 -1.93566e-06 0
0.00226882 1.69784e-05 0
0.00302312 1.34031e-05 0
0.00227701 1.63957e-06 0
0.00152191 -2.4362e-06 0
1.12995e-05 -2.07116e-06 0
0.00303128 -8.22343e-07 0
0.000766607 -2.25368e-06 0
0.00152129 -1.44675e-06 0
0.0022766 -1.62927e-06 0
0.00152198 -2.3697e-06 0
0.00303031 -1.79262e-06 0
0.0029936 -3.96565e-05 0
0.00227615 -2.08116e-06 0
0.00301196 -2.07246e-05 0
0.00225779 -2.10131e-05 0
0.00152169 -2.21375e-06 0
4.80084e-06 0 0
9.22834e-06 0 0
0.000763246 -1.10687e-06 0
7.01459e-06 0 0
0.00076546 -1.10687e-06 0
0.00152176 -2.14724e-06 0
0.0029906 -3.66595e-05 0
1.05274e-05 5.72656e-06 0
0.00225618 -1.94034e-05 0
0.00150057 -1.54665e-05 0
0.000766143 1.78966e-06 0
0.00446808 -4.21376e-05 0
0.00303034 6.4648e-07 0
0.00593462 -2.81443e-05 0
0.00374921 -2.07455e-05 0
0.00448248 -1.37489e-05 0
0.00520135 -3.51409e-05 0
0.00446793 -4.19824e-05 0
0.00299027 -3.96565e-05 0
0.00303278 -1.79262e-06 0
0.0037291 -4.08195e-05 0
0.00301152 -2.07246e-05 0
0.00375036 -2.18875e-05 0
0.00446784 -4.23785e-05 0
0.00593454 -2.8224e-05 0
0.005872 -0.000119068 0
0.00520119 -3.53013e-05 0
0.00590327 -7.36461e-05 0
0.00516992 -8.07233e-05 0
0.00446769 -4.22233e-05 0
0.00587063 -0.000117692 0
0.00298849 -4.14314e-05 0
0.00516916 -7.99574e-05 0
0.00442956 -7.95614e-05 0
0.00372809 -4.18274e-05 0
0.00438488 -0.000115506 0
0.00587299 -0.000120526 0
0.00576655 -0.000216931 0
0.00512894 -0.000118016 0
0.00581977 -0.000168728 0
0.00507571 -0.000166219 0
0.0043856 -0.000114785 0
0.00298849 -3.49709e-05 0
0.00587063 -0.000122894 0
0.00368704 -7.4878e-05 0
0.00442956 -7.89323e-05 0
0.00512811 -0.000118839 0
0.00438428 -0.000114909 0
0.00576286 -0.000213246 0
0.00288 -8.75524e-05 0
0.00507357 -0.000164077 0
0.00432143 -0.000150399 0
0.00363214 -0.000101231 0
0.004385 -0.000114188 0
0.00288579 -8.1762e-05 0
0.00299296 -3.94421e-05 0
0.0036354 -9.79749e-05 0
0.00293938 -6.0602e-05 0
0.00368898 -7.6815e-05 0
0.00722054 -0.000218697 0
0.00577166 -0.000216931 0
0.0058716 -0.000120526 0
0.0064961 -0.000217814 0
0.00582163 -0.000168728 0
0.00654607 -0.000169611 0
0.0072206 -0.00021875 0
0.0058791 -0.000128032 0
0.00861882 -0.000184764 0
0.00654985 -0.000173391 0
0.00724896 -0.000156398 0
0.00791971 -0.000201757 0
0.00722024 -0.000219 0
0.00856903 -0.000308996 0
0.00577552 -0.000213069 0
0.00789464 -0.000263998 0
0.00717228 -0.000261033 0
0.00649788 -0.000216035 0
0.00722029 -0.000219053 0
0.00861036 -0.000193229 0
0.00855764 -0.000297599 0
0.00791533 -0.000206141 0
0.008584 -0.000245414 0
0.00788896 -0.000258326 0
0.00147856 -8.34941e-06 0
-3.22283e-06 0 0
1.3476e-05 0 0
0.000737668 -4.1747e-06 0
5.12657e-06 0 0
0.000746018 -4.1747e-06 0
0.00147993 -9.72477e-06 0
1.05274e-05 2.94858e-06 0
0.0029906 -3.83123e-05 0
0.000745231 -3.3881e-06 0
0.00150057 -1.76819e-05 0
0.00223527 -2.40186e-05 0
0.0014775 -9.40983e-06 0
0.0028791 -7.10236e-05 0
8.25138e-07 4.04797e-06 0
0.0021783 -4.02167e-05 0
0.00143996 -3.34878e-05 0
0.000739162 -2.68093e-06 0
0.00147887 -1.07852e-05 0
0.00298947 -3.94421e-05 0
0.00288984 -8.1762e-05 0
0.00223417 -2.51137e-05 0
0.00293966 -6.0602e-05 0
0.00218436 -4.62736e-05 0
0.00424747 -0.000188206 0
0.00288 -7.5289e-05 0
0.00576286 -0.000223205 0
0.00356374 -0.000131748 0
0.00432143 -0.000149247 0
0.00500517 -0.000205706 0
0.00424653 -0.000187259 0
0.00271735 -0.000124123 0
0.00288623 -8.15156e-05 0
0.00348194 -0.000155691 0
0.00280179 -0.000102819 0
0.00356638 -0.000134387 0
0.00424623 -0.000189448 0
0.005766 -0.00022007 0
0.00563919 -0.000285639 0
0.00500612 -0.000204759 0
0.00570259 -0.000252855 0
0.00494271 -0.000237544 0
0.00424528 -0.000188501 0
0.00563577 -0.000282223 0
0.00270702 -0.000134447 0
0.00494053 -0.000235362 0
0.0041714 -0.000208335 0
0.00347615 -0.000161474 0
0.0013907 -1.84622e-05 0
8.25138e-07 1.36078e-05 0
0.0028791 -8.491e-05 0
0.000695765 -2.42716e-06 0
0.00143996 -3.56511e-05 0
0.0021349 -5.16861e-05 0
0.00138802 -2.11471e-05 0
0.0028825 -8.15156e-05 0
0.00271915 -0.000124123 0
0.00213526 -5.13313e-05 0
0.00280082 -0.000102819 0
0.00205359 -7.26351e-05 0
0.00138776 -1.55142e-05 0
-1.65955e-05 0 0
1.4433e-05 0 0
0.000685581 -7.75711e-06 0
-1.08124e-06 0 0
0.000701095 -7.75711e-06 0
0.00138507 -1.81991e-05 0
0.00269544 -0.000100411 0
-2.11515e-05 -4.55602e-06 0
0.00204026 -5.93052e-05 0
0.00133714 -5.24836e-05 0
0.00068196 -1.13776e-05 0
0.00714316 -0.000311012 0
0.00577552 -0.000231723 0
0.00856903 -0.000289966 0
0.00645934 -0.000271367 0
0.00717228 -0.000260844 0
0.00785609 -0.000300489 0
0.00714308 -0.000311087 0
0.00855351 -0.00030549 0
0.00854603 -0.000324159 0
0.00784829 -0.000308289 0
0.00854977 -0.000314825 0
0.00784456 -0.000317623 0
0.00714337 -0.000311223 0
0.00564713 -0.000285639 0
0.00576387 -0.00022007 0
0.00639525 -0.000298431 0
0.0057055 -0.000252855 0
0.00645362 -0.000265646 0
0.00714329 -0.000311297 0
0.00856267 -0.000340794 0
0.00565795 -0.000274825 0
0.00785298 -0.000326045 0
0.00711031 -0.000307809 0
0.00640062 -0.000293061 0
0.00986804 -0.00032255 0
0.00858139 -0.000327372 0
0.011105 -0.000277705 0
0.00922471 -0.000324961 0
0.0098432 -0.000302538 0
0.0104865 -0.000300127 0
0.00986851 -0.000323028 0
0.0085431 -0.000324159 0
0.00855951 -0.00030549 0
0.00920581 -0.000323593 0
0.0085513 -0.000314825 0
0.00921401 -0.000314259 0
0.00986851 -0.000322078 0
0.011073 -0.00030969 0
0.0111545 -0.000253011 0
0.0104708 -0.000315884 0
0.0111138 -0.000281351 0
0.0105115 -0.000287544 0
0.00986899 -0.000322556 0
0.0111774 -0.000275954 0
0.00857592 -0.000291336 0
0.0105232 -0.000299255 0
0.00987668 -0.000283645 0
0.00922245 -0.000306946 0
0.0123245 -3.18568e-05 0
0.0112721 0.000103692 0
0.0111681 -0.000271369 0
0.0117983 3.59178e-05 0
0.0112201 -8.38384e-05 0
0.0117463 -0.000151613 0
0.0123243 -3.16783e-05 0
0.0111805 -0.000283809 0
0.0132948 -0.000110597 0
0.0117524 -0.000157744 0
0.0122377 -0.000197203 0
0.0128096 -7.11379e-05 0
0.0123252 -3.10796e-05 0
0.0133976 0.000248164 0
0.0113347 0.000166327 0
0.0128614 0.000108542 0
0.0123662 0.000207246 0
0.01183 6.76238e-05 0
0.0123251 -3.09012e-05 0
0.0132433 -0.000162098 0
0.0133944 0.000251382 0
0.0127842 -9.64997e-05 0
0.0133189 4.46417e-05 0
0.0128597 0.00011024 0
0.009952 -0.000184014 0
0.0111227 -0.000271369 0
0.0113231 0.000103692 0
0.0105374 -0.000227692 0
0.0112229 -8.38384e-05 0
0.0106375 -4.01609e-05 0
0.00995079 -0.000185229 0
0.00857592 -0.000364875 0
0.0111774 -0.000216652 0
0.00926336 -0.000275052 0
0.00987668 -0.000290764 0
0.0105641 -0.00020094 0
0.00995282 -0.000184835 0
0.0113421 8.46747e-05 0
0.00869553 -4.72881e-05 0
0.0106475 -5.00802e-05 0
0.0100188 1.86933e-05 0
0.00932418 -0.000116062 0
0.00995161 -0.00018605 0
0.00863209 -0.000110731 0
0.00855225 -0.000341204 0
0.00929185 -0.00014839 0
0.00859217 -0.000225967 0
0.00925193 -0.000263627 0
0.0124687 0.000652409 0
0.0113347 9.02453e-05 0
0.0133976 0.000295384 0
0.0119017 0.000371327 0
0.0123662 0.000192815 0
0.0129332 0.000473897 0
0.0124695 0.000653163 0
0.0133331 0.000230838 0
0.0134538 0.00119621 0
0.0129013 0.000442001 0
0.0133934 0.000713524 0
0.0129616 0.000924687 0
0.0124683 0.000652828 0
0.0114911 0.00109249 0
0.0113514 7.35028e-05 0
0.0119797 0.000872659 0
0.0114213 0.000582997 0
0.0119099 0.000363165 0
0.0124691 0.000653582 0
0.0134175 0.00123255 0
0.0115759 0.00117731 0
0.0129433 0.000943068 0
0.0124967 0.00120493 0
0.0120225 0.000915446 0
0.0141297 0.000679736 0
0.0133884 0.000263647 0
0.0148434 0.00029125 0
0.0137591 0.000471692 0
0.0141159 0.000277448 0
0.0144866 0.000485493 0
0.0141289 0.000680506 0
0.0133552 0.00119621 0
0.0134212 0.000230838 0
0.0137421 0.000938358 0
0.0133882 0.000713524 0
0.0137751 0.000455672 0
0.0141297 0.00067973 0
0.0148094 0.000257247 0
0.0146964 0.000989185 0
0.0144696 0.000468489 0
0.0147529 0.000623216 0
0.0144131 0.000834457 0
0.0141289 0.000680501 0
0.0146498 0.00103578 0
0.0134014 0.00124244 0
0.0143894 0.000858138 0
0.0140256 0.00113911 0
0.0137652 0.000961471 0
0.00711948 -0.000294952 0
0.00868832 -0.000138716 0
0.00561727 -0.000205342 0
0.0079039 -0.000216834 0
0.00715279 -0.000172029 0
0.00636837 -0.000250147 0
0.00711846 -0.000293937 0
0.00852439 -0.000341204 0
0.00866033 -0.000110731 0
0.00782143 -0.00031757 0
0.00859236 -0.000225967 0
0.0078894 -0.000202334 0
0.00711865 -0.000295776 0
0.0055804 -0.00024221 0
0.00563505 -0.000294694 0
0.00634953 -0.000268993 0
0.00560772 -0.000268452 0
0.00637685 -0.000295235 0
0.00711764 -0.000294761 0
0.00565795 -0.000317593 0
0.00856267 -0.000302929 0
0.00638779 -0.000306177 0
0.00711031 -0.000310261 0
0.00784015 -0.000298845 0
0.0101822 0.000403039 0
0.00869553 -0.000161781 0
0.0113421 0.000165031 0
0.00943887 0.000120629 0
0.0100188 1.62518e-06 0
0.0107621 0.000284035 0
0.0101829 0.000402367 0
0.00895458 0.000679111 0
0.00868135 -0.000147606 0
0.00956873 0.000540739 0
0.00881797 0.000265752 0
0.00943212 0.00012738 0
0.0101842 0.000405057 0
0.0112506 7.35028e-05 0
0.0116064 0.00109249 0
0.0107174 0.00023928 0
0.0114285 0.000582997 0
0.0108953 0.000748774 0
0.0101849 0.000404384 0
0.0116004 0.00109849 0
0.00907166 0.000796189 0
0.0108927 0.000751435 0
0.0103361 0.000947338 0
0.00962828 0.000600287 0
0.00728157 3.4203e-05 0
0.00561727 -0.000312401 0
0.00868832 -5.48471e-05 0
0.00644942 -0.000139099 0
0.00715279 -0.000183624 0
0.00798494 -1.03221e-05 0
0.00728464 3.72755e-05 0
0.00859556 -0.000147606 0
0.00905251 0.000679111 0
0.0079401 -5.51652e-05 0
0.00882403 0.000265752 0
0.00816858 0.000358193 0
0.00728418 3.15928e-05 0
0.00576651 0.000142282 0
0.00557523 -0.000270368 0
0.00652534 8.69373e-05 0
0.00567087 -6.40431e-05 0
0.00642971 -0.000119388 0
0.00728725 3.46653e-05 0
0.00909237 0.000639255 0
0.00587281 0.000248583 0
0.00818981 0.00033696 0
0.00748259 0.000443919 0
0.00658003 0.000141624 0
0.00408486 -0.000239583 0
0.00563219 -0.000294694 0
0.00557446 -0.00024221 0
0.00485853 -0.000267138 0
0.00560332 -0.000268452 0
0.00482966 -0.000240896 0
0.00408636 -0.000238088 0
0.00270702 -0.00012104 0
0.00563577 -0.000291117 0
0.00339669 -0.000179564 0
0.0041714 -0.000206079 0
0.00486106 -0.000264603 0
0.00408405 -0.000238769 0
0.00558069 -0.00024844 0
0.00250195 -0.000162971 0
0.00483237 -0.000243605 0
0.00404132 -0.000205706 0
0.003293 -0.00020087 0
0.00408555 -0.000237275 0
0.00251226 -0.000152664 0
0.00271006 -0.000124079 0
0.0032989 -0.000194969 0
0.00261116 -0.000138372 0
0.0033978 -0.000180677 0
0.0138882 0.00188359 0
0.0146358 0.000977738 0
0.0141174 0.00227103 0
0.014262 0.00143067 0
0.0143766 0.00162438 0
0.0140028 0.00207731 0
0.0138888 0.00188425 0
0.0134014 0.00126522 0
0.0146498 0.000991693 0
0.0136451 0.00157473 0
0.0140256 0.00112846 0
0.0142693 0.00143797 0
0.0138868 0.001885 0
0.0140118 0.00237665 0
0.0131181 0.00302027 0
0.0139493 0.00213083 0
0.013565 0.00269846 0
0.0135025 0.00245264 0
0.0138874 0.00188566 0
0.0130934 0.00299549 0
0.0134921 0.00117455 0
0.0134904 0.00244057 0
0.0132927 0.00208502 0
0.0136898 0.0015301 0
0.0147344 0.00127325 0
0.0140226 0.00227103 0
0.0147249 0.000977738 0
0.0143785 0.00177214 0
0.0143738 0.00162438 0
0.0147297 0.00112549 0
0.0147357 0.00127202 0
0.0146408 0.00106179 0
0.0153652 0.000527132 0
0.0146882 0.00116691 0
0.015003 0.000794463 0
0.0150504 0.000899577 0
0.0147336 0.00127238 0
0.0145169 0.00130816 0
0.014005 0.00225341 0
0.0146252 0.00129027 0
0.0142609 0.00178078 0
0.0143693 0.0017629 0
0.0147348 0.00127115 0
0.0153867 0.000548696 0
0.0146091 0.00121596 0
0.0150608 0.000909925 0
0.0149979 0.000882329 0
0.0146719 0.00124356 0
0.012546 0.00214349 0
0.0116859 0.0032052 0
0.0116575 0.00105336 0
0.0121159 0.00267434 0
0.0116717 0.00212928 0
0.0121017 0.00159842 0
0.0125476 0.00214193 0
0.0115759 0.0011349 0
0.0134175 0.00123668 0
0.0120617 0.00163841 0
0.0124967 0.00118579 0
0.0129825 0.0016893 0
0.012546 0.00214343 0
0.0131328 0.00310427 0
0.011772 0.00329134 0
0.0128394 0.00262385 0
0.0124524 0.0031978 0
0.012159 0.00271738 0
0.0125475 0.00214187 0
0.0133553 0.00117455 0
0.0132416 0.00299549 0
0.0129514 0.00165821 0
0.0132985 0.00208502 0
0.0128946 0.00256868 0
0.0106018 0.00192079 0
0.0114742 0.00105336 0
0.0118911 0.0032052 0
0.011038 0.00148708 0
0.0116827 0.00212928 0
0.0112464 0.00256299 0
0.0106002 0.00191922 0
0.00907166 0.000651339 0
0.0116004 0.00117962 0
0.00983593 0.00128528 0
0.0103361 0.00091548 0
0.0111003 0.00154942 0
0.0106005 0.00192203 0
0.0118037 0.00329261 0
0.00979585 0.00289411 0
0.0112021 0.00260732 0
0.0107998 0.00309336 0
0.0101982 0.00240807 0
0.010599 0.00192046 0
0.00962161 0.00271988 0
0.00911179 0.00061121 0
0.0101103 0.00232017 0
0.0093667 0.00166554 0
0.00985538 0.00126583 0
0.0131089 0.0038974 0
0.0131181 0.00314811 0
0.0140118 0.00223588 0
0.0131135 0.00352275 0
0.013565 0.002692 0
0.0135603 0.00306664 0
0.0131072 0.00389906 0
0.01218 0.00591767 0
0.0132829 0.00298333 0
0.0126436 0.00490836 0
0.0127315 0.0044505 0
0.0131951 0.0034412 0
0.0131075 0.00389599 0
0.0140411 0.00226515 0
0.0127632 0.00424899 0
0.0135743 0.00308057 0
0.0134021 0.00325707 0
0.0129353 0.00407249 0
0.0131058 0.00389766 0
0.0125909 0.0044213 0
0.0121522 0.00588979 0
0.0128483 0.00415948 0
0.0123715 0.00515554 0
0.012629 0.00489372 0
0.012273 0.00483024 0
0.011772 0.00336302 0
0.0131328 0.00300418 0
0.0120225 0.00409663 0
0.0124524 0.0031836 0
0.0127029 0.00391721 0
0.0122714 0.00482862 0
0.013112 0.00298333 0
0.0123558 0.00591767 0
0.0126917 0.00390598 0
0.0127339 0.0044505 0
0.0123136 0.00537314 0
0.0122707 0.00483256 0
0.0114644 0.00698157 0
0.0119579 0.00317709 0
0.0118676 0.00590706 0
0.0117112 0.00507933 0
0.0121143 0.00400482 0
0.0122691 0.00483094 0
0.0121541 0.00611934 0
0.0114931 0.00701027 0
0.0122116 0.00547514 0
0.0118236 0.0065648 0
0.0118811 0.0059206 0
0.0136319 0.00251006 0
0.014005 0.00240686 0
0.0145169 0.00114874 0
0.0138184 0.00245846 0
0.0142609 0.0017778 0
0.0140744 0.0018294 0
0.0136306 0.00250879 0
0.0145816 0.00121345 0
0.0129899 0.00221241 0
0.0141061 0.00186112 0
0.0137857 0.00171293 0
0.0133102 0.0023606 0
0.0136305 0.00251144 0
0.0126555 0.00424899 0
0.0141467 0.00226515 0
0.013143 0.00338021 0
0.0134011 0.00325707 0
0.0138886 0.00238829 0
0.0136292 0.00251017 0
0.0128436 0.00235868 0
0.01259 0.00418356 0
0.0132364 0.00243443 0
0.0127168 0.00327112 0
0.0131096 0.00334686 0
0.0138853 0.000864645 0
0.0145141 0.00133164 0
0.0146813 -9.31776e-05 0
0.0141997 0.00109814 0
0.0145977 0.000619231 0
0.0142833 0.000385734 0
0.013884 0.000865895 0
0.0129383 0.00221241 0
0.0146323 0.00121345 0
0.0134111 0.00153915 0
0.0137853 0.00171293 0
0.0142582 0.00103967 0
0.0138841 0.000863428 0
0.0147744 0 0
0.0130476 0 0
0.0143293 0.000431714 0
0.013911 0 0
0.0134658 0.000431714 0
0.0138828 0.000864678 0
0.0129264 0.000121226 0
0.0128432 0.00211733 0
0.0134046 0.000492952 0
0.0128848 0.00111928 0
0.013363 0.001491 0
0.00124688 -2.41236e-05 0
-3.8373e-05 0 0
9.87416e-06 0 0
0.000604252 -1.20618e-05 0
-1.42494e-05 0 0
0.000628376 -1.20618e-05 0
0.00125242 -2.96618e-05 0
-2.11515e-05 3.10256e-05 0
0.00269544 -0.000138432 0
0.000615632 6.81941e-07 0
0.00133714 -5.3703e-05 0
0.00197393 -8.40467e-05 0
0.00124135 -2.96495e-05 0
0.00246113 -0.000110366 0
-6.3581e-05 -2.5208e-05 0
0.00185124 -7.00075e-05 0
0.00119877 -6.77868e-05 0
0.000588885 -2.74287e-05 0
0.00124689 -3.51877e-05 0
0.00270979 -0.000124079 0
0.00250342 -0.000152664 0
0.00197834 -7.96336e-05 0
0.00260661 -0.000138372 0
0.00187516 -9.39257e-05 0
0.0010767 -4.3116e-05 0
-6.3581e-05 5.66286e-05 0
0.00246113 -0.000187522 0
0.000506558 6.7563e-06 0
0.00119877 -6.54467e-05 0
0.00176891 -0.000115319 0
0.00106526 -5.45547e-05 0
0.00249402 -0.000154624 0
0.00233347 -0.000115043 0
0.00177964 -0.000104589 0
0.00241374 -0.000134834 0
0.00169936 -8.47991e-05 0
0.00106622 -3.26395e-05 0
-7.22314e-05 0 0
-6.95239e-06 0 0
0.000496995 -1.63198e-05 0
-3.95919e-05 0 0
0.000529634 -1.63198e-05 0
0.00105478 -4.40783e-05 0
0.00227128 -5.28591e-05 0
-0.000143404 -7.11726e-05 0
0.00166303 -4.84687e-05 0
0.00106394 -6.20159e-05 0
0.000455689 -5.76255e-05 0
0.00401205 -0.000188654 0
0.00250195 -0.000173865 0
0.00558069 -0.000232405 0
0.003257 -0.00018126 0
0.00404132 -0.000203135 0
0.00479637 -0.00021053 0
0.00401337 -0.000189975 0
0.00237243 -0.000115043 0
0.00248271 -0.000154624 0
0.0031929 -0.000152509 0
0.00242757 -0.000134834 0
0.00324804 -0.000172299 0
0.00401213 -0.000188573 0
0.00554272 -0.000270368 0
0.00579178 0.000142282 0
0.00477743 -0.00022947 0
0.00566725 -6.40431e-05 0
0.00490196 -2.31455e-05 0
0.00401345 -0.000189893 0
0.0058335 0.000100568 0
0.00239072 -9.67496e-05 0
0.00492347 -4.46625e-05 0
0.00411211 1.90943e-06 0
0.00320208 -0.000143322 0
0.00788308 0.00117333 0
0.00658816 0.00153143 0
0.00582604 5.31186e-05 0
0.00723562 0.00135238 0
0.0062071 0.000792275 0
0.00685456 0.000613227 0
0.00788063 0.00117578 0
0.00587281 6.34589e-06 0
0.00909237 0.00080244 0
0.00687672 0.000591061 0
0.00748259 0.000404393 0
0.0084865 0.000989108 0
0.00788891 0.00117917 0
0.00986634 0.00272254 0
0.00684537 0.00178865 0
0.00887762 0.00195085 0
0.00835586 0.00225559 0
0.00736714 0.00148391 0
0.00788647 0.00118161 0
0.00890114 0.00061121 0
0.009869 0.00271988 0
0.0083938 0.000896411 0
0.00938507 0.00166554 0
0.00887773 0.00195074 0
0.00434686 0.000239952 0
0.00566754 5.31186e-05 0
0.00677219 0.00153143 0
0.0050072 0.000146535 0
0.00621986 0.000792275 0
0.00555952 0.000885692 0
0.00433735 0.00023044 0
0.00239072 -0.000231411 0
0.0058335 0.000219073 0
0.00336403 -4.85854e-07 0
0.00411211 -6.16938e-06 0
0.00508542 0.000224756 0
0.00435768 0.000229132 0
0.00690774 0.00139588 0
0.00281254 0.000390965 0
0.00563271 0.000812505 0
0.00486014 0.000893422 0
0.00358511 0.000310048 0
0.00434817 0.000219619 0
0.00264849 0.000226913 0
0.00229774 -0.000138428 0
0.00349833 0.000223266 0
0.00247311 4.42423e-05 0
0.00332295 4.05953e-05 0
0.00909315 0.00427492 0
0.00684537 0.0014326 0
0.00986634 0.00290718 0
0.00796926 0.00285376 0
0.00835586 0.00216989 0
0.00947974 0.00359105 0
0.00909512 0.00427689 0
0.00960759 0.00264844 0
0.0107977 0.00709543 0
0.00935136 0.00346267 0
0.0102026 0.00487193 0
0.0099464 0.00568616 0
0.00908661 0.00428145 0
0.00852596 0.00565743 0
0.00694923 0.00132875 0
0.00880628 0.00496944 0
0.00773759 0.00349309 0
0.00801792 0.0028051 0
0.00908858 0.00428343 0
0.0105446 0.00734855 0
0.00892484 0.00605631 0
0.00981657 0.00581599 0
0.0097347 0.00670243 0
0.00900671 0.00516987 0
0.0110205 0.00506349 0
0.00979585 0.00283886 0
0.0118037 0.00328033 0
0.0104082 0.00395118 0
0.0107998 0.0030596 0
0.0114121 0.00417191 0
0.0110168 0.00506716 0
0.0103767 0.00709543 0
0.00998627 0.00264844 0
0.0106968 0.0060813 0
0.0101815 0.00487193 0
0.0105016 0.0038578 0
0.0110192 0.00506213 0
0.0117005 0.00317709 0
0.0117349 0.00698157 0
0.0113598 0.00411961 0
0.0117177 0.00507933 0
0.011377 0.00602185 0
0.0110155 0.0050658 0
0.0115002 0.00721627 0
0.0105142 0.00723289 0
0.0112578 0.00614104 0
0.0110072 0.00722458 0
0.0107648 0.00614934 0
0.000909726 -3.5264e-05 0
-0.000127823 0 0
-5.72947e-05 0 0
0.000390952 -1.7632e-05 0
-9.25587e-05 0 0
0.000426216 -1.7632e-05 0
0.000928867 -5.44051e-05 0
-0.000143404 8.61094e-05 0
0.00227128 -0.000184034 0
0.000392731 1.58522e-05 0
0.00106394 -4.89622e-05 0
0.00160007 -0.000119219 0
0.000885695 -5.92948e-05 0
0.00251609 0.000273069 0
-0.000299725 -0.000171902 0
0.00170089 0.000106887 0
0.00110818 5.05835e-05 0
0.000292985 -0.000115598 0
0.000904836 -7.84358e-05 0
0.00231689 -0.000138428 0
0.00256224 0.000226913 0
0.00161086 -0.000108432 0
0.00243956 4.42423e-05 0
0.00173354 7.42386e-05 0
0.00588841 0.00209532 0
0.00281254 -0.000250336 0
0.00690774 0.00180621 0
0.00435048 0.00092249 0
0.00486014 0.000777936 0
0.00639808 0.00195076 0
0.00590233 0.0020814 0
0.00446659 0.00233474 0
0.00260036 -3.81559e-05 0
0.00518446 0.00220807 0
0.00353347 0.00114829 0
0.00425134 0.00102162 0
0.00591705 0.00212395 0
0.00643028 0.00132875 0
0.00916856 0.00565743 0
0.00617366 0.00172635 0
0.00779942 0.00349309 0
0.0075428 0.00389069 0
0.00593096 0.00211004 0
0.00917304 0.00565294 0
0.00523683 0.00310499 0
0.007552 0.00388149 0
0.00720494 0.00437896 0
0.0055839 0.00260751 0
0.00116188 6.85067e-07 0
-0.000299725 4.51086e-05 0
0.00251609 0.000152504 0
0.000431077 2.28968e-05 0
0.00110818 9.88062e-05 0
0.00183898 7.65945e-05 0
0.00110054 -6.06514e-05 0
0.00232543 -3.81559e-05 0
0.00474331 0.00233474 0
0.00171298 -4.94036e-05 0
0.00353437 0.00114829 0
0.00292193 0.00113704 0
0.00113711 2.54491e-05 0
-0.000203718 0 0
-0.000254616 0 0
0.000466698 1.27245e-05 0
-0.000229167 0 0
0.000441249 1.27245e-05 0
0.00107578 -3.58874e-05 0
0.00523384 0.00184422 0
-0.000720891 -0.000517173 0
0.00315481 0.000904164 0
0.00225647 0.000663522 0
0.000177444 -0.00027653 0
0.00472644 0.00179456 0
0.00103808 0 0
-0.00255103 0 0
0.00288226 0.000897279 0
-0.000756472 0 0
0.0010877 0.000897279 0
0.00434341 0.00217759 0
-0.000720891 -0.00183014 0
0.00523384 0.00234373 0
0.00181126 0.000173724 0
0.00225647 0.000256797 0
0.00478862 0.00226066 0
0.00548221 0.00255032 0
0.01 0.0179975 0
0.01 0.00896192 0
0.0077411 0.0102739 0
0.01 0.0134797 0
0.0077411 0.00575612 0
0.00509918 0.00293335 0
0.00374724 0.000857136 0
0.0133676 0.0146299 0
0.00442321 0.00189525 0
0.00855741 0.00774353 0
0.00923338 0.00878164 0
0.00915897 0.00954377 0
0.01 0.0162581 0
0.01 0.014576 0
0.00957948 0.0129009 0
0.01 0.0154171 0
0.00957948 0.0120599 0
0.00922232 0.00960712 0
0.0100539 0.0146299 0
0.00632668 0.000857136 0
0.00963809 0.0121185 0
0.00819028 0.00774353 0
0.0077745 0.00523213 0
0.00920022 0.00950251 0
0.00874673 0.00563794 0
0.0108189 0.0154392 0
0.00897348 0.00757023 0
0.0097828 0.0105386 0
0.0100096 0.0124709 0
0.00926357 0.00956586 0
0.00523683 0.00194699 0
0.00917304 0.00606426 0
0.0072502 0.00575643 0
0.00720494 0.00400562 0
0.00921831 0.00781506 0
0.0102017 0.0108381 0
0.0101084 0.0154392 0
0.00950936 0.00563794 0
0.0101551 0.0131387 0
0.00980889 0.0105386 0
0.00985553 0.00823803 0
0.0102054 0.0108344 0
0.00892484 0.00622246 0
0.0105446 0.00716395 0
0.00956514 0.00852842 0
0.0097347 0.0066932 0
0.010375 0.00899916 0
0.0101896 0.010826 0
0.01 0.0149517 0
0.01 0.0153308 0
0.0100948 0.0128888 0
0.01 0.0151412 0
0.0100948 0.0130784 0
0.0101933 0.0108222 0
0.0104947 0.00711405 0
0.010458 0.0144937 0
0.010344 0.00896815 0
0.0104763 0.0108039 0
0.0103256 0.012658 0
0.0107397 0.0103973 0
0.01 0.0129257 0
0.01 0.0144052 0
0.0103699 0.0116615 0
0.01 0.0136654 0
0.0103699 0.0124012 0
0.0107446 0.0104021 0
0.0100886 0.0144937 0
0.0108921 0.00711405 0
0.0104166 0.0124479 0
0.0104904 0.0108039 0
0.0108184 0.00875807 0
0.0107412 0.0103958 0
0.0115249 0.00699443 0
0.0103267 0.012599 0
0.011133 0.00869513 0
0.0109258 0.00979671 0
0.0105339 0.0114974 0
0.010746 0.0104006 0
0.0105142 0.00749201 0
0.0115002 0.00696967 0
0.0106301 0.00894633 0
0.0110072 0.00723084 0
0.0111231 0.00868516 0
0.0111144 0.00895276 0
0.0100877 0.012599 0
0.0117756 0.00699443 0
0.0106011 0.0107759 0
0.0109317 0.00979671 0
0.011445 0.00797359 0
0.0111157 0.00895152 0
0.0114931 0.00727694 0
0.0121541 0.00586111 0
0.0113044 0.00811423 0
0.0118236 0.00656903 0
0.0116349 0.00740631 0
0.0111119 0.00895023 0
0.01 0.0102874 0
0.01 0.0125113 0
0.010556 0.00961883 0
0.01 0.0113994 0
0.010556 0.0107308 0
0.0111132 0.00894899 0
0.0122162 0.00592319 0
0.0102644 0.010023 0
0.0116647 0.00743609 0
0.0112403 0.00797311 0
0.0106888 0.00948601 0
0.0113718 0.00683094 0
0.01 0.00717726 0
0.01 0.00992084 0
0.0106859 0.0070041 0
0.01 0.00854905 0
0.0106859 0.00837589 0
0.0113735 0.00683267 0
0.0101022 0.010023 0
0.0123831 0.00592319 0
0.0107379 0.00842785 0
0.0112426 0.00797311 0
0.0118783 0.00637793 0
0.011373 0.00682972 0
0.0126814 0.00425102 0
0.0102251 0.00695212 0
0.0120272 0.00554037 0
0.0114533 0.00560157 0
0.0107991 0.00689092 0
0.0113747 0.00683145 0
0.0121522 0.00615408 0
0.0125909 0.0041605 0
0.0117635 0.00649276 0
0.0123715 0.00515729 0
0.0119828 0.00549597 0
0.0115403 0.00426982 0
0.0101224 0.00695212 0
0.0127859 0.00425102 0
0.0108314 0.00561097 0
0.0114542 0.00560157 0
0.0121631 0.00426042 0
0.0115415 0.0042686 0
0.01259 0.00444694 0
0.0128436 0.00209643 0
0.0120658 0.00435777 0
0.0127168 0.00327168 0
0.0121926 0.00318252 0
0.0115389 0.00426841 0
0.01 0.00375182 0
0.01 0.00682969 0
0.0107695 0.00401012 0
0.01 0.00529076 0
0.0107695 0.00554905 0
0.0115401 0.0042672 0
0.0129601 0.00221298 0
0.0101953 0.00355657 0
0.0122501 0.00324009 0
0.0115777 0.00288477 0
0.0108677 0.00391188 0
0.0116211 0.00145068 0
0.01 0.00016929 0
0.01 0.0034114 0
0.0108105 0.000809983 0
0.01 0.00179035 0
0.0108105 0.00243104 0
0.0116223 0.00145194 0
0.0101452 0.00355657 0
0.0130108 0.00221298 0
0.0108837 0.00250425 0
0.011578 0.00288477 0
0.0123166 0.00183246 0
0.0116223 0.00144946 0
0.0130682 0 0
0.0101693 0 0
0.0123452 0.000724728 0
0.0116187 0 0
0.0108958 0.000724728 0
0.0116235 0.00145072 0
0.0128432 0.00238061 0
0.0129264 -0.000141837 0
0.0122334 0.00191567 0
0.0128848 0.00111939 0
0.012275 0.000654444 0
0.0116223 -0.00144946 0
0.0101693 0 0
0.0130682 0 0
0.0108958 -0.000724728 0
0.0116187 0 0
0.0123452 -0.000724728 0
0.0116235 -0.00145072 0
0.0129264 0.000141837 0
0.0128432 -0.00238061 0
0.012275 -0.000654444 0
0.0128848 -0.00111939 0
0.0122334 -0.00191567 0
0.0116211 -0.00145068 0
0.01 -0.0034114 0
0.01 -0.00016929 0
0.0108105 -0.00243104 0
0.01 -0.00179035 0
0.0108105 -0.000809983 0
0.0116223 -0.00145194 0
0.0130108 -0.00221298 0
0.0101452 -0.00355657 0
0.0123166 -0.00183246 0
0.011578 -0.00288477 0
0.0108837 -0.00250425 0
0.0115389 -0.00426841 0
0.01 -0.00682969 0
0.01 -0.00375182 0
0.0107695 -0.00554905 0
0.01 -0.00529076 0
0.0107695 -0.00401012 0
0.0115401 -0.0042672 0
0.0101953 -0.00355657 0
0.0129601 -0.00221298 0
0.0108677 -0.00391188 0
0.0115777 -0.00288477 0
0.0122501 -0.00324009 0
0.0115403 -0.00426982 0
0.0127859 -0.00425102 0
0.0101224 -0.00695212 0
0.0121631 -0.00426042 0
0.0114542 -0.00560157 0
0.0108314 -0.00561097 0
0.0115415 -0.0042686 0
0.0128436 -0.00209643 0
0.01259 -0.00444694 0
0.0121926 -0.00318252 0
0.0127168 -0.00327168 0
0.0120658 -0.00435777 0
0.011373 -0.00682972 0
0.0102251 -0.00695212 0
0.0126814 -0.00425102 0
0.0107991 -0.00689092 0
0.0114533 -0.00560157 0
0.0120272 -0.00554037 0
0.0113747 -0.00683145 0
0.0125909 -0.0041605 0
0.0121522 -0.00615408 0
0.0119828 -0.00549597 0
0.0123715 -0.00515729 0
0.0117635 -0.00649276 0
0.0113718 -0.00683094 0
0.01 -0.00992084 0
0.01 -0.00717726 0
0.0106859 -0.00837589 0
0.01 -0.00854905 0
0.0106859 -0.0070041 0
0.0113735 -0.00683267 0
0.0123831 -0.00592319 0
0.0101022 -0.010023 0
0.0118783 -0.00637793 0
0.0112426 -0.00797311 0
0.0107379 -0.00842785 0
0.0111119 -0.00895023 0
0.01 -0.0125113 0
0.01 -0.0102874 0
0.010556 -0.0107308 0
0.01 -0.0113994 0
0.010556 -0.00961883 0
0.0111132 -0.00894899 0
0.0102644 -0.010023 0
0.0122162 -0.00592319 0
0.0106888 -0.00948601 0
0.0112403 -0.00797311 0
0.0116647 -0.00743609 0
0.0111144 -0.00895276 0
0.0117756 -0.00699443 0
0.0100877 -0.012599 0
0.011445 -0.00797359 0
0.0109317 -0.00979671 0
0.0106011 -0.0107759 0
0.0111157 -0.00895152 0
0.0121541 -0.00586111 0
0.0114931 -0.00727694 0
0.0116349 -0.00740631 0
0.0118236 -0.00656903 0
0.0113044 -0.00811423 0
0.0107412 -0.0103958 0
0.0103267 -0.012599 0
0.0115249 -0.00699443 0
0.0105339 -0.0114974 0
0.0109258 -0.00979671 0
0.011133 -0.00869513 0
0.010746 -0.0104006 0
0.0115002 -0.00696967 0
0.0105142 -0.00749201 0
0.0111231 -0.00868516 0
0.0110072 -0.00723084 0
0.0106301 -0.00894633 0
0.0107397 -0.0103973 0
0.01 -0.0144052 0
0.01 -0.0129257 0
0.0103699 -0.0124012 0
0.01 -0.0136654 0
0.0103699 -0.0116615 0
0.0107446 -0.0104021 0
0.0108921 -0.00711405 0
0.0100886 -0.0144937 0
0.0108184 -0.00875807 0
0.0104904 -0.0108039 0
0.0104166 -0.0124479 0
0.0101896 -0.010826 0
0.01 -0.0153308 0
0.01 -0.0149517 0
0.0100948 -0.0130784 0
0.01 -0.0151412 0
0.0100948 -0.0128888 0
0.0101933 -0.0108222 0
0.010458 -0.0144937 0
0.0104947 -0.00711405 0
0.0103256 -0.012658 0
0.0104763 -0.0108039 0
0.010344 -0.00896815 0
0.0102017 -0.0108381 0
0.00950936 -0.00563794 0
0.0101084 -0.0154392 0
0.00985553 -0.00823803 0
0.00980889 -0.0105386 0
0.0101551 -0.0131387 0
0.0102054 -0.0108344 0
0.0105446 -0.00716395 0
0.00892484 -0.00622246 0
0.010375 -0.00899916 0
0.0097347 -0.0066932 0
0.00956514 -0.00852842 0
0.00920022 -0.00950251 0
0.0108189 -0.0154392 0
0.00874673 -0.00563794 0
0.0100096 -0.0124709 0
0.0097828 -0.0105386 0
0.00897348 -0.00757023 0
0.00926357 -0.00956586 0
0.00917304 -0.00606426 0
0.00523683 -0.00194699 0
0.00921831 -0.00781506 0
0.00720494 -0.00400562 0
0.0072502 -0.00575643 0
0.00915897 -0.00954377 0
0.01 -0.014576 0
0.01 -0.0162581 0
0.00957948 -0.0120599 0
0.01 -0.0154171 0
0.00957948 -0.0129009 0
0.00922232 -0.00960712 0
0.00632668 -0.000857136 0
0.0100539 -0.0146299 0
0.0077745 -0.00523213 0
0.00819028 -0.00774353 0
0.00963809 -0.0121185 0
0.00472644 -0.00179456 0
-0.00255103 0 0
0.00103808 0 0
0.0010877 -0.000897279 0
-0.000756472 0 0
0.00288226 -0.000897279 0
0.00434341 -0.00217759 0
0.00523384 -0.00234373 0
-0.000720891 0.00183014 0
0.00478862 -0.00226066 0
0.00225647 -0.000256797 0
0.00181126 -0.000173724 0
0.00548221 -0.00255032 0
0.01 -0.00896192 0
0.01 -0.0179975 0
0.0077411 -0.00575612 0
0.01 -0.0134797 0
0.0077411 -0.0102739 0
0.00509918 -0.00293335 0
0.0133676 -0.0146299 0
0.00374724 -0.000857136 0
0.00923338 -0.00878164 0
0.00855741 -0.00774353 0
0.00442321 -0.00189525 0

VECTORS disp float
0.000168531 0.00111743  0
-0.000122 -0.000174342  0
6.73248e-05 0.000197463  0
2.32653e-05 0.000471546  0
-2.73376e-05 1.15603e-05  0
0.000117928 0.000657448  0
0.000219224 0.00102656  0
0.00042041 0.00147516  0
-9.30603e-05 -4.41044e-05  0
0.000319817 0.00125086  0
0.000163675 0.000715527  0
6.30821e-05 0.000491228  0
0.000128494 0.00109868  0
0.000315358 0.000542675  0
0.00130405 0.00247823  0
0.000221926 0.000820677  0
0.000809703 0.00151045  0
0.000716271 0.00178845  0
0.00024065 0.0011052  0
0.00115777 0.00232653  0
0.000377403 0.00142145  0
0.000699211 0.00171586  0
0.000767588 0.00187399  0
0.000309026 0.00126332  0
6.01269e-05 0.000518168  0
-1.80302e-05 -4.39515e-05  0
6.09543e-06 2.7523e-05  0
2.10484e-05 0.000237108  0
-5.96736e-06 -8.21426e-06  0
3.31112e-05 0.000272846  0
7.2588e-05 0.000528105  0
-3.8208e-05 2.81282e-05  0
0.000374968 0.00142223  0
1.719e-05 0.000278117  0
0.00016838 0.000725177  0
0.000223778 0.000975166  0
6.20023e-05 0.000532274  0
0.000154602 0.000939946  0
-4.9594e-05 -6.28804e-05  0
0.000108302 0.00073611  0
5.25039e-05 0.000438533  0
6.20412e-06 0.000234697  0
5.59579e-05 0.000541658  0
0.000394963 0.00140888  0
0.00016639 0.000942072  0
0.000225461 0.000975266  0
0.000280677 0.00117547  0
0.000111174 0.000741865  0
0.000546992 0.00174677  0
0.000663531 0.00201989  0
0.000155464 0.000934135  0
0.000605261 0.00188333  0
0.000409497 0.00147701  0
0.000351228 0.00134045  0
0.000546659 0.00176066  0
0.000144316 0.000910204  0
0.000423759 0.00144409  0
0.000345488 0.00133543  0
0.000284037 0.00117715  0
0.000485209 0.00160238  0
0.000552149 0.00175825  0
0.00112596 0.00264224  0
0.000649532 0.00200037  0
0.000839054 0.00220025  0
0.000887745 0.0023213  0
0.000600841 0.00187931  0
0.000541542 0.00175226  0
0.00044143 0.00148542  0
0.00114741 0.00267602  0
0.000491486 0.00161884  0
0.000794418 0.00208072  0
0.000844473 0.00221414  0
0.000296526 0.00125668  0
0.000181328 0.000950299  0
0.000640534 0.00200528  0
0.000238927 0.00110349  0
0.000410931 0.00147779  0
0.00046853 0.00163098  0
0.000295623 0.00125762  0
8.72066e-05 0.000635576  0
0.000187845 0.000939366  0
0.000191415 0.000946596  0
0.000137526 0.000787471  0
0.000241734 0.00109849  0
0.000296044 0.0012603  0
0.000640459 0.0019939  0
0.000392271 0.00155528  0
0.000468252 0.0016271  0
0.000516365 0.00177459  0
0.000344158 0.00140779  0
0.000297525 0.00125626  0
0.000391673 0.00155945  0
8.0654e-05 0.000638451  0
0.000344599 0.00140785  0
0.000236163 0.00109895  0
0.00018909 0.000947353  0
3.04989e-05 0.000339075  0
-3.19294e-05 -2.08817e-05  0
0.000144961 0.00089996  0
-7.15267e-07 0.000159097  0
5.65159e-05 0.000439539  0
8.773e-05 0.000619517  0
2.25369e-05 0.000336067  0
0.000170784 0.000912723  0
0.000102163 0.000659494  0
9.66602e-05 0.000624395  0
0.000136473 0.000786109  0
6.23499e-05 0.000497781  0
2.33818e-05 0.000329397  0
-4.65217e-06 -1.84318e-05  0
-2.23775e-06 6.73723e-06  0
9.36479e-06 0.000155482  0
-3.44496e-06 -5.84727e-06  0
1.0572e-05 0.000168067  0
2.97208e-05 0.00033992  0
8.69391e-05 0.00064433  0
-2.25237e-05 -4.50881e-05  0
5.833e-05 0.000492125  0
3.22077e-05 0.000299621  0
3.59859e-06 0.000147416  0
0.00114032 0.00249499  0
0.00124652 0.0023256  0
0.00202593 0.00342786  0
0.00119342 0.00241029  0
0.00163623 0.00287673  0
0.00158313 0.00296142  0
0.00115347 0.00250543  0
0.000357163 0.00144438  0
0.00118112 0.00229955  0
0.000755314 0.00197491  0
0.000769139 0.00187196  0
0.00116729 0.00240249  0
0.00115944 0.00249705  0
0.00198756 0.00340887  0
0.0011395 0.00265223  0
0.0015735 0.00295296  0
0.00156353 0.00303055  0
0.00114947 0.00257464  0
0.00113949 0.00248901  0
0.00117238 0.00267992  0
0.000414437 0.00148476  0
0.00115594 0.00258446  0
0.00079341 0.00208234  0
0.000776962 0.00198689  0
0.00119453 0.00284519  0
0.000631694 0.00200029  0
0.00114581 0.00264236  0
0.000913114 0.00242274  0
0.000888751 0.00232133  0
0.00117017 0.00274377  0
0.0011872 0.00284039  0
0.00117279 0.0026605  0
0.00185523 0.0036852  0
0.00118 0.00275044  0
0.00151401 0.00317285  0
0.00152122 0.0032628  0
0.00118885 0.00283846  0
0.00123086 0.00306134  0
0.000653031 0.00201715  0
0.00120986 0.0029499  0
0.000941944 0.00253924  0
0.000920943 0.00242781  0
0.00119646 0.00284347  0
0.00183228 0.00367222  0
0.00121244 0.00304955  0
0.00151437 0.00325785  0
0.00152236 0.00336089  0
0.00120445 0.00294651  0
0.00191365 0.00353215  0
0.00113852 0.00266049  0
0.00198728 0.00339742  0
0.00152609 0.00309632  0
0.0015629 0.00302895  0
0.00195047 0.00346478  0
0.00190527 0.00352886  0
0.00186326 0.00368049  0
0.00116555 0.00266722  0
0.00188427 0.00360468  0
0.0015144 0.00317386  0
0.00153541 0.00309804  0
0.00190804 0.00353025  0
0.00201207 0.00340088  0
0.00271571 0.00436034  0
0.00196006 0.00346557  0
0.00236389 0.00388061  0
0.00231188 0.0039453  0
0.00191505 0.00353061  0
0.00269669 0.00435588  0
0.00184263 0.00367378  0
0.00230587 0.00394325  0
0.00226966 0.00401483  0
0.00187884 0.0036022  0
1.34362e-05 0.000227557  0
-2.85689e-06 -1.24323e-05  0
-1.05825e-06 2.5962e-06  0
5.28964e-06 0.000107562  0
-1.95757e-06 -4.91807e-06  0
6.18896e-06 0.000115077  0
1.71752e-05 0.00023611  0
-1.6113e-05 -2.32117e-05  0
8.19585e-05 0.000623075  0
5.31132e-07 0.000106449  0
3.29228e-05 0.000299932  0
4.95669e-05 0.000429592  0
1.69561e-05 0.00023681  0
5.12218e-05 0.000477101  0
-1.30481e-05 -3.73811e-05  0
3.4089e-05 0.000356956  0
1.90869e-05 0.00021986  0
1.95403e-06 9.97144e-05  0
1.27361e-05 0.000230347  0
9.58547e-05 0.000642898  0
6.03729e-05 0.000496712  0
5.42954e-05 0.000436623  0
7.81138e-05 0.000569805  0
3.65545e-05 0.00036353  0
0.000176067 0.000955713  0
0.000241421 0.00125362  0
4.58711e-05 0.000472491  0
0.000208744 0.00110466  0
0.000143646 0.000863053  0
0.000110969 0.000714102  0
0.000173669 0.000952958  0
5.24879e-05 0.000481169  0
0.000104258 0.000660287  0
0.000113079 0.000717063  0
7.83732e-05 0.000570728  0
0.000138964 0.000806622  0
0.000173824 0.000954943  0
0.000384484 0.00154679  0
0.000245322 0.00125935  0
0.000279154 0.00125087  0
0.000314903 0.00140307  0
0.000209573 0.00110715  0
0.000175651 0.000955867  0
9.52825e-05 0.000654788  0
0.000378513 0.00154438  0
0.000135467 0.000805328  0
0.000236898 0.00109958  0
0.000277082 0.00125012  0
1.02438e-05 0.000175899  0
-9.63668e-06 -2.44574e-05  0
4.85591e-05 0.000464406  0
3.03562e-07 7.57207e-05  0
1.94612e-05 0.000219974  0
2.94014e-05 0.000320152  0
7.5328e-06 0.000169442  0
5.71371e-05 0.00048545  0
3.66302e-05 0.000396918  0
3.23349e-05 0.000327446  0
4.68836e-05 0.000441184  0
2.20815e-05 0.00028318  0
7.96063e-06 0.000167823  0
-1.70236e-06 -8.86702e-06  0
-6.64892e-07 3.68035e-08  0
3.12914e-06 7.94782e-05  0
-1.18362e-06 -4.41511e-06  0
3.64787e-06 8.39301e-05  0
1.0124e-05 0.000176327  0
3.08534e-05 0.000376383  0
-7.85715e-06 -3.25694e-05  0
2.04887e-05 0.000276355  0
1.14981e-05 0.000171907  0
1.13341e-06 7.18786e-05  0
0.000107478 0.000767395  0
5.49656e-05 0.000484279  0
0.00023315 0.00124249  0
8.1222e-05 0.000625837  0
0.000144058 0.000863387  0
0.000170314 0.00100494  0
0.000105834 0.000762888  0
3.18054e-05 0.000387018  0
6.20786e-05 0.000496461  0
6.88198e-05 0.000574953  0
4.6942e-05 0.00044174  0
8.39564e-05 0.000629674  0
0.000105738 0.000764335  0
0.000238641 0.00125204  0
0.000152349 0.00106703  0
0.00017219 0.00100819  0
0.000195495 0.00115953  0
0.000129044 0.000915681  0
0.000107594 0.000767491  0
0.000148817 0.00105608  0
2.68061e-05 0.000373591  0
0.000128206 0.000911783  0
8.78116e-05 0.000714833  0
6.72e-05 0.000570541  0
0.000741892 0.00227775  0
0.000375922 0.00154581  0
0.000658813 0.00200453  0
0.000558907 0.00191178  0
0.000517367 0.00177517  0
0.000700353 0.00214114  0
0.000740104 0.00227344  0
0.00080459 0.00255945  0
0.000383722 0.00155522  0
0.000772347 0.00241644  0
0.000594156 0.00205733  0
0.000561913 0.00191433  0
0.000738391 0.00227471  0
0.000669545 0.00201867  0
0.00121509 0.0030596  0
0.000703968 0.00214669  0
0.000942316 0.00253914  0
0.000976739 0.00266716  0
0.000743165 0.00227744  0
0.001203 0.00304819  0
0.000795342 0.00255215  0
0.00097308 0.00266281  0
0.000999169 0.00280017  0
0.000769253 0.00241479  0
0.000469381 0.00186504  0
0.000233463 0.00124964  0
0.000397466 0.00155761  0
0.000351422 0.00155734  0
0.000315464 0.00140362  0
0.000433424 0.00171132  0
0.000468422 0.00186483  0
0.000398936 0.00156157  0
0.000790329 0.0025537  0
0.000433679 0.0017132  0
0.000594632 0.00205763  0
0.000629376 0.00220927  0
0.000469209 0.00186442  0
0.000523881 0.00218873  0
0.000234525 0.00125022  0
0.000496545 0.00202657  0
0.000379203 0.00171947  0
0.000351867 0.00155732  0
0.000469799 0.00186575  0
0.000786563 0.00254984  0
0.000520681 0.00218801  0
0.000628181 0.0022078  0
0.000653622 0.00236893  0
0.00049524 0.00202688  0
0.000832099 0.00287427  0
0.000847977 0.00322553  0
0.000515821 0.00218752  0
0.000840038 0.0030499  0
0.000681899 0.00270653  0
0.00067396 0.0025309  0
0.000834135 0.00287562  0
0.000508863 0.00218458  0
0.000799217 0.00255383  0
0.000671499 0.0025301  0
0.00065404 0.0023692  0
0.000816676 0.00271472  0
0.000834594 0.00287569  0
0.00122196 0.00360442  0
0.000840183 0.00322347  0
0.00102828 0.00324006  0
0.00103107 0.00341394  0
0.000837389 0.00304958  0
0.000831321 0.00287473  0
0.00080744 0.00255879  0
0.00123099 0.00360833  0
0.00081938 0.00271676  0
0.00101921 0.00308356  0
0.00103115 0.00324153  0
0.000549174 0.0025518  0
0.000526937 0.00218979  0
0.000837404 0.00322356  0
0.000538056 0.0023708  0
0.000682171 0.00270667  0
0.000693289 0.00288768  0
0.000550658 0.00255134  0
0.000323796 0.0019312  0
0.00052326 0.00218939  0
0.000437227 0.00224127  0
0.000423528 0.00206029  0
0.000536959 0.00237036  0
0.000550885 0.00255174  0
0.00083266 0.00322325  0
0.000553697 0.00294533  0
0.000691773 0.0028875  0
0.000693179 0.00308429  0
0.000552291 0.00274854  0
0.000549692 0.00255157  0
0.000558067 0.0029441  0
0.000327148 0.00192995  0
0.00055388 0.00274783  0
0.000442608 0.00243702  0
0.00043842 0.00224076  0
0.000297566 0.00158445  0
0.000245962 0.0012571  0
0.00051316 0.00218242  0
0.000271764 0.00142077  0
0.000379561 0.00171976  0
0.000405363 0.00188344  0
0.000297707 0.00158349  0
0.000513036 0.0021849  0
0.000333434 0.00193508  0
0.000405371 0.00188419  0
0.000423235 0.00205999  0
0.00031557 0.00175929  0
0.00029755 0.00158263  0
0.000144062 0.00105942  0
0.000247495 0.00126056  0
0.000220806 0.00132102  0
0.000195778 0.00115999  0
0.000272522 0.00142159  0
0.000297971 0.00158429  0
0.000334084 0.00193065  0
0.000143181 0.00105396  0
0.000316027 0.00175747  0
0.000238632 0.0014923  0
0.000220576 0.00131912  0
0.00124004 0.00331358  0
0.00175634 0.00409089  0
0.00122996 0.00360376  0
0.00149819 0.00370223  0
0.00149315 0.00384732  0
0.001235 0.00345867  0
0.00123548 0.00331128  0
0.00124265 0.00360858  0
0.000795264 0.00255847  0
0.00123907 0.00345993  0
0.00101896 0.00308352  0
0.00101537 0.00293487  0
0.0012346 0.00331201  0
0.00123216 0.00305715  0
0.00177111 0.00409701  0
0.00123338 0.00318458  0
0.00150163 0.00357708  0
0.00150286 0.00370451  0
0.00123931 0.003314  0
0.000782306 0.00255168  0
0.00121688 0.00304891  0
0.00101081 0.00293284  0
0.000999595 0.00280029  0
0.0012281 0.00318145  0
0.00121475 0.00395481  0
0.000829893 0.00322397  0
0.00123269 0.00360418  0
0.00102232 0.00358939  0
0.00103129 0.00341407  0
0.00122372 0.00377949  0
0.00121115 0.00395412  0
0.00124366 0.00360761  0
0.0016574 0.00471067  0
0.00122741 0.00378087  0
0.00145053 0.00415914  0
0.00143427 0.0043324  0
0.00121171 0.0039538  0
0.00117658 0.00434144  0
0.000839713 0.00322646  0
0.00119415 0.00414762  0
0.00100815 0.00378395  0
0.00102571 0.00359013  0
0.00121507 0.00395477  0
0.00164635 0.00470822  0
0.00116662 0.00433985  0
0.00143071 0.0043315  0
0.00140648 0.00452403  0
0.00119084 0.00414731  0
0.0017246 0.00437906  0
0.00122013 0.00360652  0
0.00176645 0.00408814  0
0.00147237 0.00399279  0
0.00149329 0.00384733  0
0.00174553 0.0042336  0
0.00172029 0.00437768  0
0.00166671 0.00470832  0
0.00123404 0.00361006  0
0.0016935 0.004543  0
0.00145038 0.00415919  0
0.00147716 0.00399387  0
0.00171985 0.0043781  0
0.00178165 0.00409207  0
0.0022847 0.00516331  0
0.00175075 0.00423509  0
0.00203318 0.00462769  0
0.00200228 0.0047707  0
0.00172502 0.00437881  0
0.00227021 0.00516055  0
0.00165337 0.00470593  0
0.00199761 0.00476968  0
0.00196179 0.00493324  0
0.0016892 0.00454237  0
0.00181037 0.0038616  0
0.00178144 0.00409419  0
0.00122162 0.00306043  0
0.0017959 0.0039779  0
0.00150153 0.00357731  0
0.00151599 0.00346101  0
0.00181616 0.00386427  0
0.0012024 0.00305375  0
0.00184253 0.00366751  0
0.00150928 0.00345901  0
0.00152246 0.00336063  0
0.00182934 0.00376589  0
0.00181703 0.00386351  0
0.00247008 0.00466555  0
0.0017644 0.00408936  0
0.00214355 0.00426453  0
0.00211724 0.00437746  0
0.00179071 0.00397644  0
0.00181018 0.00386247  0
0.00186352 0.00367395  0
0.00248858 0.00467021  0
0.00183685 0.00376821  0
0.00217605 0.00417208  0
0.00214938 0.00426634  0
0.000182287 0.0013976  0
8.30268e-05 0.000942048  0
0.00015373 0.00106742  0
0.000132657 0.00116982  0
0.000118379 0.00100473  0
0.000168009 0.00123251  0
0.000182544 0.00140064  0
0.000151709 0.00105949  0
0.000326085 0.00192551  0
0.000167127 0.00123006  0
0.000238897 0.0014925  0
0.000254314 0.00166308  0
0.000182755 0.0014006  0
0.000198438 0.00176315  0
8.19538e-05 0.000933023  0
0.000190597 0.00158188  0
0.000140196 0.00134809  0
0.000132355 0.00116681  0
0.000182321 0.00139842  0
0.000327048 0.00193219  0
0.000198542 0.00177093  0
0.000254684 0.0016653  0
0.000262795 0.00185156  0
0.000190431 0.00158467  0
6.31282e-05 0.000646379  0
0.000147414 0.00106154  0
8.90665e-05 0.000947206  0
0.000105271 0.000853962  0
0.00011824 0.00100437  0
7.60974e-05 0.000796793  0
6.43684e-05 0.000650553  0
3.2777e-05 0.00038147  0
0.000143372 0.00104855  0
4.85727e-05 0.000516012  0
8.80745e-05 0.00071501  0
0.00010387 0.000849552  0
6.44031e-05 0.00065066  0
8.66369e-05 0.000933615  0
1.46325e-05 0.000315404  0
7.552e-05 0.000792138  0
5.06347e-05 0.00062451  0
3.95178e-05 0.000483032  0
6.32347e-05 0.000645311  0
1.78258e-05 0.000330957  0
3.7654e-05 0.000396533  0
4.05302e-05 0.000488134  0
2.77399e-05 0.000363745  0
5.04444e-05 0.000520922  0
0.000346388 0.0023279  0
0.000546956 0.00294464  0
0.000335794 0.00275811  0
0.000446672 0.00263627  0
0.000441375 0.00285138  0
0.000341091 0.00254301  0
0.000345539 0.0023289  0
0.000336524 0.00193257  0
0.000549169 0.00294176  0
0.000341031 0.00213074  0
0.000442846 0.00243717  0
0.000447354 0.00263533  0
0.000345886 0.0023288  0
0.000338156 0.00275417  0
0.000192348 0.00176336  0
0.000342021 0.00254148  0
0.000265252 0.00225877  0
0.000269117 0.00204608  0
0.000346281 0.00232738  0
0.000190782 0.0017678  0
0.000335167 0.0019359  0
0.000268532 0.00204759  0
0.000262974 0.00185185  0
0.000340724 0.00213164  0
0.000829148 0.00362593  0
0.000544234 0.00294456  0
0.000842538 0.0032244  0
0.000686691 0.00328525  0
0.000693386 0.00308448  0
0.000835843 0.00342517  0
0.00082722 0.0036257  0
0.000794166 0.00406273  0
0.000550521 0.0029449  0
0.000810693 0.00384422  0
0.000672343 0.00350381  0
0.00068887 0.0032853  0
0.000826718 0.00362591  0
0.000849505 0.00322577  0
0.00116719 0.00434222  0
0.000838111 0.00342584  0
0.00100835 0.00378399  0
0.000996954 0.00398407  0
0.000829358 0.0036261  0
0.00115974 0.00434134  0
0.000787392 0.00406281  0
0.000994549 0.00398372  0
0.000973566 0.00420208  0
0.000808375 0.00384446  0
0.000533666 0.00338969  0
0.00032745 0.00275705  0
0.000555605 0.00294613  0
0.000430558 0.00307337  0
0.000441528 0.00285159  0
0.000544636 0.00316791  0
0.000532143 0.00339037  0
0.000559627 0.00294517  0
0.00078547 0.00406261  0
0.000545885 0.00316777  0
0.000672548 0.00350389  0
0.000658806 0.00372649  0
0.00053255 0.00339025  0
0.000489436 0.00386948  0
0.000331206 0.00275526  0
0.000510993 0.00362986  0
0.000410321 0.00331237  0
0.000431878 0.00307275  0
0.000533784 0.00339  0
0.000780918 0.00406364  0
0.00048518 0.00387129  0
0.000657351 0.00372682  0
0.000633049 0.00396746  0
0.000509482 0.00363064  0
9.88433e-05 0.00128997  0
8.85661e-05 0.000936737  0
0.000192238 0.00175967  0
9.37047e-05 0.00111335  0
0.000140402 0.0013482  0
0.000145541 0.00152482  0
9.86342e-05 0.001287  0
0.00019325 0.00176881  0
9.35147e-05 0.00167878  0
0.000145942 0.00152791  0
0.000143382 0.00172379  0
9.60744e-05 0.00148289  0
9.86359e-05 0.00128626  0
3.69433e-05 0.000878592  0
9.01569e-05 0.000947136  0
6.77896e-05 0.00108242  0
6.35501e-05 0.000912864  0
9.43964e-05 0.0011167  0
9.89713e-05 0.00128997  0
9.34333e-05 0.00166909  0
3.63455e-05 0.000867656  0
9.62023e-05 0.00147953  0
6.48894e-05 0.00126837  0
6.76584e-05 0.00107881  0
0.000190049 0.00219013  0
0.000200259 0.00176543  0
0.000330659 0.0027523  0
0.000195154 0.00197778  0
0.000265459 0.00225887  0
0.000260354 0.00247121  0
0.000190413 0.00218791  0
8.69978e-05 0.00167689  0
0.000199956 0.00177123  0
0.000138705 0.0019324  0
0.000143477 0.00172406  0
0.000195185 0.00197957  0
0.000190455 0.00218847  0
0.000329823 0.0027574  0
0.000159396 0.0026507  0
0.000260139 0.00247294  0
0.00024461 0.00270405  0
0.000174926 0.00241958  0
0.000190299 0.00219008  0
0.000160631 0.00264499  0
8.77571e-05 0.00167048  0
0.000175465 0.00241754  0
0.000124194 0.00215773  0
0.000139028 0.00193028  0
4.66668e-06 0.000132142  0
-1.03896e-06 -6.69548e-06  0
-3.60979e-07 -1.48395e-06  0
1.81386e-06 6.2723e-05  0
-6.99967e-07 -4.08972e-06  0
2.15285e-06 6.53288e-05  0
6.01763e-06 0.000139823  0
-5.75753e-06 -2.47597e-05  0
2.91901e-05 0.000368678  0
1.3005e-07 5.75316e-05  0
1.17163e-05 0.000171959  0
1.76039e-05 0.00025425  0
5.93899e-06 0.000140112  0
1.76702e-05 0.000316413  0
-4.60421e-06 -2.9378e-05  0
1.18046e-05 0.000228263  0
6.53299e-06 0.000143517  0
6.67393e-07 5.53672e-05  0
4.37719e-06 0.000133193  0
3.44207e-05 0.00038973  0
2.10627e-05 0.000337002  0
1.93989e-05 0.000261461  0
2.77417e-05 0.000363366  0
1.27199e-05 0.000235097  0
3.43407e-05 0.00058248  0
1.89229e-05 0.000320192  0
8.27227e-05 0.000929013  0
2.66318e-05 0.000451336  0
5.08228e-05 0.000624603  0
5.85317e-05 0.000755747  0
3.36918e-05 0.000576898  0
7.45099e-06 0.000301506  0
2.18972e-05 0.000336522  0
2.05714e-05 0.000439202  0
1.46741e-05 0.000319014  0
2.77945e-05 0.00045671  0
3.36146e-05 0.000577749  0
8.52827e-05 0.000943663  0
4.16929e-05 0.000881469  0
5.94486e-05 0.000760706  0
6.34878e-05 0.000912566  0
3.76537e-05 0.000729609  0
3.43475e-05 0.000582558  0
4.04776e-05 0.00086658  0
5.86053e-06 0.000284997  0
3.74126e-05 0.000724569  0
2.31691e-05 0.000575789  0
2.0104e-05 0.000433777  0
3.17423e-06 0.00011936  0
-3.1749e-06 -2.49004e-05  0
1.65379e-05 0.000311984  0
-3.34999e-10 4.72297e-05  0
6.68151e-06 0.000143542  0
9.85607e-06 0.000215672  0
2.28546e-06 0.00011269  0
1.95236e-05 0.000332751  0
9.84992e-06 0.000304704  0
1.09045e-05 0.00022272  0
1.46868e-05 0.000318728  0
6.06769e-06 0.000208697  0
2.45131e-06 0.000111923  0
-6.13824e-07 -5.25395e-06  0
-1.27562e-07 -2.5217e-06  0
9.18745e-07 5.33345e-05  0
-3.70693e-07 -3.88782e-06  0
1.16188e-06 5.47006e-05  0
3.11684e-06 0.000119526  0
8.21597e-06 0.000284239  0
-2.32395e-06 -2.727e-05  0
5.6664e-06 0.000201882  0
2.94601e-06 0.000128484  0
3.96445e-07 4.61279e-05  0
0.00258881 0.00449212  0
0.00271396 0.00434926  0
0.00337286 0.00529344  0
0.00265139 0.00442069  0
0.00304341 0.00482135  0
0.00298084 0.00489278  0
0.00259325 0.0044926  0
0.00184086 0.00367898  0
0.0026981 0.0043492  0
0.00221705 0.00408579  0
0.00226948 0.00401409  0
0.00264567 0.0044209  0
0.00259363 0.004492  0
0.00335843 0.00529224  0
0.00247822 0.00466323  0
0.00297603 0.00489212  0
0.00291833 0.00497774  0
0.00253593 0.00457762  0
0.00258737 0.00449174  0
0.00249411 0.00466508  0
0.00185867 0.00367993  0
0.00254074 0.00457841  0
0.00217639 0.0041725  0
0.00222302 0.00408583  0
0.00321833 0.00546557  0
0.00247441 0.00466778  0
0.00336214 0.00528704  0
0.00284637 0.00506667  0
0.00291828 0.00497741  0
0.00329023 0.0053763  0
0.00321331 0.00546541  0
0.00307108 0.00568105  0
0.00248925 0.00466752  0
0.00314219 0.00557323  0
0.00278016 0.00517429  0
0.00285128 0.00506647  0
0.00321399 0.00546549  0
0.00337593 0.00528659  0
0.00399423 0.00626281  0
0.00329496 0.00537604  0
0.00368508 0.0057747  0
0.00360411 0.00586415  0
0.00321841 0.00546535  0
0.00398065 0.00626261  0
0.00305672 0.00568073  0
0.00359953 0.00586398  0
0.00351869 0.00597167  0
0.00313757 0.00557304  0
0.00238911 0.0048898  0
0.00175721 0.00409422  0
0.00247722 0.00466035  0
0.00207316 0.00449201  0
0.00211721 0.00437728  0
0.00243317 0.00477507  0
0.00238392 0.00488921  0
0.00249428 0.00466232  0
0.00306568 0.00568593  0
0.0024391 0.00477577  0
0.00277998 0.00517413  0
0.0027248 0.00528757  0
0.00238386 0.00488884  0
0.00229253 0.0051592  0
0.00177379 0.00409651  0
0.00233819 0.00502402  0
0.00203316 0.00462785  0
0.00207882 0.00449267  0
0.00238948 0.00488948  0
0.00304985 0.00568451  0
0.00227712 0.00515752  0
0.00271967 0.00528699  0
0.00266349 0.00542102  0
0.0023333 0.0050235  0
0.00217143 0.00548988  0
0.00229254 0.00515832  0
0.00275202 0.00627945  0
0.00223198 0.0053241  0
0.00252228 0.00571889  0
0.00246172 0.00588467  0
0.00217601 0.00549026  0
0.00164543 0.00470984  0
0.00227823 0.00515665  0
0.00191072 0.00510005  0
0.00196183 0.00493325  0
0.00222712 0.00532346  0
0.00217624 0.00549016  0
0.00273823 0.0062784  0
0.0020465 0.00586427  0
0.00245723 0.00588428  0
0.00239236 0.00607134  0
0.00211137 0.00567722  0
0.00217168 0.00548966  0
0.00205965 0.00586526  0
0.00165904 0.00471145  0
0.00211566 0.00567746  0
0.00185935 0.00528836  0
0.00191536 0.00510055  0
0.00290719 0.00595594  0
0.00275872 0.00627502  0
0.00228579 0.00516295  0
0.00283296 0.00611548  0
0.00252226 0.00571899  0
0.00259649 0.00555945  0
0.00291205 0.00595622  0
0.00227082 0.00516233  0
0.0030561 0.00567954  0
0.00259143 0.00555928  0
0.00266346 0.00542094  0
0.00298407 0.00581788  0
0.00291221 0.00595612  0
0.00357838 0.00675354  0
0.00274433 0.00627462  0
0.0032453 0.00635483  0
0.00316136 0.00651408  0
0.00282827 0.00611537  0
0.00290722 0.00595611  0
0.00307121 0.00567997  0
0.00359293 0.0067538  0
0.00298922 0.00581804  0
0.00333207 0.00621688  0
0.00325007 0.00635495  0
0.00157754 0.00509663  0
0.00148846 0.00552791  0
0.00116877 0.00434389  0
0.001533 0.00531227  0
0.00132862 0.0049359  0
0.00137316 0.00472026  0
0.00158099 0.00509722  0
0.00115789 0.00434231  0
0.00165528 0.00470591  0
0.00136944 0.00471977  0
0.00140659 0.00452411  0
0.00161814 0.00490157  0
0.00158119 0.00509719  0
0.0020403 0.00586747  0
0.00147767 0.00552702  0
0.00181075 0.00548233  0
0.00175899 0.00569724  0
0.00152943 0.0053121  0
0.00157714 0.00509684  0
0.00166702 0.00470788  0
0.00205189 0.00586872  0
0.00162208 0.00490236  0
0.00185945 0.0052883  0
0.00181451 0.00548278  0
0.00110358 0.00478498  0
0.00117724 0.00434159  0
0.0014803 0.00553021  0
0.00114041 0.00456328  0
0.00132877 0.0049359  0
0.00129194 0.00515759  0
0.00110649 0.00478508  0
0.000778741 0.00406406  0
0.00116863 0.00434036  0
0.000942617 0.00442457  0
0.000973688 0.00420221  0
0.00113756 0.00456272  0
0.00110665 0.00478517  0
0.00147154 0.00552953  0
0.00101553 0.0052672  0
0.00128909 0.00515735  0
0.00124354 0.00539837  0
0.00106109 0.00502619  0
0.00110401 0.00478482  0
0.00102359 0.00526737  0
0.000786634 0.00406473  0
0.0010638 0.0050261  0
0.000905113 0.00466605  0
0.000945324 0.00442478  0
0.0025863 0.00665726  0
0.0020396 0.00586856  0
0.00274515 0.00627415  0
0.00231295 0.00626291  0
0.00239237 0.00607136  0
0.00266572 0.00646571  0
0.00258205 0.00665703  0
0.00241455 0.00708211  0
0.00205274 0.00586927  0
0.0024983 0.00686957  0
0.00223365 0.00647569  0
0.0023174 0.00626315  0
0.00258186 0.00665714  0
0.00275871 0.00627485  0
0.00317301 0.00745322  0
0.00267028 0.006466  0
0.00296586 0.00686403  0
0.00287743 0.00705518  0
0.00258641 0.00665725  0
0.00315975 0.00745286  0
0.00240169 0.00708175  0
0.00287308 0.00705506  0
0.00278072 0.0072673  0
0.00249405 0.0068695  0
0.00191836 0.00630227  0
0.00147013 0.0055304  0
0.00204793 0.00586421  0
0.00169425 0.00591633  0
0.00175903 0.00569731  0
0.00198315 0.00608324  0
0.00191446 0.00630209  0
0.00205971 0.00586527  0
0.00240777 0.00708603  0
0.00198708 0.00608368  0
0.00223374 0.00647565  0
0.00216111 0.00669406  0
0.00191477 0.00630197  0
0.00177259 0.00678037  0
0.00148129 0.0055313  0
0.00184368 0.00654117  0
0.00162694 0.00615584  0
0.00169803 0.00591664  0
0.00191848 0.00630228  0
0.00239614 0.00708546  0
0.00176155 0.00677995  0
0.00215731 0.00669387  0
0.00207885 0.00693271  0
0.00184001 0.00654112  0
0.00379125 0.00648315  0
0.00399926 0.00625745  0
0.00457494 0.00728472  0
0.00389526 0.0063703  0
0.0042871 0.00677109  0
0.00418309 0.00688394  0
0.00379575 0.00648311  0
0.00305172 0.00568523  0
0.00398564 0.00625784  0
0.00342373 0.00608417  0
0.00351868 0.00597154  0
0.00389069 0.00637048  0
0.00379574 0.00648305  0
0.0045612 0.00728483  0
0.00358445 0.00674919  0
0.00417847 0.00688394  0
0.00407283 0.00701701  0
0.0036901 0.00661612  0
0.00379099 0.00648316  0
0.00359849 0.00674905  0
0.0030658 0.00568483  0
0.00369474 0.0066161  0
0.00333214 0.00621694  0
0.00342839 0.00608399  0
0.0033866 0.00707759  0
0.00273834 0.00627935  0
0.00358435 0.00674877  0
0.00306247 0.00667847  0
0.00316134 0.00651406  0
0.00348548 0.00691318  0
0.00338194 0.00707762  0
0.00359857 0.00674879  0
0.00407245 0.00788049  0
0.00349026 0.0069132  0
0.00383551 0.00731464  0
0.0037272 0.00747905  0
0.00338198 0.00707755  0
0.00317917 0.00744871  0
0.00275247 0.00627946  0
0.00328057 0.00726313  0
0.00296582 0.00686408  0
0.00306722 0.0066785  0
0.00338668 0.00707759  0
0.00405849 0.00788056  0
0.00316531 0.0074487  0
0.00372258 0.00747907  0
0.0036119 0.00766463  0
0.00327599 0.00726314  0
0.00432669 0.007557  0
0.00357892 0.00675381  0
0.00456674 0.00728014  0
0.00395281 0.0071554  0
0.00407283 0.00701697  0
0.00444672 0.00741857  0
0.00432199 0.00755708  0
0.00407809 0.00787579  0
0.00359294 0.00675353  0
0.00420004 0.00771643  0
0.00383552 0.00731466  0
0.00395747 0.0071553  0
0.00432203 0.00755706  0
0.00458065 0.00727992  0
0.00511101 0.00836471  0
0.00445134 0.00741849  0
0.00484583 0.00782231  0
0.00471652 0.00796088  0
0.00432667 0.00755701  0
0.00509696 0.00836487  0
0.00406401 0.007876  0
0.00471182 0.00796094  0
0.00458048 0.00812043  0
0.00419534 0.0077165  0
7.64037e-07 0.000102758  0
-3.1799e-07 -4.21593e-06  0
8.59884e-08 -3.36524e-06  0
2.23024e-07 4.92711e-05  0
-1.16001e-07 -3.79059e-06  0
4.25013e-07 4.96965e-05  0
1.00522e-06 0.000110099  0
-1.22167e-06 -2.52246e-05  0
7.34319e-06 0.000282213  0
-1.08226e-07 4.2437e-05  0
3.06076e-06 0.000128494  0
4.17421e-06 0.000196156  0
9.5679e-07 0.000110153  0
3.96845e-07 0.000273516  0
-5.01607e-07 -2.59538e-05  0
6.76818e-07 0.000191835  0
-5.2381e-08 0.000123781  0
2.27591e-07 4.20996e-05  0
7.09699e-07 0.000103403  0
8.6404e-06 0.000302732  0
5.53172e-07 0.000293932  0
4.67505e-06 0.000203067  0
4.59678e-06 0.000298332  0
6.31436e-07 0.000198667  0
1.07889e-05 0.000551148  0
1.44571e-06 0.000844611  0
-1.58697e-06 0.000276204  0
6.11731e-06 0.000697879  0
-7.06295e-08 0.000560408  0
4.60097e-06 0.000413676  0
1.05791e-05 0.000545389  0
-1.46971e-06 0.000293074  0
1.06517e-05 0.000304083  0
4.55471e-06 0.000419232  0
4.59099e-06 0.000298578  0
1.06154e-05 0.000424736  0
1.05519e-05 0.000546142  0
3.85683e-05 0.000879745  0
1.45702e-06 0.000860016  0
2.45601e-05 0.000712943  0
2.00127e-05 0.000869881  0
6.00445e-06 0.000703079  0
1.07905e-05 0.00055112  0
9.29661e-06 0.000287256  0
3.73457e-05 0.000864403  0
1.00436e-05 0.000419188  0
2.33211e-05 0.000575829  0
2.40681e-05 0.000707761  0
-9.5679e-07 0.000110153  0
5.01607e-07 -2.59538e-05  0
-3.96845e-07 0.000273516  0
-2.27591e-07 4.20996e-05  0
5.2381e-08 0.000123781  0
-6.76818e-07 0.000191835  0
-7.09699e-07 0.000103403  0
-5.53172e-07 0.000293932  0
-8.6404e-06 0.000302732  0
-6.31436e-07 0.000198667  0
-4.59678e-06 0.000298332  0
-4.67505e-06 0.000203067  0
-7.64037e-07 0.000102758  0
-8.59884e-08 -3.36524e-06  0
3.1799e-07 -4.21593e-06  0
-4.25013e-07 4.96965e-05  0
1.16001e-07 -3.79059e-06  0
-2.23024e-07 4.92711e-05  0
-1.00522e-06 0.000110099  0
-7.34319e-06 0.000282213  0
1.22167e-06 -2.52246e-05  0
-4.17421e-06 0.000196156  0
-3.06076e-06 0.000128494  0
1.08226e-07 4.2437e-05  0
-1.07889e-05 0.000551148  0
1.58697e-06 0.000276204  0
-1.44571e-06 0.000844611  0
-4.60097e-06 0.000413676  0
7.06295e-08 0.000560408  0
-6.11731e-06 0.000697879  0
-1.05791e-05 0.000545389  0
-1.06517e-05 0.000304083  0
1.46971e-06 0.000293074  0
-1.06154e-05 0.000424736  0
-4.59099e-06 0.000298578  0
-4.55471e-06 0.000419232  0
-1.05519e-05 0.000546142  0
-1.45702e-06 0.000860016  0
-3.85683e-05 0.000879745  0
-6.00445e-06 0.000703079  0
-2.00127e-05 0.000869881  0
-2.45601e-05 0.000712943  0
-1.07905e-05 0.00055112  0
-3.73457e-05 0.000864403  0
-9.29661e-06 0.000287256  0
-2.40681e-05 0.000707761  0
-2.33211e-05 0.000575829  0
-1.00436e-05 0.000419188  0
3.12079e-05 0.001234  0
-2.71672e-06 0.000859252  0
4.27777e-05 0.000881047  0
1.42456e-05 0.00104663  0
2.00305e-05 0.00087015  0
3.69928e-05 0.00105753  0
3.12568e-05 0.00123802  0
4.19015e-05 0.000869498  0
8.82288e-05 0.00166736  0
3.65791e-05 0.00105376  0
6.50652e-05 0.00126843  0
5.97428e-05 0.00145269  0
3.13528e-05 0.00123803  0
2.44328e-06 0.00163828  0
-2.60951e-06 0.000847542  0
1.68981e-05 0.00143815  0
-8.31166e-08 0.00124291  0
1.43717e-05 0.00104278  0
3.1204e-05 0.00123471  0
8.89067e-05 0.00167768  0
2.18849e-06 0.00164877  0
6.00554e-05 0.00145619  0
4.55476e-05 0.00166322  0
1.66963e-05 0.00144174  0
6.07536e-05 0.00212373  0
3.16219e-06 0.00260912  0
-3.34206e-06 0.00164102  0
3.19579e-05 0.00236643  0
-8.9935e-08 0.00212507  0
2.87058e-05 0.00188238  0
6.07143e-05 0.0021212  0
-3.74329e-06 0.00164829  0
9.48971e-05 0.00167866  0
2.84855e-05 0.00188475  0
4.55769e-05 0.00166348  0
7.78057e-05 0.00189993  0
6.07254e-05 0.00212177  0
0.000153964 0.00265027  0
2.6208e-06 0.0026156  0
0.000107345 0.00238602  0
7.82926e-05 0.00263294  0
3.16731e-05 0.00236869  0
6.05463e-05 0.00212375  0
9.47494e-05 0.00167159  0
0.000154011 0.00264398  0
7.76478e-05 0.00189767  0
0.00012438 0.00215779  0
0.000107279 0.00238386  0
-6.07536e-05 0.00212373  0
3.34206e-06 0.00164102  0
-3.16219e-06 0.00260912  0
-2.87058e-05 0.00188238  0
8.99351e-08 0.00212507  0
-3.19579e-05 0.00236643  0
-6.07143e-05 0.0021212  0
-9.48971e-05 0.00167866  0
3.74329e-06 0.00164829  0
-7.78057e-05 0.00189993  0
-4.55769e-05 0.00166348  0
-2.84855e-05 0.00188475  0
-6.07254e-05 0.00212177  0
-2.6208e-06 0.0026156  0
-0.000153964 0.00265027  0
-3.16731e-05 0.00236869  0
-7.82926e-05 0.00263294  0
-0.000107345 0.00238602  0
-6.05463e-05 0.00212375  0
-0.000154011 0.00264398  0
-9.47494e-05 0.00167159  0
-0.000107279 0.00238386  0
-0.00012438 0.00215779  0
-7.76478e-05 0.00189767  0
-3.13528e-05 0.00123803  0
2.60951e-06 0.000847542  0
-2.44328e-06 0.00163828  0
-1.43717e-05 0.00104278  0
8.31166e-08 0.00124291  0
-1.68981e-05 0.00143815  0
-3.1204e-05 0.00123471  0
-2.18849e-06 0.00164877  0
-8.89067e-05 0.00167768  0
-1.66963e-05 0.00144174  0
-4.55476e-05 0.00166322  0
-6.00554e-05 0.00145619  0
-3.12079e-05 0.001234  0
-4.27777e-05 0.000881047  0
2.71672e-06 0.000859252  0
-3.69928e-05 0.00105753  0
-2.00305e-05 0.00087015  0
-1.42456e-05 0.00104663  0
-3.12568e-05 0.00123802  0
-8.82288e-05 0.00166736  0
-4.19015e-05 0.000869498  0
-5.97428e-05 0.00145269  0
-6.50652e-05 0.00126843  0
-3.65791e-05 0.00105376  0
9.56366e-05 0.0031649  0
-4.37662e-06 0.00261547  0
0.000161021 0.00265085  0
4.563e-05 0.00289019  0
7.8322e-05 0.00263316  0
0.000128329 0.00290788  0
9.52689e-05 0.00316637  0
0.000161581 0.00264701  0
0.000227121 0.00375611  0
0.000128425 0.00290669  0
0.000194351 0.00320156  0
0.000161195 0.00346124  0
9.557e-05 0.00316635  0
3.52197e-06 0.00371915  0
-3.70602e-06 0.00261146  0
4.9546e-05 0.00344275  0
-9.20277e-08 0.0031653  0
4.5932e-05 0.00288891  0
9.56537e-05 0.00316532  0
0.000226412 0.00375963  0
2.74697e-06 0.00372283  0
0.000161033 0.00346248  0
0.000114579 0.00374123  0
4.92003e-05 0.00344407  0
0.000297797 0.00323844  0
0.000151946 0.00264995  0
0.000337453 0.00275859  0
0.000224871 0.00294419  0
0.000244699 0.00270427  0
0.000317625 0.00299852  0
0.000297268 0.00323958  0
0.000234381 0.00375641  0
0.000153946 0.00264664  0
0.000265824 0.003498  0
0.000194164 0.00320152  0
0.000225607 0.00294311  0
0.000296932 0.00323964  0
0.000339461 0.0027558  0
0.000481573 0.00386908  0
0.000318197 0.00299772  0
0.000410517 0.00331244  0
0.000389252 0.00355436  0
0.000297855 0.00323883  0
0.000479185 0.00387167  0
0.000232041 0.00375949  0
0.00038852 0.00355525  0
0.000355613 0.00381558  0
0.000264948 0.00349916  0
-3.36146e-05 0.000577749  0
-4.16929e-05 0.000881469  0
-8.52827e-05 0.000943663  0
-3.76537e-05 0.000729609  0
-6.34878e-05 0.000912566  0
-5.94486e-05 0.000760706  0
-3.43475e-05 0.000582558  0
-5.86053e-06 0.000284997  0
-4.04776e-05 0.00086658  0
-2.0104e-05 0.000433777  0
-2.31691e-05 0.000575789  0
-3.74126e-05 0.000724569  0
-3.43407e-05 0.00058248  0
-8.27227e-05 0.000929013  0
-1.89229e-05 0.000320192  0
-5.85317e-05 0.000755747  0
-5.08228e-05 0.000624603  0
-2.66318e-05 0.000451336  0
-3.36918e-05 0.000576898  0
-2.18972e-05 0.000336522  0
-7.45099e-06 0.000301506  0
-2.77945e-05 0.00045671  0
-1.46741e-05 0.000319014  0
-2.05714e-05 0.000439202  0
-9.86359e-05 0.00128626  0
-9.01569e-05 0.000947136  0
-3.69433e-05 0.000878592  0
-9.43964e-05 0.0011167  0
-6.35501e-05 0.000912864  0
-6.77896e-05 0.00108242  0
-9.89713e-05 0.00128997  0
-3.63455e-05 0.000867656  0
-9.34333e-05 0.00166909  0
-6.76584e-05 0.00107881  0
-6.48894e-05 0.00126837  0
-9.62023e-05 0.00147953  0
-9.88433e-05 0.00128997  0
-0.000192238 0.00175967  0
-8.85661e-05 0.000936737  0
-0.000145541 0.00152482  0
-0.000140402 0.0013482  0
-9.37047e-05 0.00111335  0
-9.86342e-05 0.001287  0
-9.35147e-05 0.00167878  0
-0.00019325 0.00176881  0
-9.60744e-05 0.00148289  0
-0.000143382 0.00172379  0
-0.000145942 0.00152791  0
-2.45131e-06 0.000111923  0
1.27562e-07 -2.5217e-06  0
6.13824e-07 -5.25395e-06  0
-1.16188e-06 5.47006e-05  0
3.70693e-07 -3.88782e-06  0
-9.18745e-07 5.33345e-05  0
-3.11684e-06 0.000119526  0
2.32395e-06 -2.727e-05  0
-8.21597e-06 0.000284239  0
-3.96445e-07 4.61279e-05  0
-2.94601e-06 0.000128484  0
-5.6664e-06 0.000201882  0
-3.17423e-06 0.00011936  0
-1.65379e-05 0.000311984  0
3.1749e-06 -2.49004e-05  0
-9.85607e-06 0.000215672  0
-6.68151e-06 0.000143542  0
3.35e-10 4.72297e-05  0
-2.28546e-06 0.00011269  0
-9.84992e-06 0.000304704  0
-1.95236e-05 0.000332751  0
-6.06769e-06 0.000208697  0
-1.46868e-05 0.000318728  0
-1.09045e-05 0.00022272  0
-6.44031e-05 0.00065066  0
-1.46325e-05 0.000315404  0
-8.66369e-05 0.000933615  0
-3.95178e-05 0.000483032  0
-5.06347e-05 0.00062451  0
-7.552e-05 0.000792138  0
-6.32347e-05 0.000645311  0
-3.7654e-05 0.000396533  0
-1.78258e-05 0.000330957  0
-5.04444e-05 0.000520922  0
-2.77399e-05 0.000363745  0
-4.05302e-05 0.000488134  0
-6.31282e-05 0.000646379  0
-8.90665e-05 0.000947206  0
-0.000147414 0.00106154  0
-7.60974e-05 0.000796793  0
-0.00011824 0.00100437  0
-0.000105271 0.000853962  0
-6.43684e-05 0.000650553  0
-0.000143372 0.00104855  0
-3.2777e-05 0.00038147  0
-0.00010387 0.000849552  0
-8.80745e-05 0.00071501  0
-4.85727e-05 0.000516012  0
-5.93899e-06 0.000140112  0
4.60421e-06 -2.9378e-05  0
-1.76702e-05 0.000316413  0
-6.67393e-07 5.53672e-05  0
-6.53299e-06 0.000143517  0
-1.18046e-05 0.000228263  0
-4.37719e-06 0.000133193  0
-2.10627e-05 0.000337002  0
-3.44207e-05 0.00038973  0
-1.27199e-05 0.000235097  0
-2.77417e-05 0.000363366  0
-1.93989e-05 0.000261461  0
-4.66668e-06 0.000132142  0
3.60979e-07 -1.48395e-06  0
1.03896e-06 -6.69548e-06  0
-2.15285e-06 6.53288e-05  0
6.99967e-07 -4.08972e-06  0
-1.81386e-06 6.2723e-05  0
-6.01763e-06 0.000139823  0
-2.91901e-05 0.000368678  0
5.75753e-06 -2.47597e-05  0
-1.76039e-05 0.00025425  0
-1.17163e-05 0.000171959  0
-1.3005e-07 5.75316e-05  0
-0.000190455 0.00218847  0
-0.000159396 0.0026507  0
-0.000329823 0.0027574  0
-0.000174926 0.00241958  0
-0.00024461 0.00270405  0
-0.000260139 0.00247294  0
-0.000190299 0.00219008  0
-8.77571e-05 0.00167048  0
-0.000160631 0.00264499  0
-0.000139028 0.00193028  0
-0.000124194 0.00215773  0
-0.000175465 0.00241754  0
-0.000190049 0.00219013  0
-0.000330659 0.0027523  0
-0.000200259 0.00176543  0
-0.000260354 0.00247121  0
-0.000265459 0.00225887  0
-0.000195154 0.00197778  0
-0.000190413 0.00218791  0
-0.000199956 0.00177123  0
-8.69978e-05 0.00167689  0
-0.000195185 0.00197957  0
-0.000143477 0.00172406  0
-0.000138705 0.0019324  0
-9.56366e-05 0.0031649  0
-0.000161021 0.00265085  0
4.37662e-06 0.00261547  0
-0.000128329 0.00290788  0
-7.8322e-05 0.00263316  0
-4.563e-05 0.00289019  0
-9.52689e-05 0.00316637  0
-0.000227121 0.00375611  0
-0.000161581 0.00264701  0
-0.000161195 0.00346124  0
-0.000194351 0.00320156  0
-0.000128425 0.00290669  0
-9.557e-05 0.00316635  0
3.70602e-06 0.00261146  0
-3.52197e-06 0.00371915  0
-4.5932e-05 0.00288891  0
9.20277e-08 0.0031653  0
-4.9546e-05 0.00344275  0
-9.56537e-05 0.00316532  0
-2.74697e-06 0.00372283  0
-0.000226412 0.00375963  0
-4.92003e-05 0.00344407  0
-0.000114579 0.00374123  0
-0.000161033 0.00346248  0
-0.000297797 0.00323844  0
-0.000337453 0.00275859  0
-0.000151946 0.00264995  0
-0.000317625 0.00299852  0
-0.000244699 0.00270427  0
-0.000224871 0.00294419  0
-0.000297268 0.00323958  0
-0.000153946 0.00264664  0
-0.000234381 0.00375641  0
-0.000225607 0.00294311  0
-0.000194164 0.00320152  0
-0.000265824 0.003498  0
-0.000296932 0.00323964  0
-0.000481573 0.00386908  0
-0.000339461 0.0027558  0
-0.000389252 0.00355436  0
-0.000410517 0.00331244  0
-0.000318197 0.00299772  0
-0.000297855 0.00323883  0
-0.000232041 0.00375949  0
-0.000479185 0.00387167  0
-0.000264948 0.00349916  0
-0.000355613 0.00381558  0
-0.00038852 0.00355525  0
-0.000182755 0.0014006  0
-8.19538e-05 0.000933023  0
-0.000198438 0.00176315  0
-0.000132355 0.00116681  0
-0.000140196 0.00134809  0
-0.000190597 0.00158188  0
-0.000182321 0.00139842  0
-0.000198542 0.00177093  0
-0.000327048 0.00193219  0
-0.000190431 0.00158467  0
-0.000262795 0.00185156  0
-0.000254684 0.0016653  0
-0.000182287 0.0013976  0
-0.00015373 0.00106742  0
-8.30268e-05 0.000942048  0
-0.000168009 0.00123251  0
-0.000118379 0.00100473  0
-0.000132657 0.00116982  0
-0.000182544 0.00140064  0
-0.000326085 0.00192551  0
-0.000151709 0.00105949  0
-0.000254314 0.00166308  0
-0.000238897 0.0014925  0
-0.000167127 0.00123006  0
-0.000345886 0.0023288  0
-0.000192348 0.00176336  0
-0.000338156 0.00275417  0
-0.000269117 0.00204608  0
-0.000265252 0.00225877  0
-0.000342021 0.00254148  0
-0.000346281 0.00232738  0
-0.000335167 0.0019359  0
-0.000190782 0.0017678  0
-0.000340724 0.00213164  0
-0.000262974 0.00185185  0
-0.000268532 0.00204759  0
-0.000346388 0.0023279  0
-0.000335794 0.00275811  0
-0.000546956 0.00294464  0
-0.000341091 0.00254301  0
-0.000441375 0.00285138  0
-0.000446672 0.00263627  0
-0.000345539 0.0023289  0
-0.000549169 0.00294176  0
-0.000336524 0.00193257  0
-0.000447354 0.00263533  0
-0.000442846 0.00243717  0
-0.000341031 0.00213074  0
0.000723875 0.00455559  0
0.000639144 0.00508386  0
0.000482228 0.0038713  0
0.00068151 0.00481973  0
0.000560686 0.00447758  0
0.000603051 0.00421345  0
0.000725476 0.00455542  0
0.000477029 0.0038718  0
0.000789277 0.00406346  0
0.000601252 0.00421361  0
0.000633153 0.00396763  0
0.000757377 0.00430944  0
0.000725574 0.00455561  0
0.00100963 0.005269  0
0.000633685 0.00508465  0
0.000867604 0.0049123  0
0.000821659 0.00517682  0
0.00067963 0.00482013  0
0.000723459 0.00455569  0
0.000794977 0.00406347  0
0.0010156 0.00526869  0
0.000759218 0.00430958  0
0.00090529 0.00466608  0
0.000869531 0.00491219  0
0.000408559 0.00440617  0
0.000490185 0.00387071  0
0.000631552 0.00508452  0
0.000449372 0.00413844  0
0.000560869 0.00447761  0
0.000520055 0.00474535  0
0.00040978 0.00440557  0
0.000224403 0.0037597  0
0.000486957 0.00387182  0
0.000317092 0.00408263  0
0.00035568 0.00381576  0
0.000448369 0.00413869  0
0.000409833 0.00440582  0
0.000628098 0.00508577  0
0.000304964 0.00497688  0
0.000518965 0.0047458  0
0.000466531 0.00503133  0
0.000357399 0.00469135  0
0.000408943 0.00440612  0
0.000308068 0.00497529  0
0.000227304 0.00375823  0
0.000358505 0.00469071  0
0.000267686 0.00436676  0
0.000318123 0.00408217  0
0.000908367 0.00580623  0
0.000626142 0.00508617  0
0.0010173 0.00526773  0
0.000767254 0.0054462  0
0.000821722 0.00517695  0
0.000962835 0.00553698  0
0.000906073 0.00580634  0
0.00102392 0.00526803  0
0.00122782 0.00654844  0
0.000964994 0.00553719  0
0.00112587 0.00590824  0
0.00106695 0.00617739  0
0.000906478 0.00580628  0
0.00077842 0.00638038  0
0.00063216 0.00508618  0
0.000842449 0.00609333  0
0.00070529 0.00573328  0
0.000769319 0.00544623  0
0.000908434 0.00580635  0
0.00122109 0.00654857  0
0.000772278 0.00638078  0
0.00106476 0.00617746  0
0.000996682 0.00646468  0
0.000840356 0.00609357  0
0.00136658 0.00601789  0
0.00100782 0.00526959  0
0.00147938 0.00552735  0
0.0011872 0.00564374  0
0.0012436 0.00539847  0
0.00142298 0.00577262  0
0.00136382 0.00601771  0
0.00123495 0.00654628  0
0.00101647 0.00527018  0
0.00129939 0.006282  0
0.00112571 0.00590823  0
0.00119015 0.00564395  0
0.00136344 0.00601781  0
0.00148868 0.00552822  0
0.00176547 0.00678344  0
0.00142606 0.00577301  0
0.00162707 0.00615583  0
0.00156445 0.00640062  0
0.00136668 0.00601795  0
0.00175614 0.00678307  0
0.00122626 0.00654618  0
0.00156141 0.00640051  0
0.0014912 0.00666463  0
0.00129647 0.00628206  0
0.000132243 0.00433261  0
3.5554e-06 0.00493948  0
-3.73777e-06 0.00372105  0
6.78993e-05 0.00463604  0
-9.11855e-08 0.00433026  0
6.42527e-05 0.00402683  0
0.000132394 0.00433184  0
-4.6051e-06 0.003723  0
0.00023381 0.00375984  0
6.38943e-05 0.00402742  0
0.000114603 0.00374142  0
0.000183102 0.00404584  0
0.00013241 0.00433213  0
0.000299625 0.00497742  0
2.62282e-06 0.00494145  0
0.000216018 0.00465477  0
0.000151124 0.00495943  0
6.75165e-05 0.00463679  0
0.000131878 0.00433262  0
0.000234913 0.00375801  0
0.000300824 0.00497556  0
0.000183396 0.00404532  0
0.000267869 0.00436679  0
0.000216351 0.00465409  0
-0.000132243 0.00433261  0
3.73777e-06 0.00372105  0
-3.5554e-06 0.00493948  0
-6.42527e-05 0.00402683  0
9.11855e-08 0.00433026  0
-6.78993e-05 0.00463604  0
-0.000132394 0.00433184  0
-0.00023381 0.00375984  0
4.6051e-06 0.003723  0
-0.000183102 0.00404584  0
-0.000114603 0.00374142  0
-6.38943e-05 0.00402742  0
-0.00013241 0.00433213  0
-2.62282e-06 0.00494145  0
-0.000299625 0.00497742  0
-6.75165e-05 0.00463679  0
-0.000151124 0.00495943  0
-0.000216018 0.00465477  0
-0.000131878 0.00433262  0
-0.000300824 0.00497556  0
-0.000234913 0.00375801  0
-0.000216351 0.00465409  0
-0.000267869 0.00436679  0
-0.000183396 0.00404532  0
0.000517868 0.00566668  0
0.000297672 0.00497775  0
0.000635478 0.00508519  0
0.00040777 0.00532221  0
0.000466575 0.00503147  0
0.000576673 0.00537593  0
0.000516832 0.00566694  0
0.000376978 0.00628175  0
0.000301131 0.00497722  0
0.000446905 0.00597434  0
0.000339055 0.00562948  0
0.000408982 0.00532208  0
0.000516426 0.00566698  0
0.000639455 0.00508487  0
0.000771467 0.00638172  0
0.00057794 0.00537592  0
0.000705461 0.0057333  0
0.000643946 0.00602435  0
0.000517906 0.00566684  0
0.000767367 0.00638238  0
0.000373408 0.00628261  0
0.000642636 0.00602461  0
0.000570387 0.0063325  0
0.000445657 0.00597473  0
0.000168099 0.00559753  0
-4.51372e-06 0.00494183  0
0.000306793 0.00497735  0
8.17929e-05 0.00526968  0
0.00015114 0.00495959  0
0.000237446 0.00528744  0
0.000167488 0.00559794  0
0.000308252 0.00497661  0
0.000370212 0.00628239  0
0.00023787 0.00528727  0
0.000339232 0.0056295  0
0.00026885 0.00594016  0
0.000167892 0.00559793  0
3.34514e-06 0.00624924  0
-3.52383e-06 0.00494101  0
8.56184e-05 0.00592359  0
-8.93469e-08 0.00559513  0
8.21839e-05 0.00526947  0
0.000168111 0.00559772  0
0.000368697 0.00628341  0
2.31814e-06 0.00625034  0
0.000268404 0.00594057  0
0.000185508 0.00626688  0
8.52148e-05 0.00592403  0
0.000200532 0.0069447  0
2.9766e-06 0.00763346  0
-3.15282e-06 0.00625053  0
0.000101754 0.00728908  0
-8.81094e-08 0.00694199  0
9.86893e-05 0.00659761  0
0.000200775 0.00694446  0
-4.21319e-06 0.00625085  0
0.000375247 0.00628317  0
9.8281e-05 0.00659766  0
0.000185517 0.00626701  0
0.000288011 0.00661381  0
0.000200781 0.0069446  0
0.000430472 0.00766314  0
1.89371e-06 0.00763421  0
0.000315626 0.00730387  0
0.000216183 0.00764868  0
0.000101337 0.0072894  0
0.000200106 0.0069447  0
0.000376915 0.00628288  0
0.000432173 0.00766243  0
0.000288511 0.00661379  0
0.000404544 0.00697266  0
0.00031614 0.00730357  0
-0.000200532 0.0069447  0
3.15282e-06 0.00625053  0
-2.9766e-06 0.00763346  0
-9.86893e-05 0.00659761  0
8.81094e-08 0.00694199  0
-0.000101754 0.00728908  0
-0.000200775 0.00694446  0
-0.000375247 0.00628317  0
4.21319e-06 0.00625085  0
-0.000288011 0.00661381  0
-0.000185517 0.00626701  0
-9.8281e-05 0.00659766  0
-0.000200781 0.0069446  0
-1.89371e-06 0.00763421  0
-0.000430472 0.00766314  0
-0.000101337 0.0072894  0
-0.000216183 0.00764868  0
-0.000315626 0.00730387  0
-0.000200106 0.0069447  0
-0.000432173 0.00766243  0
-0.000376915 0.00628288  0
-0.00031614 0.00730357  0
-0.000404544 0.00697266  0
-0.000288511 0.00661379  0
-0.000167892 0.00559793  0
3.52383e-06 0.00494101  0
-3.34514e-06 0.00624924  0
-8.21839e-05 0.00526947  0
8.93469e-08 0.00559513  0
-8.56184e-05 0.00592359  0
-0.000168111 0.00559772  0
-2.31814e-06 0.00625034  0
-0.000368697 0.00628341  0
-8.52148e-05 0.00592403  0
-0.000185508 0.00626688  0
-0.000268404 0.00594057  0
-0.000168099 0.00559753  0
-0.000306793 0.00497735  0
4.51372e-06 0.00494183  0
-0.000237446 0.00528744  0
-0.00015114 0.00495959  0
-8.17929e-05 0.00526968  0
-0.000167488 0.00559794  0
-0.000370212 0.00628239  0
-0.000308252 0.00497661  0
-0.00026885 0.00594016  0
-0.000339232 0.0056295  0
-0.00023787 0.00528727  0
0.000616461 0.00700615  0
0.000891368 0.00774938  0
0.000434333 0.00766219  0
0.000753914 0.00737776  0
0.00066285 0.00770578  0
0.000525397 0.00733417  0
0.000615287 0.00700619  0
0.000438175 0.00766157  0
0.000370566 0.00628373  0
0.000526731 0.00733388  0
0.000404371 0.00697265  0
0.000492927 0.00664496  0
0.000614871 0.00700621  0
0.000778432 0.0063813  0
0.000895837 0.00774888  0
0.000696652 0.00669375  0
0.000837135 0.00706509  0
0.000755354 0.00737754  0
0.000616443 0.00700603  0
0.00036679 0.0062839  0
0.000774036 0.00638135  0
0.000491617 0.00664496  0
0.000570413 0.00633263  0
0.000695239 0.00669369  0
0.000229235 0.00835977  0
-3.7992e-06 0.0076348  0
0.000436174 0.00766281  0
0.000112718 0.00799728  0
0.000216187 0.0076488  0
0.000332704 0.00801129  0
0.000228531 0.00835997  0
0.000437953 0.00766264  0
0.000484996 0.00910488  0
0.000333242 0.0080113  0
0.000461475 0.00838376  0
0.000356763 0.00873243  0
0.00022897 0.00835997  0
2.51906e-06 0.00908069  0
-2.69619e-06 0.00763461  0
0.000115745 0.00872033  0
-8.85651e-08 0.00835765  0
0.000113137 0.00799729  0
0.000229233 0.00835988  0
0.000483194 0.00910555  0
1.39861e-06 0.00908138  0
0.000356214 0.00873272  0
0.000242296 0.00909346  0
0.000115316 0.00872063  0
0.00070222 0.00841213  0
0.000428572 0.00766369  0
0.000897154 0.00774811  0
0.000565396 0.00803791  0
0.000662863 0.0077059  0
0.000799687 0.00808012  0
0.000700993 0.00841229  0
0.000490078 0.00910392  0
0.000432525 0.00766359  0
0.000595535 0.0087581  0
0.000461301 0.00838375  0
0.000566759 0.00803794  0
0.000700568 0.00841229  0
0.000901777 0.00774805  0
0.00100176 0.00917688  0
0.000801172 0.00808017  0
0.000951767 0.00846246  0
0.000851162 0.00879458  0
0.000702217 0.00841223  0
0.000997076 0.00917743  0
0.000486071 0.00910452  0
0.000849646 0.00879483  0
0.000741574 0.00914097  0
0.000594144 0.00875837  0
0.00107209 0.00712999  0
0.000901961 0.00774714  0
0.000771982 0.00638301  0
0.000987025 0.00743857  0
0.000836971 0.00706508  0
0.000922035 0.0067565  0
0.00107414 0.00712995  0
0.000765531 0.00638289  0
0.0012279 0.00654668  0
0.000919836 0.00675642  0
0.000996717 0.00646479  0
0.00115102 0.00683832  0
0.00107417 0.00713004  0
0.00140853 0.00789392  0
0.000895438 0.00774748  0
0.00124135 0.00751198  0
0.00115198 0.0078207  0
0.000984806 0.00743876  0
0.00107169 0.00713002  0
0.00123498 0.00654696  0
0.00141568 0.00789373  0
0.00115334 0.00683849  0
0.00132533 0.00722034  0
0.00124369 0.00751188  0
-0.000517868 0.00566668  0
-0.000635478 0.00508519  0
-0.000297672 0.00497775  0
-0.000576673 0.00537593  0
-0.000466575 0.00503147  0
-0.00040777 0.00532221  0
-0.000516832 0.00566694  0
-0.000301131 0.00497722  0
-0.000376978 0.00628175  0
-0.000408982 0.00532208  0
-0.000339055 0.00562948  0
-0.000446905 0.00597434  0
-0.000516426 0.00566698  0
-0.000771467 0.00638172  0
-0.000639455 0.00508487  0
-0.000643946 0.00602435  0
-0.000705461 0.0057333  0
-0.00057794 0.00537592  0
-0.000517906 0.00566684  0
-0.000373408 0.00628261  0
-0.000767367 0.00638238  0
-0.000445657 0.00597473  0
-0.000570387 0.0063325  0
-0.000642636 0.00602461  0
-0.000409833 0.00440582  0
-0.000304964 0.00497688  0
-0.000628098 0.00508577  0
-0.000357399 0.00469135  0
-0.000466531 0.00503133  0
-0.000518965 0.0047458  0
-0.000408943 0.00440612  0
-0.000227304 0.00375823  0
-0.000308068 0.00497529  0
-0.000318123 0.00408217  0
-0.000267686 0.00436676  0
-0.000358505 0.00469071  0
-0.000408559 0.00440617  0
-0.000631552 0.00508452  0
-0.000490185 0.00387071  0
-0.000520055 0.00474535  0
-0.000560869 0.00447761  0
-0.000449372 0.00413844  0
-0.00040978 0.00440557  0
-0.000486957 0.00387182  0
-0.000224403 0.0037597  0
-0.000448369 0.00413869  0
-0.00035568 0.00381576  0
-0.000317092 0.00408263  0
-0.000616461 0.00700615  0
-0.000434333 0.00766219  0
-0.000891368 0.00774938  0
-0.000525397 0.00733417  0
-0.00066285 0.00770578  0
-0.000753914 0.00737776  0
-0.000615287 0.00700619  0
-0.000370566 0.00628373  0
-0.000438175 0.00766157  0
-0.000492927 0.00664496  0
-0.000404371 0.00697265  0
-0.000526731 0.00733388  0
-0.000614871 0.00700621  0
-0.000895837 0.00774888  0
-0.000778432 0.0063813  0
-0.000755354 0.00737754  0
-0.000837135 0.00706509  0
-0.000696652 0.00669375  0
-0.000616443 0.00700603  0
-0.000774036 0.00638135  0
-0.00036679 0.0062839  0
-0.000695239 0.00669369  0
-0.000570413 0.00633263  0
-0.000491617 0.00664496  0
-0.000229235 0.00835977  0
-0.000436174 0.00766281  0
3.7992e-06 0.0076348  0
-0.000332704 0.00801129  0
-0.000216187 0.0076488  0
-0.000112718 0.00799728  0
-0.000228531 0.00835997  0
-0.000484996 0.00910488  0
-0.000437953 0.00766264  0
-0.000356763 0.00873243  0
-0.000461475 0.00838376  0
-0.000333242 0.0080113  0
-0.00022897 0.00835997  0
2.69619e-06 0.00763461  0
-2.51906e-06 0.00908069  0
-0.000113137 0.00799729  0
8.85651e-08 0.00835765  0
-0.000115745 0.00872033  0
-0.000229233 0.00835988  0
-1.39861e-06 0.00908138  0
-0.000483194 0.00910555  0
-0.000115316 0.00872063  0
-0.000242296 0.00909346  0
-0.000356214 0.00873272  0
-0.00070222 0.00841213  0
-0.000897154 0.00774811  0
-0.000428572 0.00766369  0
-0.000799687 0.00808012  0
-0.000662863 0.0077059  0
-0.000565396 0.00803791  0
-0.000700993 0.00841229  0
-0.000432525 0.00766359  0
-0.000490078 0.00910392  0
-0.000566759 0.00803794  0
-0.000461301 0.00838375  0
-0.000595535 0.0087581  0
-0.000700568 0.00841229  0
-0.00100176 0.00917688  0
-0.000901777 0.00774805  0
-0.000851162 0.00879458  0
-0.000951767 0.00846246  0
-0.000801172 0.00808017  0
-0.000702217 0.00841223  0
-0.000486071 0.00910452  0
-0.000997076 0.00917743  0
-0.000594144 0.00875837  0
-0.000741574 0.00914097  0
-0.000849646 0.00879483  0
-0.000906478 0.00580628  0
-0.00063216 0.00508618  0
-0.00077842 0.00638038  0
-0.000769319 0.00544623  0
-0.00070529 0.00573328  0
-0.000842449 0.00609333  0
-0.000908434 0.00580635  0
-0.000772278 0.00638078  0
-0.00122109 0.00654857  0
-0.000840356 0.00609357  0
-0.000996682 0.00646468  0
-0.00106476 0.00617746  0
-0.000908367 0.00580623  0
-0.0010173 0.00526773  0
-0.000626142 0.00508617  0
-0.000962835 0.00553698  0
-0.000821722 0.00517695  0
-0.000767254 0.0054462  0
-0.000906073 0.00580634  0
-0.00122782 0.00654844  0
-0.00102392 0.00526803  0
-0.00106695 0.00617739  0
-0.00112587 0.00590824  0
-0.000964994 0.00553719  0
-0.00107209 0.00712999  0
-0.000771982 0.00638301  0
-0.000901961 0.00774714  0
-0.000922035 0.0067565  0
-0.000836971 0.00706508  0
-0.000987025 0.00743857  0
-0.00107414 0.00712995  0
-0.0012279 0.00654668  0
-0.000765531 0.00638289  0
-0.00115102 0.00683832  0
-0.000996717 0.00646479  0
-0.000919836 0.00675642  0
-0.00107417 0.00713004  0
-0.000895438 0.00774748  0
-0.00140853 0.00789392  0
-0.000984806 0.00743876  0
-0.00115198 0.0078207  0
-0.00124135 0.00751198  0
-0.00107169 0.00713002  0
-0.00141568 0.00789373  0
-0.00123498 0.00654696  0
-0.00124369 0.00751188  0
-0.00132533 0.00722034  0
-0.00115334 0.00683849  0
-0.000723875 0.00455559  0
-0.000482228 0.0038713  0
-0.000639144 0.00508386  0
-0.000603051 0.00421345  0
-0.000560686 0.00447758  0
-0.00068151 0.00481973  0
-0.000725476 0.00455542  0
-0.000789277 0.00406346  0
-0.000477029 0.0038718  0
-0.000757377 0.00430944  0
-0.000633153 0.00396763  0
-0.000601252 0.00421361  0
-0.000725574 0.00455561  0
-0.000633685 0.00508465  0
-0.00100963 0.005269  0
-0.00067963 0.00482013  0
-0.000821659 0.00517682  0
-0.000867604 0.0049123  0
-0.000723459 0.00455569  0
-0.0010156 0.00526869  0
-0.000794977 0.00406347  0
-0.000869531 0.00491219  0
-0.00090529 0.00466608  0
-0.000759218 0.00430958  0
-0.00053255 0.00339025  0
-0.000331206 0.00275526  0
-0.000489436 0.00386948  0
-0.000431878 0.00307275  0
-0.000410321 0.00331237  0
-0.000510993 0.00362986  0
-0.000533784 0.00339  0
-0.00048518 0.00387129  0
-0.000780918 0.00406364  0
-0.000509482 0.00363064  0
-0.000633049 0.00396746  0
-0.000657351 0.00372682  0
-0.000533666 0.00338969  0
-0.000555605 0.00294613  0
-0.00032745 0.00275705  0
-0.000544636 0.00316791  0
-0.000441528 0.00285159  0
-0.000430558 0.00307337  0
-0.000532143 0.00339037  0
-0.00078547 0.00406261  0
-0.000559627 0.00294517  0
-0.000658806 0.00372649  0
-0.000672548 0.00350389  0
-0.000545885 0.00316777  0
0.00160069 0.00731734  0
0.00200767 0.00809788  0
0.00141291 0.00789115  0
0.00180418 0.00770761  0
0.00171029 0.00799451  0
0.0015068 0.00760425  0
0.00159774 0.00731721  0
0.00142193 0.00789111  0
0.00122844 0.00654957  0
0.00150983 0.00760416  0
0.00132518 0.00722034  0
0.00141309 0.00693339  0
0.00159739 0.00731725  0
0.00177259 0.00678082  0
0.00201727 0.00809797  0
0.00168499 0.00704904  0
0.00189493 0.0074394  0
0.00180733 0.00770761  0
0.00160064 0.00731728  0
0.00121946 0.00654916  0
0.00176301 0.00678027  0
0.00141005 0.00693322  0
0.00149123 0.00666472  0
0.00168182 0.00704878  0
0.00180418 0.00867736  0
0.00140694 0.00789443  0
0.00201367 0.00809477  0
0.00160556 0.00828589  0
0.00171031 0.0079946  0
0.00190893 0.00838607  0
0.00180118 0.00867738  0
0.00158128 0.00929493  0
0.00141612 0.00789466  0
0.00169123 0.00898616  0
0.0014987 0.0085948  0
0.00160865 0.00828602  0
0.00180085 0.00867737  0
0.00202341 0.00809507  0
0.00223316 0.00946929  0
0.00191213 0.00838622  0
0.00212828 0.00878218  0
0.002017 0.00907333  0
0.00180418 0.00867742  0
0.00222335 0.00946942  0
0.00157203 0.00929513  0
0.00201376 0.00907342  0
0.00189769 0.00938228  0
0.00168811 0.00898628  0
0.00121825 0.00851758  0
0.000889565 0.0077499  0
0.00141444 0.00789171  0
0.00105391 0.00813374  0
0.001152 0.00782081  0
0.00131634 0.00820465  0
0.0012157 0.00851767  0
0.00142177 0.00789184  0
0.00157592 0.00929778  0
0.00131873 0.00820475  0
0.00149884 0.00859481  0
0.00139581 0.00890772  0
0.00121609 0.00851767  0
0.00100696 0.00917495  0
0.000896254 0.00774996  0
0.00111152 0.00884631  0
0.000951605 0.00846245  0
0.00105617 0.00813381  0
0.00121824 0.00851766  0
0.00156852 0.00929814  0
0.00100019 0.00917538  0
0.00139338 0.0089079  0
0.00128436 0.00923676  0
0.00110922 0.00884652  0
0.00221665 0.00756838  0
0.00202354 0.00809451  0
0.00176608 0.00678429  0
0.00212009 0.00783145  0
0.00189481 0.0074394  0
0.00199136 0.00717633  0
0.00222029 0.00756852  0
0.00175488 0.00678375  0
0.00240285 0.00708179  0
0.00198759 0.00717614  0
0.00207886 0.00693277  0
0.00231157 0.00732515  0
0.00222034 0.00756856  0
0.00271091 0.00836175  0
0.0020124 0.00809435  0
0.00246562 0.00796515  0
0.00236165 0.00822805  0
0.00211637 0.00783146  0
0.00221638 0.00756844  0
0.00241452 0.00708239  0
0.00272251 0.00836198  0
0.00231545 0.00732542  0
0.00256852 0.00772219  0
0.00246945 0.00796521  0
0.00077192 0.00987577  0
0.00100663 0.00917593  0
0.00108815 0.0106576  0
0.000889274 0.00952585  0
0.00104739 0.00991677  0
0.000930035 0.0102667  0
0.000773622 0.0098756  0
0.000481253 0.00910611  0
0.0010019 0.00917607  0
0.000627438 0.00949085  0
0.000741576 0.00914109  0
0.00088776 0.00952583  0
0.000773596 0.00987571  0
0.00108337 0.0106582  0
0.00052804 0.0105999  0
0.000928482 0.010267  0
0.000805704 0.0106291  0
0.000650818 0.0102378  0
0.000772355 0.00987579  0
0.000532139 0.0105993  0
0.000485302 0.00910598  0
0.000652247 0.0102375  0
0.000508721 0.00985264  0
0.000628829 0.00949089  0
0.0013363 0.00996169  0
0.00109239 0.0106557  0
0.00100206 0.00917786  0
0.00121434 0.0103087  0
0.00104722 0.00991676  0
0.00116918 0.00956978  0
0.00133852 0.00996153  0
0.000995231 0.00917791  0
0.00157349 0.00929581  0
0.00116688 0.00956972  0
0.00128436 0.00923686  0
0.001456 0.00962867  0
0.00133848 0.00996161  0
0.00169973 0.0107548  0
0.00108547 0.0106562  0
0.00151911 0.0103582  0
0.0013926 0.0107055  0
0.00121197 0.0103089  0
0.0013359 0.00996165  0
0.00158097 0.00929575  0
0.00170731 0.0107542  0
0.00145844 0.0096287  0
0.00164414 0.010025  0
0.0015216 0.0103579  0
0.00025263 0.00983324  0
2.02761e-06 0.010581  0
-2.21028e-06 0.00908183  0
0.000127329 0.0102071  0
-9.13381e-08 0.0098314  0
0.00012521 0.00945754  0
0.000252904 0.00983304  0
-3.34329e-06 0.00908199  0
0.000487937 0.00910518  0
0.00012478 0.00945752  0
0.000242297 0.00909359  0
0.000370421 0.00946911  0
0.000252895 0.00983316  0
0.000526201 0.0106009  0
8.79212e-07 0.0105816  0
0.000389548 0.0102171  0
0.00026354 0.0105913  0
0.000126887 0.0102074  0
0.000252179 0.00983323  0
0.000489759 0.00910502  0
0.000528039 0.0106003  0
0.000370969 0.00946913  0
0.000508899 0.00985265  0
0.000390109 0.0102168  0
-0.00025263 0.00983324  0
2.21028e-06 0.00908183  0
-2.02761e-06 0.010581  0
-0.00012521 0.00945754  0
9.13381e-08 0.0098314  0
-0.000127329 0.0102071  0
-0.000252904 0.00983304  0
-0.000487937 0.00910518  0
3.34329e-06 0.00908199  0
-0.000370421 0.00946911  0
-0.000242297 0.00909359  0
-0.00012478 0.00945752  0
-0.000252895 0.00983316  0
-8.79211e-07 0.0105816  0
-0.000526201 0.0106009  0
-0.000126887 0.0102074  0
-0.00026354 0.0105913  0
-0.000389548 0.0102171  0
-0.000252179 0.00983323  0
-0.000528039 0.0106003  0
-0.000489759 0.00910502  0
-0.000390109 0.0102168  0
-0.000508899 0.00985265  0
-0.000370969 0.00946913  0
0.000830479 0.0113874  0
0.000524175 0.0106015  0
0.00108722 0.010657  0
0.000677327 0.0109945  0
0.000805695 0.0106292  0
0.000958847 0.0110222  0
0.000829208 0.0113876  0
0.000564804 0.0121377  0
0.000528241 0.0106014  0
0.000697006 0.0117627  0
0.000546522 0.0113696  0
0.000678725 0.0109945  0
0.000828761 0.0113876  0
0.00109193 0.0106568  0
0.00115565 0.0121825  0
0.000960345 0.0110222  0
0.00112379 0.0114197  0
0.000992204 0.0117851  0
0.000830427 0.0113876  0
0.0011509 0.0121831  0
0.000560704 0.0121382  0
0.000990663 0.0117854  0
0.000855802 0.0121607  0
0.000695565 0.0117629  0
0.000271727 0.0113543  0
-2.90109e-06 0.0105822  0
0.000529974 0.0106006  0
0.000134413 0.0109683  0
0.000263537 0.0105914  0
0.000400851 0.0109775  0
0.000270996 0.0113545  0
0.000531767 0.0106006  0
0.000561656 0.0121386  0
0.000401382 0.0109775  0
0.000546712 0.0113696  0
0.000416326 0.0117465  0
0.000271456 0.0113545  0
1.55513e-06 0.0121237  0
-1.74843e-06 0.0105822  0
0.000136506 0.0117391  0
-9.66505e-08 0.011353  0
0.000134854 0.0109683  0
0.00027171 0.0113545  0
0.000559857 0.0121391  0
3.92625e-07 0.0121242  0
0.000415783 0.0117468  0
0.000280125 0.0121316  0
0.000136051 0.0117393  0
0.00197167 0.0100926  0
0.00223843 0.00946626  0
0.00241205 0.0108926  0
0.00210505 0.00977941  0
0.00232524 0.0101794  0
0.00219186 0.0104926  0
0.00197509 0.0100925  0
0.00156687 0.00929853  0
0.00222852 0.00946619  0
0.00177098 0.00969552  0
0.0018977 0.00938236  0
0.00210181 0.00977935  0
0.00197504 0.0100926  0
0.002402 0.010893  0
0.0017023 0.0107517  0
0.00218852 0.0104928  0
0.00205215 0.0108224  0
0.00183867 0.0104222  0
0.001972 0.0100926  0
0.00171177 0.0107514  0
0.00157621 0.0092986  0
0.00184189 0.010422  0
0.00164399 0.010025  0
0.00177411 0.00969561  0
0.00248011 0.0088928  0
0.00223868 0.00946564  0
0.00201766 0.0080987  0
0.00235939 0.00917922  0
0.00212817 0.00878217  0
0.00224888 0.00849575  0
0.00248381 0.0088929  0
0.00298333 0.00969338  0
0.0022274 0.00946561  0
0.00273357 0.00929314  0
0.00260536 0.00957949  0
0.0023556 0.00917926  0
0.00248381 0.00889285  0
0.00200642 0.00809835  0
0.00271691 0.00835788  0
0.00224511 0.0084956  0
0.00236166 0.00822812  0
0.00260036 0.00862537  0
0.00247986 0.00889281  0
0.00272856 0.00835828  0
0.00299503 0.00969346  0
0.00260421 0.00862554  0
0.0028618 0.00902587  0
0.00273744 0.00929313  0
0.00270369 0.0102711  0
0.00241685 0.0108889  0
0.0022334 0.00946993  0
0.00256027 0.01058  0
0.00232512 0.0101794  0
0.00246855 0.00987053  0
0.00270748 0.0102711  0
0.00222202 0.0094697  0
0.00298872 0.00968941  0
0.00246475 0.00987041  0
0.00260537 0.00957956  0
0.0028481 0.00998026  0
0.00270743 0.0102712  0
0.00321269 0.0110765  0
0.0024053 0.010889  0
0.00296006 0.0106738  0
0.002809 0.0109827  0
0.00255637 0.0105801  0
0.00270345 0.0102711  0
0.00300052 0.00968968  0
0.00322466 0.0110764  0
0.00285198 0.00998038  0
0.00311259 0.010383  0
0.00296405 0.0106737  0
0.00143467 0.0114545  0
0.00108142 0.0106587  0
0.00170375 0.0107525  0
0.00125805 0.0110566  0
0.00139259 0.0107056  0
0.00156921 0.0111035  0
0.001432 0.0114546  0
0.00171128 0.0107523  0
0.00181045 0.0122566  0
0.00157164 0.0111035  0
0.00176086 0.0115045  0
0.00162123 0.0118556  0
0.00143242 0.0114547  0
0.00115892 0.0121808  0
0.0010883 0.0106586  0
0.00129567 0.0118177  0
0.00112361 0.0114197  0
0.00126036 0.0110566  0
0.00143459 0.0114546  0
0.00180283 0.0122573  0
0.00115196 0.0121813  0
0.00161871 0.011856  0
0.0014774 0.0122193  0
0.00129327 0.011818  0
0.00211292 0.0115572  0
0.00169796 0.0107551  0
0.00240633 0.0108898  0
0.00190544 0.0111562  0
0.00205214 0.0108224  0
0.00225962 0.0112235  0
0.00210976 0.0115575  0
0.00181399 0.0122539  0
0.00170743 0.010755  0
0.00196188 0.0119057  0
0.00176071 0.0115045  0
0.00190859 0.0111562  0
0.0021094 0.0115573  0
0.0024164 0.0108896  0
0.00255417 0.0123633  0
0.0022629 0.0112235  0
0.00248529 0.0116264  0
0.00233179 0.0119603  0
0.00211281 0.0115573  0
0.00254392 0.012364  0
0.00180436 0.0122545  0
0.00232836 0.0119606  0
0.00217414 0.0123092  0
0.00195858 0.0119059  0
0.00295332 0.00788278  0
0.00353512 0.00868496  0
0.00271595 0.00835768  0
0.00324422 0.00828387  0
0.00312553 0.00852132  0
0.00283463 0.00812023  0
0.00294908 0.00788264  0
0.00272864 0.00835786  0
0.00240822 0.00708655  0
0.00283886 0.00812025  0
0.00256843 0.00772221  0
0.00267865 0.0074846  0
0.00294891 0.00788269  0
0.00317916 0.00744891  0
0.00354809 0.00868514  0
0.00306403 0.0076658  0
0.00336362 0.00806702  0
0.0032485 0.00828392  0
0.00295327 0.00788274  0
0.0023954 0.00708616  0
0.00316604 0.00744852  0
0.00267433 0.00748445  0
0.00278072 0.00726734  0
0.00305965 0.00766563  0
0.00327622 0.00916508  0
0.00271007 0.00836215  0
0.003541 0.00868059  0
0.00299314 0.00876362  0
0.00312554 0.00852137  0
0.00340861 0.00892283  0
0.00327202 0.00916501  0
0.00300066 0.00968922  0
0.00272277 0.00836252  0
0.00313634 0.00942711  0
0.00286171 0.00902587  0
0.0029974 0.00876376  0
0.00327187 0.00916501  0
0.00355393 0.00868097  0
0.0038775 0.00997224  0
0.0034129 0.00892299  0
0.00371572 0.0093266  0
0.00357469 0.00956863  0
0.00327622 0.00916514  0
0.00386458 0.00997201  0
0.00298796 0.00968902  0
0.0035704 0.00956857  0
0.00342627 0.00983051  0
0.00313209 0.00942708  0
0.00380945 0.00825749  0
0.00355394 0.00868061  0
0.00317321 0.00745348  0
0.0036817 0.00846905  0
0.00336357 0.00806705  0
0.00349133 0.00785549  0
0.00381396 0.0082575  0
0.00315948 0.00745339  0
0.0040643 0.0078759  0
0.00348672 0.00785544  0
0.00361189 0.00766465  0
0.00393913 0.0080667  0
0.003814 0.00825754  0
0.00449121 0.00906592  0
0.00354034 0.00868058  0
0.0041526 0.00866173  0
0.00401578 0.00887325  0
0.00367717 0.00846906  0
0.00380937 0.00825752  0
0.00407812 0.00787595  0
0.00450491 0.00906591  0
0.00394375 0.00806674  0
0.00429152 0.00847093  0
0.00415714 0.00866172  0
-0.000829148 0.00362593  0
-0.000842538 0.0032244  0
-0.000544234 0.00294456  0
-0.000835843 0.00342517  0
-0.000693386 0.00308448  0
-0.000686691 0.00328525  0
-0.00082722 0.0036257  0
-0.000550521 0.0029449  0
-0.000794166 0.00406273  0
-0.00068887 0.0032853  0
-0.000672343 0.00350381  0
-0.000810693 0.00384422  0
-0.000826718 0.00362591  0
-0.00116719 0.00434222  0
-0.000849505 0.00322577  0
-0.000996954 0.00398407  0
-0.00100835 0.00378399  0
-0.000838111 0.00342584  0
-0.000829358 0.0036261  0
-0.000787392 0.00406281  0
-0.00115974 0.00434134  0
-0.000808375 0.00384446  0
-0.000973566 0.00420208  0
-0.000994549 0.00398372  0
-0.000550885 0.00255174  0
-0.000553697 0.00294533  0
-0.00083266 0.00322325  0
-0.000552291 0.00274854  0
-0.000693179 0.00308429  0
-0.000691773 0.0028875  0
-0.000549692 0.00255157  0
-0.000327148 0.00192995  0
-0.000558067 0.0029441  0
-0.00043842 0.00224076  0
-0.000442608 0.00243702  0
-0.00055388 0.00274783  0
-0.000549174 0.0025518  0
-0.000837404 0.00322356  0
-0.000526937 0.00218979  0
-0.000693289 0.00288768  0
-0.000682171 0.00270667  0
-0.000538056 0.0023708  0
-0.000550658 0.00255134  0
-0.00052326 0.00218939  0
-0.000323796 0.0019312  0
-0.000536959 0.00237036  0
-0.000423528 0.00206029  0
-0.000437227 0.00224127  0
-0.00110358 0.00478498  0
-0.0014803 0.00553021  0
-0.00117724 0.00434159  0
-0.00129194 0.00515759  0
-0.00132877 0.0049359  0
-0.00114041 0.00456328  0
-0.00110649 0.00478508  0
-0.00116863 0.00434036  0
-0.000778741 0.00406406  0
-0.00113756 0.00456272  0
-0.000973688 0.00420221  0
-0.000942617 0.00442457  0
-0.00110665 0.00478517  0
-0.00101553 0.0052672  0
-0.00147154 0.00552953  0
-0.00106109 0.00502619  0
-0.00124354 0.00539837  0
-0.00128909 0.00515735  0
-0.00110401 0.00478482  0
-0.000786634 0.00406473  0
-0.00102359 0.00526737  0
-0.000945324 0.00442478  0
-0.000905113 0.00466605  0
-0.0010638 0.0050261  0
-0.00121171 0.0039538  0
-0.000839713 0.00322646  0
-0.00117658 0.00434144  0
-0.00102571 0.00359013  0
-0.00100815 0.00378395  0
-0.00119415 0.00414762  0
-0.00121507 0.00395477  0
-0.00116662 0.00433985  0
-0.00164635 0.00470822  0
-0.00119084 0.00414731  0
-0.00140648 0.00452403  0
-0.00143071 0.0043315  0
-0.00121475 0.00395481  0
-0.00123269 0.00360418  0
-0.000829893 0.00322397  0
-0.00122372 0.00377949  0
-0.00103129 0.00341407  0
-0.00102232 0.00358939  0
-0.00121115 0.00395412  0
-0.0016574 0.00471067  0
-0.00124366 0.00360761  0
-0.00143427 0.0043324  0
-0.00145053 0.00415914  0
-0.00122741 0.00378087  0
-0.00157754 0.00509663  0
-0.00116877 0.00434389  0
-0.00148846 0.00552791  0
-0.00137316 0.00472026  0
-0.00132862 0.0049359  0
-0.001533 0.00531227  0
-0.00158099 0.00509722  0
-0.00165528 0.00470591  0
-0.00115789 0.00434231  0
-0.00161814 0.00490157  0
-0.00140659 0.00452411  0
-0.00136944 0.00471977  0
-0.00158119 0.00509719  0
-0.00147767 0.00552702  0
-0.0020403 0.00586747  0
-0.00152943 0.0053121  0
-0.00175899 0.00569724  0
-0.00181075 0.00548233  0
-0.00157714 0.00509684  0
-0.00205189 0.00586872  0
-0.00166702 0.00470788  0
-0.00181451 0.00548278  0
-0.00185945 0.0052883  0
-0.00162208 0.00490236  0
-0.00136658 0.00601789  0
-0.00147938 0.00552735  0
-0.00100782 0.00526959  0
-0.00142298 0.00577262  0
-0.0012436 0.00539847  0
-0.0011872 0.00564374  0
-0.00136382 0.00601771  0
-0.00101647 0.00527018  0
-0.00123495 0.00654628  0
-0.00119015 0.00564395  0
-0.00112571 0.00590823  0
-0.00129939 0.006282  0
-0.00136344 0.00601781  0
-0.00176547 0.00678344  0
-0.00148868 0.00552822  0
-0.00156445 0.00640062  0
-0.00162707 0.00615583  0
-0.00142606 0.00577301  0
-0.00136668 0.00601795  0
-0.00122626 0.00654618  0
-0.00175614 0.00678307  0
-0.00129647 0.00628206  0
-0.0014912 0.00666463  0
-0.00156141 0.00640051  0
-0.000297566 0.00158445  0
-0.00051316 0.00218242  0
-0.000245962 0.0012571  0
-0.000405363 0.00188344  0
-0.000379561 0.00171976  0
-0.000271764 0.00142077  0
-0.000297707 0.00158349  0
-0.000333434 0.00193508  0
-0.000513036 0.0021849  0
-0.00031557 0.00175929  0
-0.000423235 0.00205999  0
-0.000405371 0.00188419  0
-0.00029755 0.00158263  0
-0.000247495 0.00126056  0
-0.000144062 0.00105942  0
-0.000272522 0.00142159  0
-0.000195778 0.00115999  0
-0.000220806 0.00132102  0
-0.000297971 0.00158429  0
-0.000143181 0.00105396  0
-0.000334084 0.00193065  0
-0.000220576 0.00131912  0
-0.000238632 0.0014923  0
-0.000316027 0.00175747  0
-0.000832099 0.00287427  0
-0.000515821 0.00218752  0
-0.000847977 0.00322553  0
-0.00067396 0.0025309  0
-0.000681899 0.00270653  0
-0.000840038 0.0030499  0
-0.000834135 0.00287562  0
-0.000799217 0.00255383  0
-0.000508863 0.00218458  0
-0.000816676 0.00271472  0
-0.00065404 0.0023692  0
-0.000671499 0.0025301  0
-0.000834594 0.00287569  0
-0.000840183 0.00322347  0
-0.00122196 0.00360442  0
-0.000837389 0.00304958  0
-0.00103107 0.00341394  0
-0.00102828 0.00324006  0
-0.000831321 0.00287473  0
-0.00123099 0.00360833  0
-0.00080744 0.00255879  0
-0.00103115 0.00324153  0
-0.00101921 0.00308356  0
-0.00081938 0.00271676  0
-0.000469209 0.00186442  0
-0.000234525 0.00125022  0
-0.000523881 0.00218873  0
-0.000351867 0.00155732  0
-0.000379203 0.00171947  0
-0.000496545 0.00202657  0
-0.000469799 0.00186575  0
-0.000520681 0.00218801  0
-0.000786563 0.00254984  0
-0.00049524 0.00202688  0
-0.000653622 0.00236893  0
-0.000628181 0.0022078  0
-0.000469381 0.00186504  0
-0.000397466 0.00155761  0
-0.000233463 0.00124964  0
-0.000433424 0.00171132  0
-0.000315464 0.00140362  0
-0.000351422 0.00155734  0
-0.000468422 0.00186483  0
-0.000790329 0.0025537  0
-0.000398936 0.00156157  0
-0.000629376 0.00220927  0
-0.000594632 0.00205763  0
-0.000433679 0.0017132  0
-0.000105738 0.000764335  0
-0.000152349 0.00106703  0
-0.000238641 0.00125204  0
-0.000129044 0.000915681  0
-0.000195495 0.00115953  0
-0.00017219 0.00100819  0
-0.000107594 0.000767491  0
-2.68061e-05 0.000373591  0
-0.000148817 0.00105608  0
-6.72e-05 0.000570541  0
-8.78116e-05 0.000714833  0
-0.000128206 0.000911783  0
-0.000107478 0.000767395  0
-0.00023315 0.00124249  0
-5.49656e-05 0.000484279  0
-0.000170314 0.00100494  0
-0.000144058 0.000863387  0
-8.1222e-05 0.000625837  0
-0.000105834 0.000762888  0
-6.20786e-05 0.000496461  0
-3.18054e-05 0.000387018  0
-8.39564e-05 0.000629674  0
-4.6942e-05 0.00044174  0
-6.88198e-05 0.000574953  0
-0.00160069 0.00731734  0
-0.00141291 0.00789115  0
-0.00200767 0.00809788  0
-0.0015068 0.00760425  0
-0.00171029 0.00799451  0
-0.00180418 0.00770761  0
-0.00159774 0.00731721  0
-0.00122844 0.00654957  0
-0.00142193 0.00789111  0
-0.00141309 0.00693339  0
-0.00132518 0.00722034  0
-0.00150983 0.00760416  0
-0.00159739 0.00731725  0
-0.00201727 0.00809797  0
-0.00177259 0.00678082  0
-0.00180733 0.00770761  0
-0.00189493 0.0074394  0
-0.00168499 0.00704904  0
-0.00160064 0.00731728  0
-0.00176301 0.00678027  0
-0.00121946 0.00654916  0
-0.00168182 0.00704878  0
-0.00149123 0.00666472  0
-0.00141005 0.00693322  0
-0.00180418 0.00867736  0
-0.00201367 0.00809477  0
-0.00140694 0.00789443  0
-0.00190893 0.00838607  0
-0.00171031 0.0079946  0
-0.00160556 0.00828589  0
-0.00180118 0.00867738  0
-0.00141612 0.00789466  0
-0.00158128 0.00929493  0
-0.00160865 0.00828602  0
-0.0014987 0.0085948  0
-0.00169123 0.00898616  0
-0.00180085 0.00867737  0
-0.00223316 0.00946929  0
-0.00202341 0.00809507  0
-0.002017 0.00907333  0
-0.00212828 0.00878218  0
-0.00191213 0.00838622  0
-0.00180418 0.00867742  0
-0.00157203 0.00929513  0
-0.00222335 0.00946942  0
-0.00168811 0.00898628  0
-0.00189769 0.00938228  0
-0.00201376 0.00907342  0
-0.00121825 0.00851758  0
-0.00141444 0.00789171  0
-0.000889565 0.0077499  0
-0.00131634 0.00820465  0
-0.001152 0.00782081  0
-0.00105391 0.00813374  0
-0.0012157 0.00851767  0
-0.00157592 0.00929778  0
-0.00142177 0.00789184  0
-0.00139581 0.00890772  0
-0.00149884 0.00859481  0
-0.00131873 0.00820475  0
-0.00121609 0.00851767  0
-0.000896254 0.00774996  0
-0.00100696 0.00917495  0
-0.00105617 0.00813381  0
-0.000951605 0.00846245  0
-0.00111152 0.00884631  0
-0.00121824 0.00851766  0
-0.00100019 0.00917538  0
-0.00156852 0.00929814  0
-0.00110922 0.00884652  0
-0.00128436 0.00923676  0
-0.00139338 0.0089079  0
-0.00221665 0.00756838  0
-0.00176608 0.00678429  0
-0.00202354 0.00809451  0
-0.00199136 0.00717633  0
-0.00189481 0.0074394  0
-0.00212009 0.00783145  0
-0.00222029 0.00756852  0
-0.00240285 0.00708179  0
-0.00175488 0.00678375  0
-0.00231157 0.00732515  0
-0.00207886 0.00693277  0
-0.00198759 0.00717614  0
-0.00222034 0.00756856  0
-0.0020124 0.00809435  0
-0.00271091 0.00836175  0
-0.00211637 0.00783146  0
-0.00236165 0.00822805  0
-0.00246562 0.00796515  0
-0.00221638 0.00756844  0
-0.00272251 0.00836198  0
-0.00241452 0.00708239  0
-0.00246945 0.00796521  0
-0.00256852 0.00772219  0
-0.00231545 0.00732542  0
-0.00191477 0.00630197  0
-0.00148129 0.0055313  0
-0.00177259 0.00678037  0
-0.00169803 0.00591664  0
-0.00162694 0.00615584  0
-0.00184368 0.00654117  0
-0.00191848 0.00630228  0
-0.00176155 0.00677995  0
-0.00239614 0.00708546  0
-0.00184001 0.00654112  0
-0.00207885 0.00693271  0
-0.00215731 0.00669387  0
-0.00191836 0.00630227  0
-0.00204793 0.00586421  0
-0.00147013 0.0055304  0
-0.00198315 0.00608324  0
-0.00175903 0.00569731  0
-0.00169425 0.00591633  0
-0.00191446 0.00630209  0
-0.00240777 0.00708603  0
-0.00205971 0.00586527  0
-0.00216111 0.00669406  0
-0.00223374 0.00647565  0
-0.00198708 0.00608368  0
-0.00077192 0.00987577  0
-0.00108815 0.0106576  0
-0.00100663 0.00917593  0
-0.000930035 0.0102667  0
-0.00104739 0.00991677  0
-0.000889274 0.00952585  0
-0.000773622 0.0098756  0
-0.0010019 0.00917607  0
-0.000481253 0.00910611  0
-0.00088776 0.00952583  0
-0.000741576 0.00914109  0
-0.000627438 0.00949085  0
-0.000773596 0.00987571  0
-0.00052804 0.0105999  0
-0.00108337 0.0106582  0
-0.000650818 0.0102378  0
-0.000805704 0.0106291  0
-0.000928482 0.010267  0
-0.000772355 0.00987579  0
-0.000485302 0.00910598  0
-0.000532139 0.0105993  0
-0.000628829 0.00949089  0
-0.000508721 0.00985264  0
-0.000652247 0.0102375  0
-0.0013363 0.00996169  0
-0.00100206 0.00917786  0
-0.00109239 0.0106557  0
-0.00116918 0.00956978  0
-0.00104722 0.00991676  0
-0.00121434 0.0103087  0
-0.00133852 0.00996153  0
-0.00157349 0.00929581  0
-0.000995231 0.00917791  0
-0.001456 0.00962867  0
-0.00128436 0.00923686  0
-0.00116688 0.00956972  0
-0.00133848 0.00996161  0
-0.00108547 0.0106562  0
-0.00169973 0.0107548  0
-0.00121197 0.0103089  0
-0.0013926 0.0107055  0
-0.00151911 0.0103582  0
-0.0013359 0.00996165  0
-0.00170731 0.0107542  0
-0.00158097 0.00929575  0
-0.0015216 0.0103579  0
-0.00164414 0.010025  0
-0.00145844 0.0096287  0
-0.000830479 0.0113874  0
-0.00108722 0.010657  0
-0.000524175 0.0106015  0
-0.000958847 0.0110222  0
-0.000805695 0.0106292  0
-0.000677327 0.0109945  0
-0.000829208 0.0113876  0
-0.000528241 0.0106014  0
-0.000564804 0.0121377  0
-0.000678725 0.0109945  0
-0.000546522 0.0113696  0
-0.000697006 0.0117627  0
-0.000828761 0.0113876  0
-0.00115565 0.0121825  0
-0.00109193 0.0106568  0
-0.000992204 0.0117851  0
-0.00112379 0.0114197  0
-0.000960345 0.0110222  0
-0.000830427 0.0113876  0
-0.000560704 0.0121382  0
-0.0011509 0.0121831  0
-0.000695565 0.0117629  0
-0.000855802 0.0121607  0
-0.000990663 0.0117854  0
-0.000271727 0.0113543  0
-0.000529974 0.0106006  0
2.90109e-06 0.0105822  0
-0.000400851 0.0109775  0
-0.000263537 0.0105914  0
-0.000134413 0.0109683  0
-0.000270996 0.0113545  0
-0.000561656 0.0121386  0
-0.000531767 0.0106006  0
-0.000416326 0.0117465  0
-0.000546712 0.0113696  0
-0.000401382 0.0109775  0
-0.000271456 0.0113545  0
1.74843e-06 0.0105822  0
-1.55513e-06 0.0121237  0
-0.000134854 0.0109683  0
9.66505e-08 0.011353  0
-0.000136506 0.0117391  0
-0.00027171 0.0113545  0
-3.92625e-07 0.0121242  0
-0.000559857 0.0121391  0
-0.000136051 0.0117393  0
-0.000280125 0.0121316  0
-0.000415783 0.0117468  0
-0.00197167 0.0100926  0
-0.00241205 0.0108926  0
-0.00223843 0.00946626  0
-0.00219186 0.0104926  0
-0.00232524 0.0101794  0
-0.00210505 0.00977941  0
-0.00197509 0.0100925  0
-0.00222852 0.00946619  0
-0.00156687 0.00929853  0
-0.00210181 0.00977935  0
-0.0018977 0.00938236  0
-0.00177098 0.00969552  0
-0.00197504 0.0100926  0
-0.0017023 0.0107517  0
-0.002402 0.010893  0
-0.00183867 0.0104222  0
-0.00205215 0.0108224  0
-0.00218852 0.0104928  0
-0.001972 0.0100926  0
-0.00157621 0.0092986  0
-0.00171177 0.0107514  0
-0.00177411 0.00969561  0
-0.00164399 0.010025  0
-0.00184189 0.010422  0
-0.00248011 0.0088928  0
-0.00201766 0.0080987  0
-0.00223868 0.00946564  0
-0.00224888 0.00849575  0
-0.00212817 0.00878217  0
-0.00235939 0.00917922  0
-0.00248381 0.0088929  0
-0.0022274 0.00946561  0
-0.00298333 0.00969338  0
-0.0023556 0.00917926  0
-0.00260536 0.00957949  0
-0.00273357 0.00929314  0
-0.00248381 0.00889285  0
-0.00271691 0.00835788  0
-0.00200642 0.00809835  0
-0.00260036 0.00862537  0
-0.00236166 0.00822812  0
-0.00224511 0.0084956  0
-0.00247986 0.00889281  0
-0.00299503 0.00969346  0
-0.00272856 0.00835828  0
-0.00273744 0.00929313  0
-0.0028618 0.00902587  0
-0.00260421 0.00862554  0
-0.00270369 0.0102711  0
-0.0022334 0.00946993  0
-0.00241685 0.0108889  0
-0.00246855 0.00987053  0
-0.00232512 0.0101794  0
-0.00256027 0.01058  0
-0.00270748 0.0102711  0
-0.00298872 0.00968941  0
-0.00222202 0.0094697  0
-0.0028481 0.00998026  0
-0.00260537 0.00957956  0
-0.00246475 0.00987041  0
-0.00270743 0.0102712  0
-0.0024053 0.010889  0
-0.00321269 0.0110765  0
-0.00255637 0.0105801  0
-0.002809 0.0109827  0
-0.00296006 0.0106738  0
-0.00270345 0.0102711  0
-0.00322466 0.0110764  0
-0.00300052 0.00968968  0
-0.00296405 0.0106737  0
-0.00311259 0.010383  0
-0.00285198 0.00998038  0
-0.00143467 0.0114545  0
-0.00170375 0.0107525  0
-0.00108142 0.0106587  0
-0.00156921 0.0111035  0
-0.00139259 0.0107056  0
-0.00125805 0.0110566  0
-0.001432 0.0114546  0
-0.00181045 0.0122566  0
-0.00171128 0.0107523  0
-0.00162123 0.0118556  0
-0.00176086 0.0115045  0
-0.00157164 0.0111035  0
-0.00143242 0.0114547  0
-0.0010883 0.0106586  0
-0.00115892 0.0121808  0
-0.00126036 0.0110566  0
-0.00112361 0.0114197  0
-0.00129567 0.0118177  0
-0.00143459 0.0114546  0
-0.00115196 0.0121813  0
-0.00180283 0.0122573  0
-0.00129327 0.011818  0
-0.0014774 0.0122193  0
-0.00161871 0.011856  0
-0.00211292 0.0115572  0
-0.00240633 0.0108898  0
-0.00169796 0.0107551  0
-0.00225962 0.0112235  0
-0.00205214 0.0108224  0
-0.00190544 0.0111562  0
-0.00210976 0.0115575  0
-0.00170743 0.010755  0
-0.00181399 0.0122539  0
-0.00190859 0.0111562  0
-0.00176071 0.0115045  0
-0.00196188 0.0119057  0
-0.0021094 0.0115573  0
-0.00255417 0.0123633  0
-0.0024164 0.0108896  0
-0.00233179 0.0119603  0
-0.00248529 0.0116264  0
-0.0022629 0.0112235  0
-0.00211281 0.0115573  0
-0.00180436 0.0122545  0
-0.00254392 0.012364  0
-0.00195858 0.0119059  0
-0.00217414 0.0123092  0
-0.00232836 0.0119606  0
-0.00217624 0.00549016  0
-0.0020465 0.00586427  0
-0.00273823 0.0062784  0
-0.00211137 0.00567722  0
-0.00239236 0.00607134  0
-0.00245723 0.00588428  0
-0.00217168 0.00548966  0
-0.00165904 0.00471145  0
-0.00205965 0.00586526  0
-0.00191536 0.00510055  0
-0.00185935 0.00528836  0
-0.00211566 0.00567746  0
-0.00217143 0.00548988  0
-0.00275202 0.00627945  0
-0.00229254 0.00515832  0
-0.00246172 0.00588467  0
-0.00252228 0.00571889  0
-0.00223198 0.0053241  0
-0.00217601 0.00549026  0
-0.00227823 0.00515665  0
-0.00164543 0.00470984  0
-0.00222712 0.00532346  0
-0.00196183 0.00493325  0
-0.00191072 0.00510005  0
-0.0025863 0.00665726  0
-0.00274515 0.00627415  0
-0.0020396 0.00586856  0
-0.00266572 0.00646571  0
-0.00239237 0.00607136  0
-0.00231295 0.00626291  0
-0.00258205 0.00665703  0
-0.00205274 0.00586927  0
-0.00241455 0.00708211  0
-0.0023174 0.00626315  0
-0.00223365 0.00647569  0
-0.0024983 0.00686957  0
-0.00258186 0.00665714  0
-0.00317301 0.00745322  0
-0.00275871 0.00627485  0
-0.00287743 0.00705518  0
-0.00296586 0.00686403  0
-0.00267028 0.006466  0
-0.00258641 0.00665725  0
-0.00240169 0.00708175  0
-0.00315975 0.00745286  0
-0.00249405 0.0068695  0
-0.00278072 0.0072673  0
-0.00287308 0.00705506  0
-0.0017246 0.00437906  0
-0.00176645 0.00408814  0
-0.00122013 0.00360652  0
-0.00174553 0.0042336  0
-0.00149329 0.00384733  0
-0.00147237 0.00399279  0
-0.00172029 0.00437768  0
-0.00123404 0.00361006  0
-0.00166671 0.00470832  0
-0.00147716 0.00399387  0
-0.00145038 0.00415919  0
-0.0016935 0.004543  0
-0.00171985 0.0043781  0
-0.0022847 0.00516331  0
-0.00178165 0.00409207  0
-0.00200228 0.0047707  0
-0.00203318 0.00462769  0
-0.00175075 0.00423509  0
-0.00172502 0.00437881  0
-0.00165337 0.00470593  0
-0.00227021 0.00516055  0
-0.0016892 0.00454237  0
-0.00196179 0.00493324  0
-0.00199761 0.00476968  0
-0.00124004 0.00331358  0
-0.00122996 0.00360376  0
-0.00175634 0.00409089  0
-0.001235 0.00345867  0
-0.00149315 0.00384732  0
-0.00149819 0.00370223  0
-0.00123548 0.00331128  0
-0.000795264 0.00255847  0
-0.00124265 0.00360858  0
-0.00101537 0.00293487  0
-0.00101896 0.00308352  0
-0.00123907 0.00345993  0
-0.0012346 0.00331201  0
-0.00177111 0.00409701  0
-0.00123216 0.00305715  0
-0.00150286 0.00370451  0
-0.00150163 0.00357708  0
-0.00123338 0.00318458  0
-0.00123931 0.003314  0
-0.00121688 0.00304891  0
-0.000782306 0.00255168  0
-0.0012281 0.00318145  0
-0.000999595 0.00280029  0
-0.00101081 0.00293284  0
-0.00290719 0.00595594  0
-0.00228579 0.00516295  0
-0.00275872 0.00627502  0
-0.00259649 0.00555945  0
-0.00252226 0.00571899  0
-0.00283296 0.00611548  0
-0.00291205 0.00595622  0
-0.0030561 0.00567954  0
-0.00227082 0.00516233  0
-0.00298407 0.00581788  0
-0.00266346 0.00542094  0
-0.00259143 0.00555928  0
-0.00291221 0.00595612  0
-0.00274433 0.00627462  0
-0.00357838 0.00675354  0
-0.00282827 0.00611537  0
-0.00316136 0.00651408  0
-0.0032453 0.00635483  0
-0.00290722 0.00595611  0
-0.00359293 0.0067538  0
-0.00307121 0.00567997  0
-0.00325007 0.00635495  0
-0.00333207 0.00621688  0
-0.00298922 0.00581804  0
-0.00238386 0.00488884  0
-0.00177379 0.00409651  0
-0.00229253 0.0051592  0
-0.00207882 0.00449267  0
-0.00203316 0.00462785  0
-0.00233819 0.00502402  0
-0.00238948 0.00488948  0
-0.00227712 0.00515752  0
-0.00304985 0.00568451  0
-0.0023333 0.0050235  0
-0.00266349 0.00542102  0
-0.00271967 0.00528699  0
-0.00238911 0.0048898  0
-0.00247722 0.00466035  0
-0.00175721 0.00409422  0
-0.00243317 0.00477507  0
-0.00211721 0.00437728  0
-0.00207316 0.00449201  0
-0.00238392 0.00488921  0
-0.00306568 0.00568593  0
-0.00249428 0.00466232  0
-0.0027248 0.00528757  0
-0.00277998 0.00517413  0
-0.0024391 0.00477577  0
-0.00295332 0.00788278  0
-0.00271595 0.00835768  0
-0.00353512 0.00868496  0
-0.00283463 0.00812023  0
-0.00312553 0.00852132  0
-0.00324422 0.00828387  0
-0.00294908 0.00788264  0
-0.00240822 0.00708655  0
-0.00272864 0.00835786  0
-0.00267865 0.0074846  0
-0.00256843 0.00772221  0
-0.00283886 0.00812025  0
-0.00294891 0.00788269  0
-0.00354809 0.00868514  0
-0.00317916 0.00744891  0
-0.0032485 0.00828392  0
-0.00336362 0.00806702  0
-0.00306403 0.0076658  0
-0.00295327 0.00788274  0
-0.00316604 0.00744852  0
-0.0023954 0.00708616  0
-0.00305965 0.00766563  0
-0.00278072 0.00726734  0
-0.00267433 0.00748445  0
-0.00327622 0.00916508  0
-0.003541 0.00868059  0
-0.00271007 0.00836215  0
-0.00340861 0.00892283  0
-0.00312554 0.00852137  0
-0.00299314 0.00876362  0
-0.00327202 0.00916501  0
-0.00272277 0.00836252  0
-0.00300066 0.00968922  0
-0.0029974 0.00876376  0
-0.00286171 0.00902587  0
-0.00313634 0.00942711  0
-0.00327187 0.00916501  0
-0.0038775 0.00997224  0
-0.00355393 0.00868097  0
-0.00357469 0.00956863  0
-0.00371572 0.0093266  0
-0.0034129 0.00892299  0
-0.00327622 0.00916514  0
-0.00298796 0.00968902  0
-0.00386458 0.00997201  0
-0.00313209 0.00942708  0
-0.00342627 0.00983051  0
-0.0035704 0.00956857  0
-0.00338198 0.00707755  0
-0.00275247 0.00627946  0
-0.00317917 0.00744871  0
-0.00306722 0.0066785  0
-0.00296582 0.00686408  0
-0.00328057 0.00726313  0
-0.00338668 0.00707759  0
-0.00316531 0.0074487  0
-0.00405849 0.00788056  0
-0.00327599 0.00726314  0
-0.0036119 0.00766463  0
-0.00372258 0.00747907  0
-0.0033866 0.00707759  0
-0.00358435 0.00674877  0
-0.00273834 0.00627935  0
-0.00348548 0.00691318  0
-0.00316134 0.00651406  0
-0.00306247 0.00667847  0
-0.00338194 0.00707762  0
-0.00407245 0.00788049  0
-0.00359857 0.00674879  0
-0.0037272 0.00747905  0
-0.00383551 0.00731464  0
-0.00349026 0.0069132  0
-0.00380945 0.00825749  0
-0.00317321 0.00745348  0
-0.00355394 0.00868061  0
-0.00349133 0.00785549  0
-0.00336357 0.00806705  0
-0.0036817 0.00846905  0
-0.00381396 0.0082575  0
-0.0040643 0.0078759  0
-0.00315948 0.00745339  0
-0.00393913 0.0080667  0
-0.00361189 0.00766465  0
-0.00348672 0.00785544  0
-0.003814 0.00825754  0
-0.00354034 0.00868058  0
-0.00449121 0.00906592  0
-0.00367717 0.00846906  0
-0.00401578 0.00887325  0
-0.0041526 0.00866173  0
-0.00380937 0.00825752  0
-0.00450491 0.00906591  0
-0.00407812 0.00787595  0
-0.00415714 0.00866172  0
-0.00429152 0.00847093  0
-0.00394375 0.00806674  0
-7.96063e-06 0.000167823  0
6.64892e-07 3.68035e-08  0
1.70236e-06 -8.86702e-06  0
-3.64787e-06 8.39301e-05  0
1.18362e-06 -4.41511e-06  0
-3.12914e-06 7.94782e-05  0
-1.0124e-05 0.000176327  0
7.85715e-06 -3.25694e-05  0
-3.08534e-05 0.000376383  0
-1.13341e-06 7.18786e-05  0
-1.14981e-05 0.000171907  0
-2.04887e-05 0.000276355  0
-1.02438e-05 0.000175899  0
-4.85591e-05 0.000464406  0
9.63668e-06 -2.44574e-05  0
-2.94014e-05 0.000320152  0
-1.94612e-05 0.000219974  0
-3.03562e-07 7.57207e-05  0
-7.5328e-06 0.000169442  0
-3.66302e-05 0.000396918  0
-5.71371e-05 0.00048545  0
-2.20815e-05 0.00028318  0
-4.68836e-05 0.000441184  0
-3.23349e-05 0.000327446  0
-1.69561e-05 0.00023681  0
1.30481e-05 -3.73811e-05  0
-5.12218e-05 0.000477101  0
-1.95403e-06 9.97144e-05  0
-1.90869e-05 0.00021986  0
-3.4089e-05 0.000356956  0
-1.27361e-05 0.000230347  0
-6.03729e-05 0.000496712  0
-9.58547e-05 0.000642898  0
-3.65545e-05 0.00036353  0
-7.81138e-05 0.000569805  0
-5.42954e-05 0.000436623  0
-1.34362e-05 0.000227557  0
1.05825e-06 2.5962e-06  0
2.85689e-06 -1.24323e-05  0
-6.18896e-06 0.000115077  0
1.95757e-06 -4.91807e-06  0
-5.28964e-06 0.000107562  0
-1.71752e-05 0.00023611  0
-8.19585e-05 0.000623075  0
1.6113e-05 -2.32117e-05  0
-4.95669e-05 0.000429592  0
-3.29228e-05 0.000299932  0
-5.31132e-07 0.000106449  0
-0.000176067 0.000955713  0
-4.58711e-05 0.000472491  0
-0.000241421 0.00125362  0
-0.000110969 0.000714102  0
-0.000143646 0.000863053  0
-0.000208744 0.00110466  0
-0.000173669 0.000952958  0
-0.000104258 0.000660287  0
-5.24879e-05 0.000481169  0
-0.000138964 0.000806622  0
-7.83732e-05 0.000570728  0
-0.000113079 0.000717063  0
-0.000173824 0.000954943  0
-0.000245322 0.00125935  0
-0.000384484 0.00154679  0
-0.000209573 0.00110715  0
-0.000314903 0.00140307  0
-0.000279154 0.00125087  0
-0.000175651 0.000955867  0
-0.000378513 0.00154438  0
-9.52825e-05 0.000654788  0
-0.000277082 0.00125012  0
-0.000236898 0.00109958  0
-0.000135467 0.000805328  0
-0.000741892 0.00227775  0
-0.000658813 0.00200453  0
-0.000375922 0.00154581  0
-0.000700353 0.00214114  0
-0.000517367 0.00177517  0
-0.000558907 0.00191178  0
-0.000740104 0.00227344  0
-0.000383722 0.00155522  0
-0.00080459 0.00255945  0
-0.000561913 0.00191433  0
-0.000594156 0.00205733  0
-0.000772347 0.00241644  0
-0.000738391 0.00227471  0
-0.00121509 0.0030596  0
-0.000669545 0.00201867  0
-0.000976739 0.00266716  0
-0.000942316 0.00253914  0
-0.000703968 0.00214669  0
-0.000743165 0.00227744  0
-0.000795342 0.00255215  0
-0.001203 0.00304819  0
-0.000769253 0.00241479  0
-0.000999169 0.00280017  0
-0.00097308 0.00266281  0
-0.000296044 0.0012603  0
-0.000392271 0.00155528  0
-0.000640459 0.0019939  0
-0.000344158 0.00140779  0
-0.000516365 0.00177459  0
-0.000468252 0.0016271  0
-0.000297525 0.00125626  0
-8.0654e-05 0.000638451  0
-0.000391673 0.00155945  0
-0.00018909 0.000947353  0
-0.000236163 0.00109895  0
-0.000344599 0.00140785  0
-0.000296526 0.00125668  0
-0.000640534 0.00200528  0
-0.000181328 0.000950299  0
-0.00046853 0.00163098  0
-0.000410931 0.00147779  0
-0.000238927 0.00110349  0
-0.000295623 0.00125762  0
-0.000187845 0.000939366  0
-8.72066e-05 0.000635576  0
-0.000241734 0.00109849  0
-0.000137526 0.000787471  0
-0.000191415 0.000946596  0
-0.00118885 0.00283846  0
-0.000653031 0.00201715  0
-0.00123086 0.00306134  0
-0.000920943 0.00242781  0
-0.000941944 0.00253924  0
-0.00120986 0.0029499  0
-0.00119646 0.00284347  0
-0.00121244 0.00304955  0
-0.00183228 0.00367222  0
-0.00120445 0.00294651  0
-0.00152236 0.00336089  0
-0.00151437 0.00325785  0
-0.00119453 0.00284519  0
-0.00114581 0.00264236  0
-0.000631694 0.00200029  0
-0.00117017 0.00274377  0
-0.000888751 0.00232133  0
-0.000913114 0.00242274  0
-0.0011872 0.00284039  0
-0.00185523 0.0036852  0
-0.00117279 0.0026605  0
-0.00152122 0.0032628  0
-0.00151401 0.00317285  0
-0.00118 0.00275044  0
-0.00181037 0.0038616  0
-0.00122162 0.00306043  0
-0.00178144 0.00409419  0
-0.00151599 0.00346101  0
-0.00150153 0.00357731  0
-0.0017959 0.0039779  0
-0.00181616 0.00386427  0
-0.00184253 0.00366751  0
-0.0012024 0.00305375  0
-0.00182934 0.00376589  0
-0.00152246 0.00336063  0
-0.00150928 0.00345901  0
-0.00181703 0.00386351  0
-0.0017644 0.00408936  0
-0.00247008 0.00466555  0
-0.00179071 0.00397644  0
-0.00211724 0.00437746  0
-0.00214355 0.00426453  0
-0.00181018 0.00386247  0
-0.00248858 0.00467021  0
-0.00186352 0.00367395  0
-0.00214938 0.00426634  0
-0.00217605 0.00417208  0
-0.00183685 0.00376821  0
-2.33818e-05 0.000329397  0
2.23775e-06 6.73723e-06  0
4.65217e-06 -1.84318e-05  0
-1.0572e-05 0.000168067  0
3.44496e-06 -5.84727e-06  0
-9.36479e-06 0.000155482  0
-2.97208e-05 0.00033992  0
2.25237e-05 -4.50881e-05  0
-8.69391e-05 0.00064433  0
-3.59859e-06 0.000147416  0
-3.22077e-05 0.000299621  0
-5.833e-05 0.000492125  0
-3.04989e-05 0.000339075  0
-0.000144961 0.00089996  0
3.19294e-05 -2.08817e-05  0
-8.773e-05 0.000619517  0
-5.65159e-05 0.000439539  0
7.15267e-07 0.000159097  0
-2.25369e-05 0.000336067  0
-0.000102163 0.000659494  0
-0.000170784 0.000912723  0
-6.23499e-05 0.000497781  0
-0.000136473 0.000786109  0
-9.66602e-05 0.000624395  0
-0.000546992 0.00174677  0
-0.000155464 0.000934135  0
-0.000663531 0.00201989  0
-0.000351228 0.00134045  0
-0.000409497 0.00147701  0
-0.000605261 0.00188333  0
-0.000546659 0.00176066  0
-0.000423759 0.00144409  0
-0.000144316 0.000910204  0
-0.000485209 0.00160238  0
-0.000284037 0.00117715  0
-0.000345488 0.00133543  0
-0.000552149 0.00175825  0
-0.000649532 0.00200037  0
-0.00112596 0.00264224  0
-0.000600841 0.00187931  0
-0.000887745 0.0023213  0
-0.000839054 0.00220025  0
-0.000541542 0.00175226  0
-0.00114741 0.00267602  0
-0.00044143 0.00148542  0
-0.000844473 0.00221414  0
-0.000794418 0.00208072  0
-0.000491486 0.00161884  0
-6.20023e-05 0.000532274  0
4.9594e-05 -6.28804e-05  0
-0.000154602 0.000939946  0
-6.20412e-06 0.000234697  0
-5.25039e-05 0.000438533  0
-0.000108302 0.00073611  0
-5.59579e-05 0.000541658  0
-0.00016639 0.000942072  0
-0.000394963 0.00140888  0
-0.000111174 0.000741865  0
-0.000280677 0.00117547  0
-0.000225461 0.000975266  0
-6.01269e-05 0.000518168  0
-6.09543e-06 2.7523e-05  0
1.80302e-05 -4.39515e-05  0
-3.31112e-05 0.000272846  0
5.96736e-06 -8.21426e-06  0
-2.10484e-05 0.000237108  0
-7.2588e-05 0.000528105  0
-0.000374968 0.00142223  0
3.8208e-05 2.81282e-05  0
-0.000223778 0.000975166  0
-0.00016838 0.000725177  0
-1.719e-05 0.000278117  0
0.00480605 0.00868991  0
0.00511678 0.00836012  0
0.00559986 0.00950283  0
0.00496141 0.00852501  0
0.00535832 0.00893147  0
0.00520295 0.00909637  0
0.0048108 0.00868986  0
0.00405836 0.00788072  0
0.00510262 0.00836017  0
0.00443458 0.00828529  0
0.00458049 0.00812045  0
0.00495671 0.00852502  0
0.00481079 0.00868991  0
0.00558565 0.00950292  0
0.0044964 0.00906134  0
0.00519822 0.00909642  0
0.00504102 0.00928213  0
0.00465359 0.00887562  0
0.00480611 0.00868991  0
0.00451051 0.00906123  0
0.00407246 0.00788065  0
0.00465831 0.00887557  0
0.00429149 0.00847094  0
0.00443929 0.00828528  0
0.00524766 0.00987991  0
0.00449084 0.0090661  0
0.0055912 0.00949823  0
0.00486925 0.00947301  0
0.00504102 0.00928217  0
0.00541943 0.00968907  0
0.00524303 0.0098799  0
0.00489612 0.0103021  0
0.00450491 0.00906625  0
0.00506958 0.010091  0
0.00470052 0.00968419  0
0.00487397 0.00947308  0
0.00524293 0.00987992  0
0.00560539 0.00949834  0
0.00604043 0.0106965  0
0.00542416 0.00968913  0
0.00582291 0.0100974  0
0.00564168 0.0102882  0
0.00524768 0.00987997  0
0.00602633 0.0106964  0
0.00488214 0.010302  0
0.00563701 0.0102882  0
0.00545424 0.0104992  0
0.00506491 0.010091  0
0.00419476 0.00949433  0
0.00353465 0.00868525  0
0.0044969 0.00906132  0
0.0038647 0.00908979  0
0.00401577 0.00887329  0
0.00434583 0.00927783  0
0.0041902 0.00949429  0
0.00451052 0.00906158  0
0.00489059 0.0103068  0
0.00435036 0.00927793  0
0.00470056 0.00968418  0
0.0045404 0.00990053  0
0.00419029 0.00949427  0
0.00388314 0.00996769  0
0.00354819 0.00868553  0
0.00403672 0.00973098  0
0.00371567 0.00932661  0
0.00386924 0.0090899  0
0.00419477 0.0094944  0
0.00487703 0.0103066  0
0.00386966 0.00996745  0
0.0045359 0.00990047  0
0.00437334 0.010137  0
0.00403221 0.00973092  0
0.0045248 0.0107841  0
0.00416664 0.0113058  0
0.00387754 0.00997262  0
0.00434572 0.0110449  0
0.00402209 0.0106392  0
0.00420117 0.0103784  0
0.00452927 0.0107842  0
0.00386405 0.0099721  0
0.00488263 0.010302  0
0.00419666 0.0103782  0
0.00437334 0.010137  0
0.00470595 0.0105431  0
0.00452927 0.0107843  0
0.00521638 0.0115982  0
0.00415314 0.0113053  0
0.00487283 0.0111913  0
0.00468476 0.0114517  0
0.00434121 0.0110448  0
0.00452475 0.0107841  0
0.00489615 0.0103025  0
0.00522989 0.0115988  0
0.00471045 0.0105433  0
0.00506302 0.0109506  0
0.00487732 0.0111914  0
0.00355032 0.0105005  0
0.00388313 0.00996805  0
0.00416113 0.0113104  0
0.00371672 0.0102343  0
0.00402213 0.0106392  0
0.00385572 0.0109054  0
0.00355472 0.0105006  0
0.0029824 0.00969353  0
0.00387015 0.00996759  0
0.00326856 0.0100971  0
0.00342628 0.00983056  0
0.00371243 0.0102341  0
0.00355468 0.0105007  0
0.00414802 0.0113101  0
0.00321694 0.0110718  0
0.00385135 0.0109054  0
0.00368248 0.0111909  0
0.00338581 0.0107862  0
0.00355045 0.0105005  0
0.00322985 0.0110721  0
0.00299518 0.00969394  0
0.00339015 0.0107863  0
0.00311251 0.010383  0
0.00327281 0.0100972  0
0.00563292 0.0111234  0
0.00604564 0.0106921  0
0.00643332 0.0119422  0
0.00583928 0.0109077  0
0.00623948 0.0113171  0
0.00603312 0.0115328  0
0.00563751 0.0111234  0
0.00487672 0.0103067  0
0.00603173 0.0106918  0
0.00525711 0.0107151  0
0.00545423 0.0104993  0
0.00583462 0.0109076  0
0.00563755 0.0111235  0
0.00641967 0.011942  0
0.00522179 0.0115938  0
0.00602861 0.0115327  0
0.00582073 0.0117679  0
0.00542967 0.0113586  0
0.00563297 0.0111233  0
0.00523542 0.0115942  0
0.00489056 0.0103071  0
0.0054342 0.0113588  0
0.00506299 0.0109506  0
0.00526177 0.0107152  0
0.00481759 0.0121231  0
0.00414755 0.0113099  0
0.00522197 0.0115936  0
0.00448257 0.0117165  0
0.00468476 0.0114518  0
0.00501978 0.0118584  0
0.00481306 0.0121229  0
0.00523548 0.0115943  0
0.00552337 0.0129383  0
0.00502427 0.0118586  0
0.00537943 0.0122663  0
0.00516822 0.0125306  0
0.00481303 0.0121229  0
0.00440399 0.0126915  0
0.00416111 0.0113106  0
0.00460851 0.0124072  0
0.00428255 0.012001  0
0.00448707 0.0117167  0
0.00481756 0.0121231  0
0.00550976 0.0129375  0
0.00439029 0.0126908  0
0.00516366 0.0125303  0
0.00495003 0.0128141  0
0.00460393 0.012407  0
0.00598141 0.0124167  0
0.00521641 0.0115983  0
0.00642501 0.0119375  0
0.00559891 0.0120075  0
0.00582071 0.0117679  0
0.00620321 0.0121771  0
0.00597703 0.0124165  0
0.00552911 0.0129338  0
0.00522979 0.0115989  0
0.00575307 0.0126751  0
0.00537945 0.0122663  0
0.00560341 0.0120077  0
0.00597711 0.0124165  0
0.00643828 0.0119379  0
0.00678093 0.0132375  0
0.00620769 0.0121772  0
0.0066096 0.0125877  0
0.00637902 0.012827  0
0.00598148 0.0124167  0
0.00676808 0.013237  0
0.00551606 0.0129331  0
0.00637478 0.0128268  0
0.00614207 0.013085  0
0.00574877 0.0126749  0
0.00378828 0.0118855  0
0.00321167 0.0110764  0
0.0041533 0.0113056  0
0.00349998 0.011481  0
0.00368248 0.011191  0
0.00397079 0.0115956  0
0.00378385 0.0118855  0
0.0034158 0.012503  0
0.00322473 0.0110767  0
0.00359982 0.0121943  0
0.00332026 0.0117899  0
0.00350429 0.0114811  0
0.00378373 0.0118854  0
0.00416658 0.011306  0
0.00439855 0.0126962  0
0.00397516 0.0115957  0
0.00428257 0.0120011  0
0.00409114 0.0122908  0
0.00378818 0.0118855  0
0.00438496 0.0126959  0
0.00340244 0.0125028  0
0.00408657 0.0122907  0
0.0038937 0.0125994  0
0.00359531 0.0121942  0
0.00289075 0.0116991  0
0.00240053 0.0108931  0
0.00321747 0.0110725  0
0.00264564 0.0112961  0
0.002809 0.0109828  0
0.00305411 0.0113858  0
0.00288656 0.0116991  0
0.00322957 0.0110725  0
0.00341109 0.0125073  0
0.00305806 0.0113858  0
0.00332033 0.0117899  0
0.00314883 0.0121032  0
0.00288682 0.0116992  0
0.00255819 0.0123597  0
0.00241215 0.0108931  0
0.0027225 0.0120295  0
0.00248517 0.0116264  0
0.00264948 0.0112962  0
0.00289062 0.0116991  0
0.00339871 0.0125077  0
0.0025463 0.0123601  0
0.00314467 0.0121034  0
0.00297251 0.0124339  0
0.00271846 0.0120296  0
0.00221571 0.0130662  0
0.00255741 0.0123606  0
0.00266215 0.0138774  0
0.00238656 0.0127134  0
0.00260978 0.013119  0
0.00243893 0.0134718  0
0.00221927 0.013066  0
0.00180088 0.0122576  0
0.00254733 0.0123611  0
0.00201008 0.0126618  0
0.0021741 0.0123093  0
0.0023833 0.0127136  0
0.00221909 0.0130661  0
0.00265192 0.0138784  0
0.00188169 0.0137959  0
0.00243551 0.0134723  0
0.00226681 0.0138372  0
0.00205039 0.013431  0
0.00221611 0.0130664  0
0.00189124 0.0137952  0
0.0018103 0.0122573  0
0.00205368 0.0134308  0
0.00185077 0.0130263  0
0.00201321 0.0126619  0
0.00303019 0.013174  0
0.00266523 0.0138742  0
0.00255406 0.0123637  0
0.00284771 0.0135241  0
0.00260964 0.0131189  0
0.00279213 0.0127688  0
0.00303425 0.0131737  0
0.00254223 0.012364  0
0.00340274 0.0125039  0
0.00278824 0.0127688  0
0.00297249 0.0124339  0
0.00321849 0.0128388  0
0.00303403 0.0131737  0
0.00354242 0.0139861  0
0.00265308 0.0138751  0
0.00328822 0.0135799  0
0.00309775 0.0139306  0
0.00284355 0.0135244  0
0.00302988 0.0131738  0
0.00341519 0.0125034  0
0.00355523 0.013985  0
0.00322253 0.0128386  0
0.00348521 0.0132442  0
0.00329255 0.0135794  0
0.0015084 0.0129884  0
0.00188128 0.013798  0
0.00120272 0.01374  0
0.00169484 0.0133932  0
0.001542 0.013769  0
0.00135556 0.0133642  0
0.0015059 0.0129884  0
0.00181325 0.0122552  0
0.00188864 0.0137974  0
0.00165957 0.0126218  0
0.00185095 0.0130263  0
0.00169727 0.0133929  0
0.00150634 0.0129885  0
0.00120947 0.0137397  0
0.00115555 0.0121836  0
0.00135791 0.0133641  0
0.00118251 0.0129617  0
0.00133094 0.012586  0
0.00150853 0.0129883  0
0.00114881 0.0121835  0
0.00180591 0.0122554  0
0.00132867 0.0125859  0
0.00147736 0.0122194  0
0.00165722 0.0126218  0
0.00229943 0.0146126  0
0.00187912 0.0137982  0
0.00265433 0.0138763  0
0.00208927 0.0142054  0
0.00226672 0.0138373  0
0.00247688 0.0142445  0
0.00229645 0.014613  0
0.00195136 0.0153651  0
0.00188804 0.0137982  0
0.0021239 0.0149891  0
0.0019197 0.0145816  0
0.00209225 0.0142056  0
0.00229599 0.0146128  0
0.0026639 0.0138756  0
0.00274346 0.0154307  0
0.00247994 0.0142442  0
0.00270368 0.0146531  0
0.00251973 0.0150217  0
0.00229916 0.0146128  0
0.00273394 0.0154319  0
0.00194248 0.0153656  0
0.00251655 0.0150223  0
0.00233821 0.0153987  0
0.00212082 0.0149892  0
0.00156514 0.0145521  0
0.00120036 0.0137415  0
0.00188351 0.0137968  0
0.00138275 0.0141468  0
0.00154193 0.0137692  0
0.00172433 0.0141745  0
0.0015627 0.014552  0
0.00189018 0.0137971  0
0.00194962 0.0153662  0
0.00172644 0.0141746  0
0.0019199 0.0145816  0
0.00175616 0.0149591  0
0.00156316 0.0145522  0
0.00125018 0.0153176  0
0.00120657 0.0137423  0
0.00140667 0.0149349  0
0.00122838 0.01453  0
0.00138487 0.0141473  0
0.00156496 0.0145524  0
0.00194307 0.0153662  0
0.00124408 0.015317  0
0.00175402 0.0149593  0
0.00159357 0.0153416  0
0.00140452 0.0149347  0
0.000872502 0.0129373  0
0.00115834 0.0121823  0
0.00120707 0.0137411  0
0.00101542 0.0125598  0
0.0011827 0.0129617  0
0.00103979 0.0133392  0
0.000874174 0.0129373  0
0.000557716 0.0121395  0
0.00115384 0.0121821  0
0.000715945 0.0125384  0
0.000855777 0.0121608  0
0.00101401 0.0125597  0
0.000874096 0.0129375  0
0.00120259 0.0137412  0
0.000585814 0.0137065  0
0.00103834 0.0133394  0
0.000894203 0.0137239  0
0.000729955 0.013322  0
0.000872958 0.0129374  0
0.000589755 0.0137065  0
0.000561669 0.0121399  0
0.000731356 0.013322  0
0.000575712 0.0129232  0
0.000717314 0.0125387  0
0.0039763 0.0133177  0
0.00457481 0.0141298  0
0.0035452 0.0139813  0
0.00427555 0.0137238  0
0.00406 0.0140556  0
0.00376075 0.0136495  0
0.00397181 0.0133179  0
0.00355924 0.0139809  0
0.00341104 0.0125074  0
0.00376552 0.0136494  0
0.00348514 0.0132441  0
0.00369142 0.0129127  0
0.00397169 0.0133177  0
0.00440376 0.0126914  0
0.00458924 0.0141295  0
0.00418773 0.0130046  0
0.0044965 0.0134104  0
0.00428047 0.0137236  0
0.00397651 0.0133178  0
0.00339752 0.0125074  0
0.00438988 0.0126914  0
0.00368702 0.0129126  0
0.0038937 0.0125994  0
0.0041832 0.0130046  0
0.00314166 0.0146934  0
0.00264993 0.0138784  0
0.00354543 0.0139829  0
0.00289579 0.0142859  0
0.00309768 0.0139306  0
0.00334355 0.0143381  0
0.00313721 0.0146937  0
0.00355792 0.0139814  0
0.00366167 0.0155119  0
0.00334756 0.0143376  0
0.0036098 0.0147467  0
0.00339944 0.0151028  0
0.00313763 0.0146941  0
0.00274543 0.0154287  0
0.00266159 0.0138776  0
0.00294153 0.0150614  0
0.00270351 0.0146531  0
0.00289961 0.0142858  0
0.0031413 0.0146934  0
0.00364892 0.0155141  0
0.00273355 0.0154302  0
0.00339511 0.0151038  0
0.00319124 0.0154722  0
0.00293742 0.0150618  0
0.00412016 0.0147996  0
0.00354089 0.0139856  0
0.00457906 0.0141255  0
0.00383053 0.0143926  0
0.00405998 0.0140555  0
0.00434961 0.0144625  0
0.00411516 0.0148002  0
0.00366453 0.0155086  0
0.00355488 0.0139846  0
0.00388984 0.0151544  0
0.0036097 0.0147466  0
0.00383502 0.0143924  0
0.00411493 0.0147998  0
0.00459379 0.0141242  0
0.00473352 0.0156169  0
0.00435436 0.014462  0
0.00466366 0.0148705  0
0.00442423 0.0152083  0
0.00411975 0.0147994  0
0.00471799 0.015619  0
0.00364983 0.0155104  0
0.00441887 0.0152092  0
0.00418391 0.0155647  0
0.00388479 0.0151549  0
0.00505468 0.0135087  0
0.00459457 0.0141247  0
0.00439848 0.012696  0
0.00482463 0.0138167  0
0.00449653 0.0134103  0
0.00472658 0.0131023  0
0.0050595 0.0135089  0
0.0043846 0.0126954  0
0.00551548 0.0129328  0
0.00472205 0.0131021  0
0.00495004 0.0128141  0
0.00528749 0.0132208  0
0.00505939 0.0135088  0
0.00575747 0.0143241  0
0.00458027 0.0141241  0
0.00540843 0.0139164  0
0.00516887 0.0142241  0
0.00481983 0.0138164  0
0.00505485 0.0135086  0
0.00552922 0.0129335  0
0.0057716 0.0143249  0
0.00529204 0.013221  0
0.00565041 0.0136292  0
0.00541323 0.0139167  0
0.000285961 0.012912  0
1.16566e-06 0.0136957  0
-1.37435e-06 0.0121252  0
0.000143563 0.0133038  0
-1.04341e-07 0.0129105  0
0.000142293 0.0125186  0
0.00028621 0.0129119  0
-2.52649e-06 0.0121247  0
0.000562759 0.0121388  0
0.000141842 0.0125183  0
0.000280116 0.0121318  0
0.000424485 0.0125254  0
0.000286184 0.0129122  0
0.000585764 0.013707  0
1.75826e-08 0.0136954  0
0.000435974 0.0133096  0
0.000292891 0.0137012  0
0.000143101 0.0133038  0
0.0002855 0.0129119  0
0.000564422 0.0121393  0
0.000587412 0.0137072  0
0.000424961 0.0125256  0
0.000575917 0.0129232  0
0.000436456 0.0133096  0
-0.000285961 0.012912  0
1.37435e-06 0.0121252  0
-1.16566e-06 0.0136957  0
-0.000142293 0.0125186  0
1.04341e-07 0.0129105  0
-0.000143563 0.0133038  0
-0.00028621 0.0129119  0
-0.000562759 0.0121388  0
2.52649e-06 0.0121247  0
-0.000424485 0.0125254  0
-0.000280116 0.0121318  0
-0.000141842 0.0125183  0
-0.000286184 0.0129122  0
-1.75826e-08 0.0136954  0
-0.000585764 0.013707  0
-0.000143101 0.0133038  0
-0.000292891 0.0137012  0
-0.000435974 0.0133096  0
-0.0002855 0.0129119  0
-0.000587412 0.0137072  0
-0.000564422 0.0121393  0
-0.000436456 0.0133096  0
-0.000575917 0.0129232  0
-0.000424961 0.0125256  0
0.000297584 0.0144904  0
-2.28396e-06 0.0136958  0
0.000588034 0.013707  0
0.00014765 0.0140931  0
0.000292875 0.0137014  0
0.000442809 0.0140987  0
0.000296932 0.01449  0
0.000589426 0.0137086  0
0.000608478 0.0152883  0
0.000443179 0.0140993  0
0.000598952 0.0144984  0
0.000452705 0.0148891  0
0.000297379 0.01449  0
9.41908e-07 0.0152781  0
-1.16964e-06 0.0136976  0
0.000149161 0.014884  0
-1.13864e-07 0.0144878  0
0.000148105 0.0140938  0
0.00029755 0.0144908  0
0.000607136 0.0152867  0
-1.45676e-07 0.0152763  0
0.000452343 0.0148887  0
0.000303495 0.0152815  0
0.000148702 0.0148835  0
0.000908188 0.0145112  0
0.000583498 0.0137074  0
0.00120482 0.0137407  0
0.000745843 0.0141093  0
0.000894156 0.013724  0
0.0010565 0.0141259  0
0.000907115 0.014511  0
0.000610327 0.0152881  0
0.000587126 0.0137088  0
0.000758721 0.0148995  0
0.000598727 0.0144985  0
0.00074712 0.0141099  0
0.000906664 0.0145109  0
0.00120878 0.0137418  0
0.00124841 0.0153182  0
0.00105772 0.0141263  0
0.00122859 0.01453  0
0.00107753 0.0149145  0
0.000908084 0.0145115  0
0.00124456 0.0153171  0
0.000606792 0.0152867  0
0.00107632 0.0149143  0
0.000925674 0.0153019  0
0.000757438 0.0148991  0
-0.000874096 0.0129375  0
-0.000585814 0.0137065  0
-0.00120259 0.0137412  0
-0.000729955 0.013322  0
-0.000894203 0.0137239  0
-0.00103834 0.0133394  0
-0.000872958 0.0129374  0
-0.000561669 0.0121399  0
-0.000589755 0.0137065  0
-0.000717314 0.0125387  0
-0.000575712 0.0129232  0
-0.000731356 0.013322  0
-0.000872502 0.0129373  0
-0.00120707 0.0137411  0
-0.00115834 0.0121823  0
-0.00103979 0.0133392  0
-0.0011827 0.0129617  0
-0.00101542 0.0125598  0
-0.000874174 0.0129373  0
-0.00115384 0.0121821  0
-0.000557716 0.0121395  0
-0.00101401 0.0125597  0
-0.000855777 0.0121608  0
-0.000715945 0.0125384  0
-0.000297584 0.0144904  0
-0.000588034 0.013707  0
2.28396e-06 0.0136958  0
-0.000442809 0.0140987  0
-0.000292875 0.0137014  0
-0.00014765 0.0140931  0
-0.000296932 0.01449  0
-0.000608478 0.0152883  0
-0.000589426 0.0137086  0
-0.000452705 0.0148891  0
-0.000598952 0.0144984  0
-0.000443179 0.0140993  0
-0.000297379 0.01449  0
1.16964e-06 0.0136976  0
-9.41908e-07 0.0152781  0
-0.000148105 0.0140938  0
1.13864e-07 0.0144878  0
-0.000149161 0.014884  0
-0.00029755 0.0144908  0
1.45676e-07 0.0152763  0
-0.000607136 0.0152867  0
-0.000148702 0.0148835  0
-0.000303495 0.0152815  0
-0.000452343 0.0148887  0
-0.000908188 0.0145112  0
-0.00120482 0.0137407  0
-0.000583498 0.0137074  0
-0.0010565 0.0141259  0
-0.000894156 0.013724  0
-0.000745843 0.0141093  0
-0.000907115 0.014511  0
-0.000587126 0.0137088  0
-0.000610327 0.0152881  0
-0.00074712 0.0141099  0
-0.000598727 0.0144985  0
-0.000758721 0.0148995  0
-0.000906664 0.0145109  0
-0.00124841 0.0153182  0
-0.00120878 0.0137418  0
-0.00107753 0.0149145  0
-0.00122859 0.01453  0
-0.00105772 0.0141263  0
-0.000908084 0.0145115  0
-0.000606792 0.0152867  0
-0.00124456 0.0153171  0
-0.000757438 0.0148991  0
-0.000925674 0.0153019  0
-0.00107632 0.0149143  0
-0.00150634 0.0129885  0
-0.00115555 0.0121836  0
-0.00120947 0.0137397  0
-0.00133094 0.012586  0
-0.00118251 0.0129617  0
-0.00135791 0.0133641  0
-0.00150853 0.0129883  0
-0.00180591 0.0122554  0
-0.00114881 0.0121835  0
-0.00165722 0.0126218  0
-0.00147736 0.0122194  0
-0.00132867 0.0125859  0
-0.0015084 0.0129884  0
-0.00120272 0.01374  0
-0.00188128 0.013798  0
-0.00135556 0.0133642  0
-0.001542 0.013769  0
-0.00169484 0.0133932  0
-0.0015059 0.0129884  0
-0.00188864 0.0137974  0
-0.00181325 0.0122552  0
-0.00169727 0.0133929  0
-0.00185095 0.0130263  0
-0.00165957 0.0126218  0
0.00161266 0.0161295  0
0.00129135 0.0168917  0
0.00124736 0.0153198  0
0.001452 0.0165106  0
0.00126935 0.0161058  0
0.00143001 0.0157246  0
0.00161423 0.0161298  0
0.00124219 0.0153173  0
0.00194472 0.0153663  0
0.00142821 0.0157236  0
0.00159346 0.0153418  0
0.00177948 0.0157481  0
0.00161401 0.0161303  0
0.00200273 0.0169441  0
0.00128648 0.016889  0
0.00180837 0.0165372  0
0.00164461 0.0169166  0
0.00145025 0.0165097  0
0.00161221 0.0161292  0
0.00195002 0.0153679  0
0.00200769 0.0169459  0
0.00178112 0.0157486  0
0.00197886 0.0161569  0
0.00180995 0.0165376  0
0.000937512 0.0160877  0
0.00124947 0.0153205  0
0.00128973 0.016891  0
0.00109349 0.0157041  0
0.0012696 0.0161057  0
0.00111362 0.0164894  0
0.000938757 0.0160887  0
0.000604756 0.0152869  0
0.00124645 0.0153174  0
0.000771756 0.0156878  0
0.000925603 0.0153021  0
0.0010926 0.0157031  0
0.000938635 0.0160892  0
0.00128693 0.0168876  0
0.000628982 0.0168524  0
0.00111278 0.0164884  0
0.000957957 0.01687  0
0.000783809 0.0164708  0
0.000937935 0.0160879  0
0.000631824 0.0168563  0
0.000607785 0.0152904  0
0.00078488 0.0164721  0
0.000619804 0.0160734  0
0.00077286 0.0156891  0
0.00236216 0.0161874  0
0.0027434 0.0154311  0
0.0028147 0.0170155  0
0.00255278 0.0158093  0
0.00277905 0.0162233  0
0.00258843 0.0166015  0
0.0023651 0.0161875  0
0.0019407 0.0153664  0
0.0027354 0.0154314  0
0.0021529 0.0157769  0
0.00233805 0.0153989  0
0.00255025 0.0158095  0
0.00236476 0.0161878  0
0.0028071 0.017016  0
0.00200171 0.016946  0
0.00258593 0.0166019  0
0.0024044 0.016981  0
0.00218323 0.0165669  0
0.00236265 0.0161878  0
0.00200894 0.0169467  0
0.0019483 0.0153672  0
0.00218579 0.0165673  0
0.00197862 0.016157  0
0.00215547 0.0157775  0
0.00322013 0.016259  0
0.00281561 0.0170159  0
0.00274205 0.0154308  0
0.00301787 0.0166375  0
0.00277883 0.0162234  0
0.00298109 0.0158449  0
0.00322371 0.016258  0
0.00273155 0.015432  0
0.00365057 0.0155126  0
0.00297763 0.015845  0
0.00319106 0.0154723  0
0.00343714 0.0158853  0
0.00322319 0.0162581  0
0.00373363 0.0170969  0
0.00280536 0.0170177  0
0.00347841 0.0166775  0
0.00326949 0.0170573  0
0.00301427 0.0166379  0
0.00321958 0.0162585  0
0.00366194 0.01551  0
0.00374476 0.0170936  0
0.00344076 0.0158842  0
0.00370335 0.0163018  0
0.00348217 0.0166761  0
0.00167123 0.0176954  0
0.00128448 0.0168876  0
0.00200443 0.0169461  0
0.00147785 0.0172915  0
0.00164445 0.0169169  0
0.00183783 0.0173208  0
0.00166988 0.0176938  0
0.00200761 0.0169508  0
0.00208476 0.0185071  0
0.00183874 0.0173223  0
0.00204618 0.017729  0
0.00187732 0.0181004  0
0.00167027 0.017694  0
0.00134743 0.0184272  0
0.00128806 0.0168933  0
0.00150885 0.0180606  0
0.00131774 0.0176602  0
0.00147916 0.0172936  0
0.00167101 0.0176961  0
0.00208207 0.0185016  0
0.0013443 0.0184206  0
0.00187654 0.0180989  0
0.00171319 0.0184611  0
0.00150765 0.0180584  0
0.00243744 0.0177724  0
0.00200022 0.0169442  0
0.00280811 0.0170183  0
0.00221883 0.0173583  0
0.00240417 0.0169813  0
0.00262277 0.0173954  0
0.00243588 0.0177719  0
0.00208632 0.0185105  0
0.00200548 0.0169476  0
0.0022611 0.0181412  0
0.0020459 0.017729  0
0.00222068 0.0173598  0
0.00243543 0.0177716  0
0.00281315 0.0170202  0
0.0029055 0.0186125  0
0.00262429 0.0173959  0
0.00285932 0.0178164  0
0.00267047 0.018192  0
0.00243707 0.0177731  0
0.0029012 0.0186101  0
0.00208173 0.0185064  0
0.00266914 0.0181916  0
0.00249147 0.0185582  0
0.0022594 0.0181397  0
0.000307848 0.0160662  0
9.79159e-07 0.016844  0
-1.22791e-06 0.0152805  0
0.000154414 0.0164551  0
-1.24375e-07 0.0160623  0
0.00015331 0.0156734  0
0.000307979 0.0160673  0
-2.25311e-06 0.0152765  0
0.000609196 0.0152869  0
0.000152863 0.0156719  0
0.000303471 0.0152817  0
0.000458588 0.0156771  0
0.00030794 0.0160678  0
0.000629084 0.0168517  0
5.86317e-09 0.0168396  0
0.000468512 0.0164597  0
0.000314545 0.0168456  0
0.000153973 0.0164537  0
0.000307434 0.0160662  0
0.000610151 0.0152908  0
0.000629954 0.0168559  0
0.000458793 0.0156785  0
0.000620052 0.0160734  0
0.000468694 0.016461  0
-0.000307848 0.0160662  0
1.22791e-06 0.0152805  0
-9.79159e-07 0.016844  0
-0.00015331 0.0156734  0
1.24375e-07 0.0160623  0
-0.000154414 0.0164551  0
-0.000307979 0.0160673  0
-0.000609196 0.0152869  0
2.25311e-06 0.0152765  0
-0.000458588 0.0156771  0
-0.000303471 0.0152817  0
-0.000152863 0.0156719  0
-0.00030794 0.0160678  0
-5.86311e-09 0.0168396  0
-0.000629084 0.0168517  0
-0.000153973 0.0164537  0
-0.000314545 0.0168456  0
-0.000468512 0.0164597  0
-0.000307434 0.0160662  0
-0.000629954 0.0168559  0
-0.000610151 0.0152908  0
-0.000468694 0.016461  0
-0.000620052 0.0160734  0
-0.000458793 0.0156785  0
0.000975136 0.0176397  0
0.000626613 0.0168516  0
0.00128912 0.016889  0
0.000800874 0.0172457  0
0.000957867 0.0168703  0
0.00113213 0.0172644  0
0.000974658 0.0176377  0
0.000661345 0.0183742  0
0.00062879 0.0168587  0
0.000818001 0.0180059  0
0.000645068 0.0176164  0
0.000801724 0.0172482  0
0.000974286 0.0176376  0
0.00129082 0.0168955  0
0.00134521 0.0184248  0
0.00113255 0.0172666  0
0.00131802 0.0176602  0
0.00115975 0.0180312  0
0.000975009 0.0176404  0
0.0013438 0.0184174  0
0.000659419 0.0183662  0
0.00115941 0.0180289  0
0.00100161 0.0183918  0
0.000817214 0.0180033  0
0.00032047 0.0176106  0
-2.5196e-06 0.0168395  0
0.000631551 0.0168524  0
0.000158975 0.0172251  0
0.000314516 0.0168459  0
0.000476011 0.0172315  0
0.000320071 0.0176083  0
0.000631932 0.0168599  0
0.000658745 0.018373  0
0.000476002 0.0172341  0
0.000645338 0.0176164  0
0.000489408 0.0179906  0
0.000320436 0.0176083  0
1.36274e-06 0.0183556  0
-1.63262e-06 0.0168472  0
0.000160899 0.017982  0
-1.34941e-07 0.0176014  0
0.000159401 0.0172278  0
0.000320429 0.0176114  0
0.000658474 0.0183646  0
5.44426e-07 0.0183471  0
0.000489451 0.017988  0
0.000329509 0.0183558  0
0.000160487 0.0179792  0
0.00627753 0.0137572  0
0.00678595 0.0132331  0
0.00708775 0.0145826  0
0.00653174 0.0134952  0
0.00693685 0.0139079  0
0.00668264 0.0141699  0
0.0062814 0.0137574  0
0.00551041 0.0129373  0
0.00677367 0.0132327  0
0.00589591 0.0133474  0
0.00614204 0.013085  0
0.00652753 0.0134951  0
0.00628149 0.0137574  0
0.00707602 0.0145818  0
0.0057655 0.0143193  0
0.00667875 0.0141696  0
0.00642076 0.0144505  0
0.00602349 0.0140384  0
0.00627717 0.0137571  0
0.00577788 0.0143204  0
0.00552316 0.0129379  0
0.00602752 0.0140388  0
0.00565052 0.0136292  0
0.00590017 0.0133475  0
0.00654022 0.0151482  0
0.00575903 0.0143231  0
0.00708242 0.0145777  0
0.00614962 0.0147356  0
0.00642073 0.0144504  0
0.00681132 0.0148629  0
0.00653596 0.0151478  0
0.00598164 0.0157605  0
0.00577123 0.0143236  0
0.0062588 0.0154542  0
0.00587644 0.0150421  0
0.0061536 0.0147357  0
0.00653686 0.0151478  0
0.0070935 0.0145779  0
0.00736066 0.0159843  0
0.00681518 0.0148629  0
0.00722708 0.0152811  0
0.00694876 0.0155661  0
0.00654027 0.015148  0
0.00735005 0.0159831  0
0.00596955 0.0157592  0
0.00694516 0.0155655  0
0.0066598 0.0158711  0
0.00625491 0.0154536  0
0.00525428 0.0149443  0
0.00457441 0.0141288  0
0.00576336 0.0143192  0
0.00491435 0.0145365  0
0.00516889 0.014224  0
0.00550882 0.0146318  0
0.00524921 0.0149441  0
0.00577799 0.0143191  0
0.00597436 0.0157652  0
0.0055136 0.0146316  0
0.00587617 0.0150422  0
0.00561178 0.0153546  0
0.00524892 0.0149445  0
0.00473835 0.0156123  0
0.00458907 0.0141284  0
0.00499364 0.0152784  0
0.00466371 0.0148704  0
0.00491899 0.0145365  0
0.00525396 0.014944  0
0.00595869 0.0157654  0
0.00472268 0.0156128  0
0.00560633 0.0153547  0
0.00534069 0.0156891  0
0.00498832 0.0152784  0
0.00421901 0.016341  0
0.00473601 0.0156114  0
0.00483698 0.0171773  0
0.00447751 0.0159762  0
0.00478649 0.0163943  0
0.00452799 0.0167591  0
0.0042246 0.0163401  0
0.00364675 0.0155138  0
0.00472083 0.0156156  0
0.00393568 0.015927  0
0.00418379 0.0155647  0
0.00447271 0.0159778  0
0.00422381 0.0163397  0
0.00482117 0.0171829  0
0.00373151 0.0170968  0
0.00452249 0.0167613  0
0.00427634 0.0171399  0
0.00397766 0.0167183  0
0.00421958 0.0163417  0
0.0037458 0.0170926  0
0.00366055 0.0155109  0
0.00398269 0.0167172  0
0.00370318 0.0163018  0
0.00394007 0.0159263  0
0.00539468 0.0164447  0
0.00484003 0.0171738  0
0.00473299 0.0156144  0
0.00511736 0.0168092  0
0.00478651 0.0163941  0
0.00506384 0.0160295  0
0.00540099 0.0164435  0
0.00471701 0.0156174  0
0.00596439 0.0157604  0
0.005059 0.0160304  0
0.0053407 0.0156889  0
0.00568269 0.0161019  0
0.00540016 0.0164427  0
0.00611029 0.0172859  0
0.00482205 0.0171782  0
0.00575522 0.0168643  0
0.00546617 0.017232  0
0.00511111 0.0168104  0
0.00539479 0.0164438  0
0.00598123 0.0157575  0
0.00612946 0.0172817  0
0.00568801 0.0161007  0
0.00605535 0.0165196  0
0.00576213 0.0168628  0
0.00431011 0.0179557  0
0.00373042 0.017097  0
0.00482148 0.0171829  0
0.00402026 0.0175263  0
0.00427595 0.0171399  0
0.0045658 0.0175693  0
0.00430622 0.0179584  0
0.00383854 0.0187339  0
0.00374166 0.0170928  0
0.00407238 0.0183461  0
0.0037901 0.0179133  0
0.00402394 0.0175256  0
0.00430535 0.0179574  0
0.00483422 0.0171752  0
0.0049266 0.0188427  0
0.00456978 0.0175663  0
0.00488041 0.018009  0
0.00461598 0.0184  0
0.00430906 0.0179558  0
0.00491491 0.0188516  0
0.00382826 0.018739  0
0.00461199 0.0184037  0
0.00437159 0.0187953  0
0.00406866 0.0183474  0
0.00330481 0.0178627  0
0.00280439 0.0170162  0
0.00373393 0.0170988  0
0.0030546 0.0174395  0
0.00326916 0.0170575  0
0.00351937 0.0174808  0
0.00330184 0.017863  0
0.00374172 0.0170966  0
0.00383911 0.0187298  0
0.00352178 0.0174798  0
0.00379042 0.0179132  0
0.00357048 0.0182964  0
0.00330241 0.0178636  0
0.0029061 0.0186166  0
0.00281195 0.0170163  0
0.00310426 0.0182401  0
0.00285903 0.0178165  0
0.00305718 0.01744  0
0.00330422 0.0178633  0
0.00383232 0.0187319  0
0.00289946 0.0186163  0
0.00356827 0.0182976  0
0.00336589 0.0186741  0
0.00310184 0.0182398  0
0.00675718 0.0166006  0
0.00736864 0.0159784  0
0.00760897 0.0174629  0
0.00706291 0.0162895  0
0.00748881 0.0167206  0
0.00718308 0.0170317  0
0.00676024 0.0166011  0
0.00596128 0.0157626  0
0.00735832 0.0159789  0
0.00636076 0.0161818  0
0.0066598 0.0158707  0
0.00705928 0.01629  0
0.00676004 0.0166004  0
0.00759819 0.0174616  0
0.00612422 0.0172757  0
0.00717911 0.017031  0
0.00686121 0.0173687  0
0.00644213 0.0169381  0
0.00675519 0.0166008  0
0.00613789 0.0172766  0
0.00597376 0.0157619  0
0.00644654 0.0169387  0
0.00605583 0.0165192  0
0.00636448 0.0161813  0
0.0055026 0.0180424  0
0.00481828 0.0171819  0
0.00611366 0.0172815  0
0.00516044 0.0176122  0
0.00546597 0.0172317  0
0.00580813 0.017662  0
0.00549425 0.0180443  0
0.0061335 0.01727  0
0.00623575 0.0189361  0
0.00581387 0.0176571  0
0.00618462 0.018103  0
0.005865 0.0184902  0
0.00549574 0.0180467  0
0.00492539 0.0188443  0
0.00483492 0.0171735  0
0.00521057 0.0184455  0
0.00488016 0.0180089  0
0.00516533 0.0176101  0
0.0055002 0.0180407  0
0.00621332 0.0189516  0
0.00490686 0.018856  0
0.00585676 0.0184962  0
0.00556009 0.0189038  0
0.00520353 0.0184483  0
0.00693993 0.0181516  0
0.00611272 0.0172791  0
0.00760995 0.0174563  0
0.00652632 0.0177154  0
0.00686133 0.0173677  0
0.00727494 0.0178039  0
0.00693128 0.0181526  0
0.00624174 0.0189314  0
0.00612842 0.0172727  0
0.00658651 0.018542  0
0.00618508 0.0181021  0
0.00652985 0.0177126  0
0.00693544 0.0181514  0
0.00762275 0.0174523  0
0.00784201 0.0190717  0
0.00727909 0.0178018  0
0.00773238 0.018262  0
0.00738872 0.0186115  0
0.00693865 0.0181492  0
0.00782359 0.0190733  0
0.00621899 0.0189374  0
0.00738112 0.0186113  0
0.00702129 0.0190054  0
0.00657882 0.0185433  0
-0.000168531 0.00111743  0
-6.73248e-05 0.000197463  0
0.000122 -0.000174342  0
-0.000117928 0.000657448  0
2.73376e-05 1.15603e-05  0
-2.32653e-05 0.000471546  0
-0.000219224 0.00102656  0
9.30603e-05 -4.41044e-05  0
-0.00042041 0.00147516  0
-6.30821e-05 0.000491228  0
-0.000163675 0.000715527  0
-0.000319817 0.00125086  0
-0.000128494 0.00109868  0
-0.00130405 0.00247823  0
-0.000315358 0.000542675  0
-0.000716271 0.00178845  0
-0.000809703 0.00151045  0
-0.000221926 0.000820677  0
-0.00024065 0.0011052  0
-0.000377403 0.00142145  0
-0.00115777 0.00232653  0
-0.000309026 0.00126332  0
-0.000767588 0.00187399  0
-0.000699211 0.00171586  0
-0.00114032 0.00249499  0
-0.00202593 0.00342786  0
-0.00124652 0.0023256  0
-0.00158313 0.00296142  0
-0.00163623 0.00287673  0
-0.00119342 0.00241029  0
-0.00115347 0.00250543  0
-0.00118112 0.00229955  0
-0.000357163 0.00144438  0
-0.00116729 0.00240249  0
-0.000769139 0.00187196  0
-0.000755314 0.00197491  0
-0.00115944 0.00249705  0
-0.0011395 0.00265223  0
-0.00198756 0.00340887  0
-0.00114947 0.00257464  0
-0.00156353 0.00303055  0
-0.0015735 0.00295296  0
-0.00113949 0.00248901  0
-0.000414437 0.00148476  0
-0.00117238 0.00267992  0
-0.000776962 0.00198689  0
-0.00079341 0.00208234  0
-0.00115594 0.00258446  0
-0.00191365 0.00353215  0
-0.00198728 0.00339742  0
-0.00113852 0.00266049  0
-0.00195047 0.00346478  0
-0.0015629 0.00302895  0
-0.00152609 0.00309632  0
-0.00190527 0.00352886  0
-0.00116555 0.00266722  0
-0.00186326 0.00368049  0
-0.00153541 0.00309804  0
-0.0015144 0.00317386  0
-0.00188427 0.00360468  0
-0.00190804 0.00353025  0
-0.00271571 0.00436034  0
-0.00201207 0.00340088  0
-0.00231188 0.0039453  0
-0.00236389 0.00388061  0
-0.00196006 0.00346557  0
-0.00191505 0.00353061  0
-0.00184263 0.00367378  0
-0.00269669 0.00435588  0
-0.00187884 0.0036022  0
-0.00226966 0.00401483  0
-0.00230587 0.00394325  0
-0.00258881 0.00449212  0
-0.00337286 0.00529344  0
-0.00271396 0.00434926  0
-0.00298084 0.00489278  0
-0.00304341 0.00482135  0
-0.00265139 0.00442069  0
-0.00259325 0.0044926  0
-0.0026981 0.0043492  0
-0.00184086 0.00367898  0
-0.00264567 0.0044209  0
-0.00226948 0.00401409  0
-0.00221705 0.00408579  0
-0.00259363 0.004492  0
-0.00247822 0.00466323  0
-0.00335843 0.00529224  0
-0.00253593 0.00457762  0
-0.00291833 0.00497774  0
-0.00297603 0.00489212  0
-0.00258737 0.00449174  0
-0.00185867 0.00367993  0
-0.00249411 0.00466508  0
-0.00222302 0.00408583  0
-0.00217639 0.0041725  0
-0.00254074 0.00457841  0
-0.00321833 0.00546557  0
-0.00336214 0.00528704  0
-0.00247441 0.00466778  0
-0.00329023 0.0053763  0
-0.00291828 0.00497741  0
-0.00284637 0.00506667  0
-0.00321331 0.00546541  0
-0.00248925 0.00466752  0
-0.00307108 0.00568105  0
-0.00285128 0.00506647  0
-0.00278016 0.00517429  0
-0.00314219 0.00557323  0
-0.00321399 0.00546549  0
-0.00399423 0.00626281  0
-0.00337593 0.00528659  0
-0.00360411 0.00586415  0
-0.00368508 0.0057747  0
-0.00329496 0.00537604  0
-0.00321841 0.00546535  0
-0.00305672 0.00568073  0
-0.00398065 0.00626261  0
-0.00313757 0.00557304  0
-0.00351869 0.00597167  0
-0.00359953 0.00586398  0
-0.00379125 0.00648315  0
-0.00457494 0.00728472  0
-0.00399926 0.00625745  0
-0.00418309 0.00688394  0
-0.0042871 0.00677109  0
-0.00389526 0.0063703  0
-0.00379575 0.00648311  0
-0.00398564 0.00625784  0
-0.00305172 0.00568523  0
-0.00389069 0.00637048  0
-0.00351868 0.00597154  0
-0.00342373 0.00608417  0
-0.00379574 0.00648305  0
-0.00358445 0.00674919  0
-0.0045612 0.00728483  0
-0.0036901 0.00661612  0
-0.00407283 0.00701701  0
-0.00417847 0.00688394  0
-0.00379099 0.00648316  0
-0.0030658 0.00568483  0
-0.00359849 0.00674905  0
-0.00342839 0.00608399  0
-0.00333214 0.00621694  0
-0.00369474 0.0066161  0
-0.00432669 0.007557  0
-0.00456674 0.00728014  0
-0.00357892 0.00675381  0
-0.00444672 0.00741857  0
-0.00407283 0.00701697  0
-0.00395281 0.0071554  0
-0.00432199 0.00755708  0
-0.00359294 0.00675353  0
-0.00407809 0.00787579  0
-0.00395747 0.0071553  0
-0.00383552 0.00731466  0
-0.00420004 0.00771643  0
-0.00432203 0.00755706  0
-0.00511101 0.00836471  0
-0.00458065 0.00727992  0
-0.00471652 0.00796088  0
-0.00484583 0.00782231  0
-0.00445134 0.00741849  0
-0.00432667 0.00755701  0
-0.00406401 0.007876  0
-0.00509696 0.00836487  0
-0.00419534 0.0077165  0
-0.00458048 0.00812043  0
-0.00471182 0.00796094  0
-0.00480605 0.00868991  0
-0.00559986 0.00950283  0
-0.00511678 0.00836012  0
-0.00520295 0.00909637  0
-0.00535832 0.00893147  0
-0.00496141 0.00852501  0
-0.0048108 0.00868986  0
-0.00510262 0.00836017  0
-0.00405836 0.00788072  0
-0.00495671 0.00852502  0
-0.00458049 0.00812045  0
-0.00443458 0.00828529  0
-0.00481079 0.00868991  0
-0.0044964 0.00906134  0
-0.00558565 0.00950292  0
-0.00465359 0.00887562  0
-0.00504102 0.00928213  0
-0.00519822 0.00909642  0
-0.00480611 0.00868991  0
-0.00407246 0.00788065  0
-0.00451051 0.00906123  0
-0.00443929 0.00828528  0
-0.00429149 0.00847094  0
-0.00465831 0.00887557  0
-0.00524766 0.00987991  0
-0.0055912 0.00949823  0
-0.00449084 0.0090661  0
-0.00541943 0.00968907  0
-0.00504102 0.00928217  0
-0.00486925 0.00947301  0
-0.00524303 0.0098799  0
-0.00450491 0.00906625  0
-0.00489612 0.0103021  0
-0.00487397 0.00947308  0
-0.00470052 0.00968419  0
-0.00506958 0.010091  0
-0.00524293 0.00987992  0
-0.00604043 0.0106965  0
-0.00560539 0.00949834  0
-0.00564168 0.0102882  0
-0.00582291 0.0100974  0
-0.00542416 0.00968913  0
-0.00524768 0.00987997  0
-0.00488214 0.010302  0
-0.00602633 0.0106964  0
-0.00506491 0.010091  0
-0.00545424 0.0104992  0
-0.00563701 0.0102882  0
-0.00419476 0.00949433  0
-0.0044969 0.00906132  0
-0.00353465 0.00868525  0
-0.00434583 0.00927783  0
-0.00401577 0.00887329  0
-0.0038647 0.00908979  0
-0.0041902 0.00949429  0
-0.00489059 0.0103068  0
-0.00451052 0.00906158  0
-0.0045404 0.00990053  0
-0.00470056 0.00968418  0
-0.00435036 0.00927793  0
-0.00419029 0.00949427  0
-0.00354819 0.00868553  0
-0.00388314 0.00996769  0
-0.00386924 0.0090899  0
-0.00371567 0.00932661  0
-0.00403672 0.00973098  0
-0.00419477 0.0094944  0
-0.00386966 0.00996745  0
-0.00487703 0.0103066  0
-0.00403221 0.00973092  0
-0.00437334 0.010137  0
-0.0045359 0.00990047  0
-0.0045248 0.0107841  0
-0.00387754 0.00997262  0
-0.00416664 0.0113058  0
-0.00420117 0.0103784  0
-0.00402209 0.0106392  0
-0.00434572 0.0110449  0
-0.00452927 0.0107842  0
-0.00488263 0.010302  0
-0.00386405 0.0099721  0
-0.00470595 0.0105431  0
-0.00437334 0.010137  0
-0.00419666 0.0103782  0
-0.00452927 0.0107843  0
-0.00415314 0.0113053  0
-0.00521638 0.0115982  0
-0.00434121 0.0110448  0
-0.00468476 0.0114517  0
-0.00487283 0.0111913  0
-0.00452475 0.0107841  0
-0.00522989 0.0115988  0
-0.00489615 0.0103025  0
-0.00487732 0.0111914  0
-0.00506302 0.0109506  0
-0.00471045 0.0105433  0
-0.00355032 0.0105005  0
-0.00416113 0.0113104  0
-0.00388313 0.00996805  0
-0.00385572 0.0109054  0
-0.00402213 0.0106392  0
-0.00371672 0.0102343  0
-0.00355472 0.0105006  0
-0.00387015 0.00996759  0
-0.0029824 0.00969353  0
-0.00371243 0.0102341  0
-0.00342628 0.00983056  0
-0.00326856 0.0100971  0
-0.00355468 0.0105007  0
-0.00321694 0.0110718  0
-0.00414802 0.0113101  0
-0.00338581 0.0107862  0
-0.00368248 0.0111909  0
-0.00385135 0.0109054  0
-0.00355045 0.0105005  0
-0.00299518 0.00969394  0
-0.00322985 0.0110721  0
-0.00327281 0.0100972  0
-0.00311251 0.010383  0
-0.00339015 0.0107863  0
-0.00563292 0.0111234  0
-0.00643332 0.0119422  0
-0.00604564 0.0106921  0
-0.00603312 0.0115328  0
-0.00623948 0.0113171  0
-0.00583928 0.0109077  0
-0.00563751 0.0111234  0
-0.00603173 0.0106918  0
-0.00487672 0.0103067  0
-0.00583462 0.0109076  0
-0.00545423 0.0104993  0
-0.00525711 0.0107151  0
-0.00563755 0.0111235  0
-0.00522179 0.0115938  0
-0.00641967 0.011942  0
-0.00542967 0.0113586  0
-0.00582073 0.0117679  0
-0.00602861 0.0115327  0
-0.00563297 0.0111233  0
-0.00489056 0.0103071  0
-0.00523542 0.0115942  0
-0.00526177 0.0107152  0
-0.00506299 0.0109506  0
-0.0054342 0.0113588  0
-0.00481759 0.0121231  0
-0.00522197 0.0115936  0
-0.00414755 0.0113099  0
-0.00501978 0.0118584  0
-0.00468476 0.0114518  0
-0.00448257 0.0117165  0
-0.00481306 0.0121229  0
-0.00552337 0.0129383  0
-0.00523548 0.0115943  0
-0.00516822 0.0125306  0
-0.00537943 0.0122663  0
-0.00502427 0.0118586  0
-0.00481303 0.0121229  0
-0.00416111 0.0113106  0
-0.00440399 0.0126915  0
-0.00448707 0.0117167  0
-0.00428255 0.012001  0
-0.00460851 0.0124072  0
-0.00481756 0.0121231  0
-0.00439029 0.0126908  0
-0.00550976 0.0129375  0
-0.00460393 0.012407  0
-0.00495003 0.0128141  0
-0.00516366 0.0125303  0
-0.00598141 0.0124167  0
-0.00642501 0.0119375  0
-0.00521641 0.0115983  0
-0.00620321 0.0121771  0
-0.00582071 0.0117679  0
-0.00559891 0.0120075  0
-0.00597703 0.0124165  0
-0.00522979 0.0115989  0
-0.00552911 0.0129338  0
-0.00560341 0.0120077  0
-0.00537945 0.0122663  0
-0.00575307 0.0126751  0
-0.00597711 0.0124165  0
-0.00678093 0.0132375  0
-0.00643828 0.0119379  0
-0.00637902 0.012827  0
-0.0066096 0.0125877  0
-0.00620769 0.0121772  0
-0.00598148 0.0124167  0
-0.00551606 0.0129331  0
-0.00676808 0.013237  0
-0.00574877 0.0126749  0
-0.00614207 0.013085  0
-0.00637478 0.0128268  0
-0.00378828 0.0118855  0
-0.0041533 0.0113056  0
-0.00321167 0.0110764  0
-0.00397079 0.0115956  0
-0.00368248 0.011191  0
-0.00349998 0.011481  0
-0.00378385 0.0118855  0
-0.00322473 0.0110767  0
-0.0034158 0.012503  0
-0.00350429 0.0114811  0
-0.00332026 0.0117899  0
-0.00359982 0.0121943  0
-0.00378373 0.0118854  0
-0.00439855 0.0126962  0
-0.00416658 0.011306  0
-0.00409114 0.0122908  0
-0.00428257 0.0120011  0
-0.00397516 0.0115957  0
-0.00378818 0.0118855  0
-0.00340244 0.0125028  0
-0.00438496 0.0126959  0
-0.00359531 0.0121942  0
-0.0038937 0.0125994  0
-0.00408657 0.0122907  0
-0.00289075 0.0116991  0
-0.00321747 0.0110725  0
-0.00240053 0.0108931  0
-0.00305411 0.0113858  0
-0.002809 0.0109828  0
-0.00264564 0.0112961  0
-0.00288656 0.0116991  0
-0.00341109 0.0125073  0
-0.00322957 0.0110725  0
-0.00314883 0.0121032  0
-0.00332033 0.0117899  0
-0.00305806 0.0113858  0
-0.00288682 0.0116992  0
-0.00241215 0.0108931  0
-0.00255819 0.0123597  0
-0.00264948 0.0112962  0
-0.00248517 0.0116264  0
-0.0027225 0.0120295  0
-0.00289062 0.0116991  0
-0.0025463 0.0123601  0
-0.00339871 0.0125077  0
-0.00271846 0.0120296  0
-0.00297251 0.0124339  0
-0.00314467 0.0121034  0
-0.00221571 0.0130662  0
-0.00266215 0.0138774  0
-0.00255741 0.0123606  0
-0.00243893 0.0134718  0
-0.00260978 0.013119  0
-0.00238656 0.0127134  0
-0.00221927 0.013066  0
-0.00254733 0.0123611  0
-0.00180088 0.0122576  0
-0.0023833 0.0127136  0
-0.0021741 0.0123093  0
-0.00201008 0.0126618  0
-0.00221909 0.0130661  0
-0.00188169 0.0137959  0
-0.00265192 0.0138784  0
-0.00205039 0.013431  0
-0.00226681 0.0138372  0
-0.00243551 0.0134723  0
-0.00221611 0.0130664  0
-0.0018103 0.0122573  0
-0.00189124 0.0137952  0
-0.00201321 0.0126619  0
-0.00185077 0.0130263  0
-0.00205368 0.0134308  0
-0.00303019 0.013174  0
-0.00255406 0.0123637  0
-0.00266523 0.0138742  0
-0.00279213 0.0127688  0
-0.00260964 0.0131189  0
-0.00284771 0.0135241  0
-0.00303425 0.0131737  0
-0.00340274 0.0125039  0
-0.00254223 0.012364  0
-0.00321849 0.0128388  0
-0.00297249 0.0124339  0
-0.00278824 0.0127688  0
-0.00303403 0.0131737  0
-0.00265308 0.0138751  0
-0.00354242 0.0139861  0
-0.00284355 0.0135244  0
-0.00309775 0.0139306  0
-0.00328822 0.0135799  0
-0.00302988 0.0131738  0
-0.00355523 0.013985  0
-0.00341519 0.0125034  0
-0.00329255 0.0135794  0
-0.00348521 0.0132442  0
-0.00322253 0.0128386  0
-0.00229943 0.0146126  0
-0.00265433 0.0138763  0
-0.00187912 0.0137982  0
-0.00247688 0.0142445  0
-0.00226672 0.0138373  0
-0.00208927 0.0142054  0
-0.00229645 0.014613  0
-0.00188804 0.0137982  0
-0.00195136 0.0153651  0
-0.00209225 0.0142056  0
-0.0019197 0.0145816  0
-0.0021239 0.0149891  0
-0.00229599 0.0146128  0
-0.00274346 0.0154307  0
-0.0026639 0.0138756  0
-0.00251973 0.0150217  0
-0.00270368 0.0146531  0
-0.00247994 0.0142442  0
-0.00229916 0.0146128  0
-0.00194248 0.0153656  0
-0.00273394 0.0154319  0
-0.00212082 0.0149892  0
-0.00233821 0.0153987  0
-0.00251655 0.0150223  0
-0.00156514 0.0145521  0
-0.00188351 0.0137968  0
-0.00120036 0.0137415  0
-0.00172433 0.0141745  0
-0.00154193 0.0137692  0
-0.00138275 0.0141468  0
-0.0015627 0.014552  0
-0.00194962 0.0153662  0
-0.00189018 0.0137971  0
-0.00175616 0.0149591  0
-0.0019199 0.0145816  0
-0.00172644 0.0141746  0
-0.00156316 0.0145522  0
-0.00120657 0.0137423  0
-0.00125018 0.0153176  0
-0.00138487 0.0141473  0
-0.00122838 0.01453  0
-0.00140667 0.0149349  0
-0.00156496 0.0145524  0
-0.00124408 0.015317  0
-0.00194307 0.0153662  0
-0.00140452 0.0149347  0
-0.00159357 0.0153416  0
-0.00175402 0.0149593  0
-0.0039763 0.0133177  0
-0.0035452 0.0139813  0
-0.00457481 0.0141298  0
-0.00376075 0.0136495  0
-0.00406 0.0140556  0
-0.00427555 0.0137238  0
-0.00397181 0.0133179  0
-0.00341104 0.0125074  0
-0.00355924 0.0139809  0
-0.00369142 0.0129127  0
-0.00348514 0.0132441  0
-0.00376552 0.0136494  0
-0.00397169 0.0133177  0
-0.00458924 0.0141295  0
-0.00440376 0.0126914  0
-0.00428047 0.0137236  0
-0.0044965 0.0134104  0
-0.00418773 0.0130046  0
-0.00397651 0.0133178  0
-0.00438988 0.0126914  0
-0.00339752 0.0125074  0
-0.0041832 0.0130046  0
-0.0038937 0.0125994  0
-0.00368702 0.0129126  0
-0.00314166 0.0146934  0
-0.00354543 0.0139829  0
-0.00264993 0.0138784  0
-0.00334355 0.0143381  0
-0.00309768 0.0139306  0
-0.00289579 0.0142859  0
-0.00313721 0.0146937  0
-0.00366167 0.0155119  0
-0.00355792 0.0139814  0
-0.00339944 0.0151028  0
-0.0036098 0.0147467  0
-0.00334756 0.0143376  0
-0.00313763 0.0146941  0
-0.00266159 0.0138776  0
-0.00274543 0.0154287  0
-0.00289961 0.0142858  0
-0.00270351 0.0146531  0
-0.00294153 0.0150614  0
-0.0031413 0.0146934  0
-0.00273355 0.0154302  0
-0.00364892 0.0155141  0
-0.00293742 0.0150618  0
-0.00319124 0.0154722  0
-0.00339511 0.0151038  0
-0.00412016 0.0147996  0
-0.00457906 0.0141255  0
-0.00354089 0.0139856  0
-0.00434961 0.0144625  0
-0.00405998 0.0140555  0
-0.00383053 0.0143926  0
-0.00411516 0.0148002  0
-0.00355488 0.0139846  0
-0.00366453 0.0155086  0
-0.00383502 0.0143924  0
-0.0036097 0.0147466  0
-0.00388984 0.0151544  0
-0.00411493 0.0147998  0
-0.00473352 0.0156169  0
-0.00459379 0.0141242  0
-0.00442423 0.0152083  0
-0.00466366 0.0148705  0
-0.00435436 0.014462  0
-0.00411975 0.0147994  0
-0.00364983 0.0155104  0
-0.00471799 0.015619  0
-0.00388479 0.0151549  0
-0.00418391 0.0155647  0
-0.00441887 0.0152092  0
-0.00505468 0.0135087  0
-0.00439848 0.012696  0
-0.00459457 0.0141247  0
-0.00472658 0.0131023  0
-0.00449653 0.0134103  0
-0.00482463 0.0138167  0
-0.0050595 0.0135089  0
-0.00551548 0.0129328  0
-0.0043846 0.0126954  0
-0.00528749 0.0132208  0
-0.00495004 0.0128141  0
-0.00472205 0.0131021  0
-0.00505939 0.0135088  0
-0.00458027 0.0141241  0
-0.00575747 0.0143241  0
-0.00481983 0.0138164  0
-0.00516887 0.0142241  0
-0.00540843 0.0139164  0
-0.00505485 0.0135086  0
-0.0057716 0.0143249  0
-0.00552922 0.0129335  0
-0.00541323 0.0139167  0
-0.00565041 0.0136292  0
-0.00529204 0.013221  0
-0.00161266 0.0161295  0
-0.00124736 0.0153198  0
-0.00129135 0.0168917  0
-0.00143001 0.0157246  0
-0.00126935 0.0161058  0
-0.001452 0.0165106  0
-0.00161423 0.0161298  0
-0.00194472 0.0153663  0
-0.00124219 0.0153173  0
-0.00177948 0.0157481  0
-0.00159346 0.0153418  0
-0.00142821 0.0157236  0
-0.00161401 0.0161303  0
-0.00128648 0.016889  0
-0.00200273 0.0169441  0
-0.00145025 0.0165097  0
-0.00164461 0.0169166  0
-0.00180837 0.0165372  0
-0.00161221 0.0161292  0
-0.00200769 0.0169459  0
-0.00195002 0.0153679  0
-0.00180995 0.0165376  0
-0.00197886 0.0161569  0
-0.00178112 0.0157486  0
-0.000937512 0.0160877  0
-0.00128973 0.016891  0
-0.00124947 0.0153205  0
-0.00111362 0.0164894  0
-0.0012696 0.0161057  0
-0.00109349 0.0157041  0
-0.000938757 0.0160887  0
-0.00124645 0.0153174  0
-0.000604756 0.0152869  0
-0.0010926 0.0157031  0
-0.000925603 0.0153021  0
-0.000771756 0.0156878  0
-0.000938635 0.0160892  0
-0.000628982 0.0168524  0
-0.00128693 0.0168876  0
-0.000783809 0.0164708  0
-0.000957957 0.01687  0
-0.00111278 0.0164884  0
-0.000937935 0.0160879  0
-0.000607785 0.0152904  0
-0.000631824 0.0168563  0
-0.00077286 0.0156891  0
-0.000619804 0.0160734  0
-0.00078488 0.0164721  0
-0.00236216 0.0161874  0
-0.0028147 0.0170155  0
-0.0027434 0.0154311  0
-0.00258843 0.0166015  0
-0.00277905 0.0162233  0
-0.00255278 0.0158093  0
-0.0023651 0.0161875  0
-0.0027354 0.0154314  0
-0.0019407 0.0153664  0
-0.00255025 0.0158095  0
-0.00233805 0.0153989  0
-0.0021529 0.0157769  0
-0.00236476 0.0161878  0
-0.00200171 0.016946  0
-0.0028071 0.017016  0
-0.00218323 0.0165669  0
-0.0024044 0.016981  0
-0.00258593 0.0166019  0
-0.00236265 0.0161878  0
-0.0019483 0.0153672  0
-0.00200894 0.0169467  0
-0.00215547 0.0157775  0
-0.00197862 0.016157  0
-0.00218579 0.0165673  0
-0.00322013 0.016259  0
-0.00274205 0.0154308  0
-0.00281561 0.0170159  0
-0.00298109 0.0158449  0
-0.00277883 0.0162234  0
-0.00301787 0.0166375  0
-0.00322371 0.016258  0
-0.00365057 0.0155126  0
-0.00273155 0.015432  0
-0.00343714 0.0158853  0
-0.00319106 0.0154723  0
-0.00297763 0.015845  0
-0.00322319 0.0162581  0
-0.00280536 0.0170177  0
-0.00373363 0.0170969  0
-0.00301427 0.0166379  0
-0.00326949 0.0170573  0
-0.00347841 0.0166775  0
-0.00321958 0.0162585  0
-0.00374476 0.0170936  0
-0.00366194 0.01551  0
-0.00348217 0.0166761  0
-0.00370335 0.0163018  0
-0.00344076 0.0158842  0
-0.00167123 0.0176954  0
-0.00200443 0.0169461  0
-0.00128448 0.0168876  0
-0.00183783 0.0173208  0
-0.00164445 0.0169169  0
-0.00147785 0.0172915  0
-0.00166988 0.0176938  0
-0.00208476 0.0185071  0
-0.00200761 0.0169508  0
-0.00187732 0.0181004  0
-0.00204618 0.017729  0
-0.00183874 0.0173223  0
-0.00167027 0.017694  0
-0.00128806 0.0168933  0
-0.00134743 0.0184272  0
-0.00147916 0.0172936  0
-0.00131774 0.0176602  0
-0.00150885 0.0180606  0
-0.00167101 0.0176961  0
-0.0013443 0.0184206  0
-0.00208207 0.0185016  0
-0.00150765 0.0180584  0
-0.00171319 0.0184611  0
-0.00187654 0.0180989  0
-0.00243744 0.0177724  0
-0.00280811 0.0170183  0
-0.00200022 0.0169442  0
-0.00262277 0.0173954  0
-0.00240417 0.0169813  0
-0.00221883 0.0173583  0
-0.00243588 0.0177719  0
-0.00200548 0.0169476  0
-0.00208632 0.0185105  0
-0.00222068 0.0173598  0
-0.0020459 0.017729  0
-0.0022611 0.0181412  0
-0.00243543 0.0177716  0
-0.0029055 0.0186125  0
-0.00281315 0.0170202  0
-0.00267047 0.018192  0
-0.00285932 0.0178164  0
-0.00262429 0.0173959  0
-0.00243707 0.0177731  0
-0.00208173 0.0185064  0
-0.0029012 0.0186101  0
-0.0022594 0.0181397  0
-0.00249147 0.0185582  0
-0.00266914 0.0181916  0
-0.000975136 0.0176397  0
-0.00128912 0.016889  0
-0.000626613 0.0168516  0
-0.00113213 0.0172644  0
-0.000957867 0.0168703  0
-0.000800874 0.0172457  0
-0.000974658 0.0176377  0
-0.00062879 0.0168587  0
-0.000661345 0.0183742  0
-0.000801724 0.0172482  0
-0.000645068 0.0176164  0
-0.000818001 0.0180059  0
-0.000974286 0.0176376  0
-0.00134521 0.0184248  0
-0.00129082 0.0168955  0
-0.00115975 0.0180312  0
-0.00131802 0.0176602  0
-0.00113255 0.0172666  0
-0.000975009 0.0176404  0
-0.000659419 0.0183662  0
-0.0013438 0.0184174  0
-0.000817214 0.0180033  0
-0.00100161 0.0183918  0
-0.00115941 0.0180289  0
-0.00032047 0.0176106  0
-0.000631551 0.0168524  0
2.5196e-06 0.0168395  0
-0.000476011 0.0172315  0
-0.000314516 0.0168459  0
-0.000158975 0.0172251  0
-0.000320071 0.0176083  0
-0.000658745 0.018373  0
-0.000631932 0.0168599  0
-0.000489408 0.0179906  0
-0.000645338 0.0176164  0
-0.000476002 0.0172341  0
-0.000320436 0.0176083  0
1.63262e-06 0.0168472  0
-1.36274e-06 0.0183556  0
-0.000159401 0.0172278  0
1.34942e-07 0.0176014  0
-0.000160899 0.017982  0
-0.000320429 0.0176114  0
-5.44426e-07 0.0183471  0
-0.000658474 0.0183646  0
-0.000160487 0.0179792  0
-0.000329509 0.0183558  0
-0.000489451 0.017988  0
-0.00627753 0.0137572  0
-0.00708775 0.0145826  0
-0.00678595 0.0132331  0
-0.00668264 0.0141699  0
-0.00693685 0.0139079  0
-0.00653174 0.0134952  0
-0.0062814 0.0137574  0
-0.00677367 0.0132327  0
-0.00551041 0.0129373  0
-0.00652753 0.0134951  0
-0.00614204 0.013085  0
-0.00589591 0.0133474  0
-0.00628149 0.0137574  0
-0.0057655 0.0143193  0
-0.00707602 0.0145818  0
-0.00602349 0.0140384  0
-0.00642076 0.0144505  0
-0.00667875 0.0141696  0
-0.00627717 0.0137571  0
-0.00552316 0.0129379  0
-0.00577788 0.0143204  0
-0.00590017 0.0133475  0
-0.00565052 0.0136292  0
-0.00602752 0.0140388  0
-0.00654022 0.0151482  0
-0.00708242 0.0145777  0
-0.00575903 0.0143231  0
-0.00681132 0.0148629  0
-0.00642073 0.0144504  0
-0.00614962 0.0147356  0
-0.00653596 0.0151478  0
-0.00577123 0.0143236  0
-0.00598164 0.0157605  0
-0.0061536 0.0147357  0
-0.00587644 0.0150421  0
-0.0062588 0.0154542  0
-0.00653686 0.0151478  0
-0.00736066 0.0159843  0
-0.0070935 0.0145779  0
-0.00694876 0.0155661  0
-0.00722708 0.0152811  0
-0.00681518 0.0148629  0
-0.00654027 0.015148  0
-0.00596955 0.0157592  0
-0.00735005 0.0159831  0
-0.00625491 0.0154536  0
-0.0066598 0.0158711  0
-0.00694516 0.0155655  0
-0.00525428 0.0149443  0
-0.00576336 0.0143192  0
-0.00457441 0.0141288  0
-0.00550882 0.0146318  0
-0.00516889 0.014224  0
-0.00491435 0.0145365  0
-0.00524921 0.0149441  0
-0.00597436 0.0157652  0
-0.00577799 0.0143191  0
-0.00561178 0.0153546  0
-0.00587617 0.0150422  0
-0.0055136 0.0146316  0
-0.00524892 0.0149445  0
-0.00458907 0.0141284  0
-0.00473835 0.0156123  0
-0.00491899 0.0145365  0
-0.00466371 0.0148704  0
-0.00499364 0.0152784  0
-0.00525396 0.014944  0
-0.00472268 0.0156128  0
-0.00595869 0.0157654  0
-0.00498832 0.0152784  0
-0.00534069 0.0156891  0
-0.00560633 0.0153547  0
-0.00421901 0.016341  0
-0.00483698 0.0171773  0
-0.00473601 0.0156114  0
-0.00452799 0.0167591  0
-0.00478649 0.0163943  0
-0.00447751 0.0159762  0
-0.0042246 0.0163401  0
-0.00472083 0.0156156  0
-0.00364675 0.0155138  0
-0.00447271 0.0159778  0
-0.00418379 0.0155647  0
-0.00393568 0.015927  0
-0.00422381 0.0163397  0
-0.00373151 0.0170968  0
-0.00482117 0.0171829  0
-0.00397766 0.0167183  0
-0.00427634 0.0171399  0
-0.00452249 0.0167613  0
-0.00421958 0.0163417  0
-0.00366055 0.0155109  0
-0.0037458 0.0170926  0
-0.00394007 0.0159263  0
-0.00370318 0.0163018  0
-0.00398269 0.0167172  0
-0.00539468 0.0164447  0
-0.00473299 0.0156144  0
-0.00484003 0.0171738  0
-0.00506384 0.0160295  0
-0.00478651 0.0163941  0
-0.00511736 0.0168092  0
-0.00540099 0.0164435  0
-0.00596439 0.0157604  0
-0.00471701 0.0156174  0
-0.00568269 0.0161019  0
-0.0053407 0.0156889  0
-0.005059 0.0160304  0
-0.00540016 0.0164427  0
-0.00482205 0.0171782  0
-0.00611029 0.0172859  0
-0.00511111 0.0168104  0
-0.00546617 0.017232  0
-0.00575522 0.0168643  0
-0.00539479 0.0164438  0
-0.00612946 0.0172817  0
-0.00598123 0.0157575  0
-0.00576213 0.0168628  0
-0.00605535 0.0165196  0
-0.00568801 0.0161007  0
-0.00431011 0.0179557  0
-0.00482148 0.0171829  0
-0.00373042 0.017097  0
-0.0045658 0.0175693  0
-0.00427595 0.0171399  0
-0.00402026 0.0175263  0
-0.00430622 0.0179584  0
-0.00374166 0.0170928  0
-0.00383854 0.0187339  0
-0.00402394 0.0175256  0
-0.0037901 0.0179133  0
-0.00407238 0.0183461  0
-0.00430535 0.0179574  0
-0.0049266 0.0188427  0
-0.00483422 0.0171752  0
-0.00461598 0.0184  0
-0.00488041 0.018009  0
-0.00456978 0.0175663  0
-0.00430906 0.0179558  0
-0.00382826 0.018739  0
-0.00491491 0.0188516  0
-0.00406866 0.0183474  0
-0.00437159 0.0187953  0
-0.00461199 0.0184037  0
-0.00330481 0.0178627  0
-0.00373393 0.0170988  0
-0.00280439 0.0170162  0
-0.00351937 0.0174808  0
-0.00326916 0.0170575  0
-0.0030546 0.0174395  0
-0.00330184 0.017863  0
-0.00383911 0.0187298  0
-0.00374172 0.0170966  0
-0.00357048 0.0182964  0
-0.00379042 0.0179132  0
-0.00352178 0.0174798  0
-0.00330241 0.0178636  0
-0.00281195 0.0170163  0
-0.0029061 0.0186166  0
-0.00305718 0.01744  0
-0.00285903 0.0178165  0
-0.00310426 0.0182401  0
-0.00330422 0.0178633  0
-0.00289946 0.0186163  0
-0.00383232 0.0187319  0
-0.00310184 0.0182398  0
-0.00336589 0.0186741  0
-0.00356827 0.0182976  0
-0.00675718 0.0166006  0
-0.00760897 0.0174629  0
-0.00736864 0.0159784  0
-0.00718308 0.0170317  0
-0.00748881 0.0167206  0
-0.00706291 0.0162895  0
-0.00676024 0.0166011  0
-0.00735832 0.0159789  0
-0.00596128 0.0157626  0
-0.00705928 0.01629  0
-0.0066598 0.0158707  0
-0.00636076 0.0161818  0
-0.00676004 0.0166004  0
-0.00612422 0.0172757  0
-0.00759819 0.0174616  0
-0.00644213 0.0169381  0
-0.00686121 0.0173687  0
-0.00717911 0.017031  0
-0.00675519 0.0166008  0
-0.00597376 0.0157619  0
-0.00613789 0.0172766  0
-0.00636448 0.0161813  0
-0.00605583 0.0165192  0
-0.00644654 0.0169387  0
-0.0055026 0.0180424  0
-0.00611366 0.0172815  0
-0.00481828 0.0171819  0
-0.00580813 0.017662  0
-0.00546597 0.0172317  0
-0.00516044 0.0176122  0
-0.00549425 0.0180443  0
-0.00623575 0.0189361  0
-0.0061335 0.01727  0
-0.005865 0.0184902  0
-0.00618462 0.018103  0
-0.00581387 0.0176571  0
-0.00549574 0.0180467  0
-0.00483492 0.0171735  0
-0.00492539 0.0188443  0
-0.00516533 0.0176101  0
-0.00488016 0.0180089  0
-0.00521057 0.0184455  0
-0.0055002 0.0180407  0
-0.00490686 0.018856  0
-0.00621332 0.0189516  0
-0.00520353 0.0184483  0
-0.00556009 0.0189038  0
-0.00585676 0.0184962  0
-0.00693993 0.0181516  0
-0.00760995 0.0174563  0
-0.00611272 0.0172791  0
-0.00727494 0.0178039  0
-0.00686133 0.0173677  0
-0.00652632 0.0177154  0
-0.00693128 0.0181526  0
-0.00612842 0.0172727  0
-0.00624174 0.0189314  0
-0.00652985 0.0177126  0
-0.00618508 0.0181021  0
-0.00658651 0.018542  0
-0.00693544 0.0181514  0
-0.00784201 0.0190717  0
-0.00762275 0.0174523  0
-0.00738872 0.0186115  0
-0.00773238 0.018262  0
-0.00727909 0.0178018  0
-0.00693865 0.0181492  0
-0.00621899 0.0189374  0
-0.00782359 0.0190733  0
-0.00657882 0.0185433  0
-0.00702129 0.0190054  0
-0.00738112 0.0186113  0
-0.00702951 0.0199097  0
-0.00806782 0.0210236  0
-0.00787607 0.0190235  0
-0.00754866 0.0204667  0
-0.00797194 0.0200236  0
-0.00745279 0.0194666  0
-0.00705509 0.0199099  0
-0.00783776 0.0190614  0
-0.00620457 0.0189443  0
-0.00744642 0.0194857  0
-0.00702117 0.0190029  0
-0.00662983 0.0194271  0
-0.00703616 0.0199027  0
-0.00630778 0.0209017  0
-0.00799526 0.0210962  0
-0.00667197 0.0204022  0
-0.00715152 0.020999  0
-0.00751571 0.0204995  0
-0.00703571 0.0199286  0
-0.00622733 0.0189226  0
-0.0063458 0.0208639  0
-0.00663152 0.0194256  0
-0.00628657 0.0198932  0
-0.00669076 0.0203962  0
-0.00560042 0.0198108  0
-0.00507732 0.0206397  0
-0.0063522 0.0208643  0
-0.00533887 0.0202252  0
-0.00571476 0.020752  0
-0.00597631 0.0203375  0
-0.00559758 0.0198125  0
-0.00635679 0.0208486  0
-0.00622048 0.0189378  0
-0.00597718 0.0203306  0
-0.00628863 0.0198932  0
-0.00590903 0.0193752  0
-0.00559967 0.0198143  0
-0.00491761 0.018842  0
-0.00508361 0.0206324  0
-0.00525864 0.0193282  0
-0.00500061 0.0197372  0
-0.00534164 0.0202234  0
-0.0056022 0.0198074  0
-0.00621024 0.0189566  0
-0.00490741 0.0188514  0
-0.00590622 0.019382  0
-0.00555883 0.018904  0
-0.0052548 0.0193294  0
-0.00442924 0.0196499  0
-0.00508624 0.0206184  0
-0.00491667 0.0188555  0
-0.00475774 0.0201341  0
-0.00500145 0.0197369  0
-0.00467296 0.0192527  0
-0.00443109 0.0196489  0
-0.00491319 0.0188598  0
-0.00382859 0.0187318  0
-0.00467214 0.0192544  0
-0.00437089 0.0187958  0
-0.00412984 0.0191904  0
-0.00443029 0.0196508  0
-0.00400165 0.0203962  0
-0.00508467 0.0206202  0
-0.00421597 0.0200235  0
-0.00454316 0.0205082  0
-0.00475748 0.0201355  0
-0.00442991 0.0196507  0
-0.00383342 0.0187314  0
-0.00400484 0.0203979  0
-0.00413166 0.0191911  0
-0.00391913 0.0195646  0
-0.00421737 0.0200243  0
-0.00342736 0.0194843  0
-0.00305609 0.0201786  0
-0.00400367 0.0203824  0
-0.00324172 0.0198314  0
-0.00352988 0.0202805  0
-0.00371551 0.0199334  0
-0.00342667 0.0194818  0
-0.00400456 0.020387  0
-0.00383466 0.0187419  0
-0.00371561 0.0199344  0
-0.00391961 0.0195645  0
-0.00363066 0.0191119  0
-0.0034271 0.0194823  0
-0.00290156 0.0186148  0
-0.00305828 0.0201853  0
-0.00316433 0.0190486  0
-0.00297992 0.0194001  0
-0.00324269 0.0198338  0
-0.00342782 0.019483  0
-0.00383263 0.0187392  0
-0.00289834 0.0186099  0
-0.00363022 0.0191111  0
-0.00336548 0.0186745  0
-0.00316308 0.0190464  0
-0.00254605 0.019329  0
-0.00305632 0.020177  0
-0.00290423 0.0186229  0
-0.00280119 0.019753  0
-0.00298028 0.0193999  0
-0.00272514 0.018976  0
-0.00254688 0.0193315  0
-0.00290293 0.0186159  0
-0.00207948 0.0185014  0
-0.00272491 0.0189737  0
-0.00249121 0.0185586  0
-0.00231318 0.0189164  0
-0.00254657 0.0193326  0
-0.00220905 0.0199975  0
-0.00305578 0.0201684  0
-0.00237781 0.019665  0
-0.00263242 0.0200829  0
-0.00280117 0.0197505  0
-0.00254641 0.0193294  0
-0.00208183 0.0185099  0
-0.00221071 0.0200075  0
-0.00231412 0.0189196  0
-0.00214627 0.0192587  0
-0.00237856 0.0196685  0
-0.00175615 0.0192089  0
-0.00143391 0.0198616  0
-0.00220745 0.0199901  0
-0.00159503 0.0195353  0
-0.00182068 0.0199258  0
-0.0019818 0.0195995  0
-0.00175575 0.0192046  0
-0.00220768 0.0200015  0
-0.0020855 0.0185158  0
-0.00198172 0.019603  0
-0.00214659 0.0192586  0
-0.00192063 0.0188602  0
-0.00175608 0.0192048  0
-0.001343 0.018428  0
-0.00143518 0.0198739  0
-0.00154954 0.0188164  0
-0.00138909 0.019151  0
-0.00159563 0.0195394  0
-0.00175635 0.0192079  0
-0.00208477 0.0185059  0
-0.00134127 0.0184171  0
-0.00192056 0.0188569  0
-0.00171302 0.0184615  0
-0.00154881 0.0188125  0
-0.00102847 0.0191171  0
-0.00143144 0.0198699  0
-0.00134734 0.0184319  0
-0.00122996 0.0194935  0
-0.00138939 0.0191509  0
-0.00118791 0.0187745  0
-0.00102888 0.019121  0
-0.00134711 0.0184202  0
-0.000655921 0.0183642  0
-0.001188 0.0187706  0
-0.00100152 0.0183922  0
-0.000842403 0.0187426  0
-0.00102877 0.0191219  0
-0.000705993 0.0197771  0
-0.00143151 0.0198568  0
-0.000867379 0.0194495  0
-0.00106875 0.0198169  0
-0.00123014 0.0194893  0
-0.00102879 0.0191173  0
-0.00065713 0.0183765  0
-0.000706947 0.0197909  0
-0.000842958 0.0187469  0
-0.000682038 0.0190837  0
-0.000867867 0.0194541  0
-0.000338785 0.0190771  0
-1.48648e-06 0.0197477  0
-0.000703161 0.0197747  0
-0.000170136 0.0194124  0
-0.000352324 0.0197612  0
-0.000520973 0.0194259  0
-0.000338586 0.0190721  0
-0.0007028 0.0197889  0
-0.000661859 0.0183785  0
-0.000520693 0.0194305  0
-0.00068233 0.0190837  0
-0.000500222 0.0187253  0
-0.000338895 0.0190722  0
2.42841e-06 0.0183595  0
-2.13909e-06 0.0197621  0
-0.000168233 0.0187159  0
1.4466e-07 0.0190608  0
-0.000170517 0.0194171  0
-0.000338824 0.0190762  0
-0.000662107 0.0183657  0
3.15129e-06 0.0183466  0
-0.000500466 0.0187209  0
-0.000329478 0.0183562  0
-0.000167836 0.0187114  0
0.000338895 0.0190722  0
2.13909e-06 0.0197621  0
-2.42841e-06 0.0183595  0
0.000170517 0.0194171  0
-1.4466e-07 0.0190608  0
0.000168233 0.0187159  0
0.000338824 0.0190762  0
-3.15129e-06 0.0183466  0
0.000662107 0.0183657  0
0.000167836 0.0187114  0
0.000329478 0.0183562  0
0.000500466 0.0187209  0
0.000338785 0.0190771  0
0.000703161 0.0197747  0
1.48648e-06 0.0197477  0
0.000520973 0.0194259  0
0.000352324 0.0197612  0
0.000170136 0.0194124  0
0.000338586 0.0190721  0
0.000661859 0.0183785  0
0.0007028 0.0197889  0
0.000500222 0.0187253  0
0.00068233 0.0190837  0
0.000520693 0.0194305  0
0.00102877 0.0191219  0
0.00143151 0.0198568  0
0.000705993 0.0197771  0
0.00123014 0.0194893  0
0.00106875 0.0198169  0
0.000867379 0.0194495  0
0.00102879 0.0191173  0
0.000706947 0.0197909  0
0.00065713 0.0183765  0
0.000867867 0.0194541  0
0.000682038 0.0190837  0
0.000842958 0.0187469  0
0.00102847 0.0191171  0
0.00134734 0.0184319  0
0.00143144 0.0198699  0
0.00118791 0.0187745  0
0.00138939 0.0191509  0
0.00122996 0.0194935  0
0.00102888 0.019121  0
0.000655921 0.0183642  0
0.00134711 0.0184202  0
0.000842403 0.0187426  0
0.00100152 0.0183922  0
0.001188 0.0187706  0
0.00175608 0.0192048  0
0.00143518 0.0198739  0
0.001343 0.018428  0
0.00159563 0.0195394  0
0.00138909 0.019151  0
0.00154954 0.0188164  0
0.00175635 0.0192079  0
0.00134127 0.0184171  0
0.00208477 0.0185059  0
0.00154881 0.0188125  0
0.00171302 0.0184615  0
0.00192056 0.0188569  0
0.00175615 0.0192089  0
0.00220745 0.0199901  0
0.00143391 0.0198616  0
0.0019818 0.0195995  0
0.00182068 0.0199258  0
0.00159503 0.0195353  0
0.00175575 0.0192046  0
0.0020855 0.0185158  0
0.00220768 0.0200015  0
0.00192063 0.0188602  0
0.00214659 0.0192586  0
0.00198172 0.019603  0
0.00254657 0.0193326  0
0.00305578 0.0201684  0
0.00220905 0.0199975  0
0.00280117 0.0197505  0
0.00263242 0.0200829  0
0.00237781 0.019665  0
0.00254641 0.0193294  0
0.00221071 0.0200075  0
0.00208183 0.0185099  0
0.00237856 0.0196685  0
0.00214627 0.0192587  0
0.00231412 0.0189196  0
0.00254605 0.019329  0
0.00290423 0.0186229  0
0.00305632 0.020177  0
0.00272514 0.018976  0
0.00298028 0.0193999  0
0.00280119 0.019753  0
0.00254688 0.0193315  0
0.00207948 0.0185014  0
0.00290293 0.0186159  0
0.00231318 0.0189164  0
0.00249121 0.0185586  0
0.00272491 0.0189737  0
0.0034271 0.0194823  0
0.00305828 0.0201853  0
0.00290156 0.0186148  0
0.00324269 0.0198338  0
0.00297992 0.0194001  0
0.00316433 0.0190486  0
0.00342782 0.019483  0
0.00289834 0.0186099  0
0.00383263 0.0187392  0
0.00316308 0.0190464  0
0.00336548 0.0186745  0
0.00363022 0.0191111  0
0.00342736 0.0194843  0
0.00400367 0.0203824  0
0.00305609 0.0201786  0
0.00371551 0.0199334  0
0.00352988 0.0202805  0
0.00324172 0.0198314  0
0.00342667 0.0194818  0
0.00383466 0.0187419  0
0.00400456 0.020387  0
0.00363066 0.0191119  0
0.00391961 0.0195645  0
0.00371561 0.0199344  0
0.00443029 0.0196508  0
0.00508467 0.0206202  0
0.00400165 0.0203962  0
0.00475748 0.0201355  0
0.00454316 0.0205082  0
0.00421597 0.0200235  0
0.00442991 0.0196507  0
0.00400484 0.0203979  0
0.00383342 0.0187314  0
0.00421737 0.0200243  0
0.00391913 0.0195646  0
0.00413166 0.0191911  0
0.00442924 0.0196499  0
0.00491667 0.0188555  0
0.00508624 0.0206184  0
0.00467296 0.0192527  0
0.00500145 0.0197369  0
0.00475774 0.0201341  0
0.00443109 0.0196489  0
0.00382859 0.0187318  0
0.00491319 0.0188598  0
0.00412984 0.0191904  0
0.00437089 0.0187958  0
0.00467214 0.0192544  0
0.00559967 0.0198143  0
0.00508361 0.0206324  0
0.00491761 0.018842  0
0.00534164 0.0202234  0
0.00500061 0.0197372  0
0.00525864 0.0193282  0
0.0056022 0.0198074  0
0.00490741 0.0188514  0
0.00621024 0.0189566  0
0.0052548 0.0193294  0
0.00555883 0.018904  0
0.00590622 0.019382  0
0.00560042 0.0198108  0
0.0063522 0.0208643  0
0.00507732 0.0206397  0
0.00597631 0.0203375  0
0.00571476 0.020752  0
0.00533887 0.0202252  0
0.00559758 0.0198125  0
0.00622048 0.0189378  0
0.00635679 0.0208486  0
0.00590903 0.0193752  0
0.00628863 0.0198932  0
0.00597718 0.0203306  0
0.00702951 0.0199097  0
0.00787607 0.0190235  0
0.00806782 0.0210236  0
0.00745279 0.0194666  0
0.00797194 0.0200236  0
0.00754866 0.0204667  0
0.00705509 0.0199099  0
0.00620457 0.0189443  0
0.00783776 0.0190614  0
0.00662983 0.0194271  0
0.00702117 0.0190029  0
0.00744642 0.0194857  0
0.00703616 0.0199027  0
0.00799526 0.0210962  0
0.00630778 0.0209017  0
0.00751571 0.0204995  0
0.00715152 0.020999  0
0.00667197 0.0204022  0
0.00703571 0.0199286  0
0.0063458 0.0208639  0
0.00622733 0.0189226  0
0.00669076 0.0203962  0
0.00628657 0.0198932  0
0.00663152 0.0194256  0
SCALARS rotation float
LOOKUP_TABLE default
-0.0172477
-0.00776356
-0.0455012
-0.0125056
-0.0266324
-0.0313745
-0.0172477
-0.0149735
-0.00776356
-0.0161106
-0.0113685
-0.0125056
-0.0172477
-0.0455012
-0.0200169
-0.0313745
-0.032759
-0.0186323
-0.0172477
-0.0200169
-0.0149735
-0.0186323
-0.0174952
-0.0161106
-0.0116416
-0.00566483
-0.00776356
-0.00865321
-0.0067142
-0.00970257
-0.0116416
-0.00776356
-0.0149735
-0.00970257
-0.0113685
-0.0133076
-0.0116416
-0.00929424
-0.00566483
-0.0104679
-0.00747954
-0.00865321
-0.0116416
-0.0149735
-0.00929424
-0.0133076
-0.0121339
-0.0104679
-0.011976
-0.0114519
-0.00929424
-0.0117139
-0.0103731
-0.0106351
-0.011976
-0.00929424
-0.0149735
-0.0106351
-0.0121339
-0.0134747
-0.011976
-0.0139857
-0.0114519
-0.0129808
-0.0127188
-0.0117139
-0.011976
-0.0149735
-0.0139857
-0.0134747
-0.0144796
-0.0129808
-0.00935975
-0.00929424
-0.0114519
-0.009327
-0.0103731
-0.0104058
-0.00935975
-0.00696354
-0.00929424
-0.00816164
-0.00812889
-0.009327
-0.00935975
-0.0114519
-0.00926589
-0.0104058
-0.0103589
-0.00931282
-0.00935975
-0.00926589
-0.00696354
-0.00931282
-0.00811471
-0.00816164
-0.00672143
-0.00566483
-0.00929424
-0.00619313
-0.00747954
-0.00800783
-0.00672143
-0.00929424
-0.00696354
-0.00800783
-0.00812889
-0.00684248
-0.00672143
-0.00367094
-0.00566483
-0.00519618
-0.00466789
-0.00619313
-0.00672143
-0.00696354
-0.00367094
-0.00684248
-0.00531724
-0.00519618
-0.0157829
-0.0200169
-0.0157404
-0.0178999
-0.0178786
-0.0157616
-0.0157829
-0.0149735
-0.0200169
-0.0153782
-0.0174952
-0.0178999
-0.0157829
-0.0157404
-0.0139857
-0.0157616
-0.014863
-0.0148843
-0.0157829
-0.0139857
-0.0149735
-0.0148843
-0.0144796
-0.0153782
-0.0128029
-0.0114519
-0.0139857
-0.0121274
-0.0127188
-0.0133943
-0.0128029
-0.0139857
-0.0139492
-0.0133943
-0.0139675
-0.013376
-0.0128029
-0.0124379
-0.0114519
-0.0126204
-0.0119449
-0.0121274
-0.0128029
-0.0139492
-0.0124379
-0.013376
-0.0131936
-0.0126204
-0.0147214
-0.0139857
-0.0157404
-0.0143536
-0.014863
-0.0152309
-0.0147214
-0.0139492
-0.0139857
-0.0143353
-0.0139675
-0.0143536
-0.0147214
-0.0157404
-0.0149419
-0.0152309
-0.0153411
-0.0148317
-0.0147214
-0.0149419
-0.0139492
-0.0148317
-0.0144455
-0.0143353
-0.00478314
-0.00254802
-0.00367094
-0.00366558
-0.00310948
-0.00422704
-0.00478314
-0.00367094
-0.00696354
-0.00422704
-0.00531724
-0.00587334
-0.00478314
-0.00544901
-0.00254802
-0.00511608
-0.00399852
-0.00366558
-0.00478314
-0.00696354
-0.00544901
-0.00587334
-0.00620627
-0.00511608
-0.00744466
-0.00783118
-0.00544901
-0.00763792
-0.0066401
-0.00644683
-0.00744466
-0.00544901
-0.00696354
-0.00644683
-0.00620627
-0.0072041
-0.00744466
-0.00926589
-0.00783118
-0.00835527
-0.00854854
-0.00763792
-0.00744466
-0.00696354
-0.00926589
-0.0072041
-0.00811471
-0.00835527
-0.00367131
-0.00254802
-0.00544901
-0.00310967
-0.00399852
-0.00456016
-0.00367131
-0.00544901
-0.00453595
-0.00456016
-0.00499248
-0.00410363
-0.00367131
-0.00186539
-0.00254802
-0.00276835
-0.00220671
-0.00310967
-0.00367131
-0.00453595
-0.00186539
-0.00410363
-0.00320067
-0.00276835
-0.00622552
-0.00544901
-0.00783118
-0.00583726
-0.0066401
-0.00702835
-0.00622552
-0.00453595
-0.00544901
-0.00538074
-0.00499248
-0.00583726
-0.00622552
-0.00783118
-0.00686291
-0.00702835
-0.00734705
-0.00654422
-0.00622552
-0.00686291
-0.00453595
-0.00654422
-0.00569943
-0.00538074
-0.0109275
-0.00926589
-0.0114519
-0.0100967
-0.0103589
-0.0111897
-0.0109275
-0.010952
-0.00926589
-0.0109397
-0.0101089
-0.0100967
-0.0109275
-0.0114519
-0.0124379
-0.0111897
-0.0119449
-0.0116827
-0.0109275
-0.0124379
-0.010952
-0.0116827
-0.0116949
-0.0109397
-0.00944507
-0.00783118
-0.00926589
-0.00863813
-0.00854854
-0.00935548
-0.00944507
-0.00926589
-0.010952
-0.00935548
-0.0101089
-0.0101985
-0.00944507
-0.00973553
-0.00783118
-0.0095903
-0.00878336
-0.00863813
-0.00944507
-0.010952
-0.00973553
-0.0101985
-0.0103438
-0.0095903
-0.011038
-0.0113106
-0.00973553
-0.0111743
-0.0105231
-0.0103868
-0.011038
-0.00973553
-0.010952
-0.0103868
-0.0103438
-0.010995
-0.011038
-0.0122787
-0.0113106
-0.0116584
-0.0117947
-0.0111743
-0.011038
-0.010952
-0.0122787
-0.010995
-0.0116154
-0.0116584
-0.0101055
-0.00973553
-0.0113106
-0.0099205
-0.0105231
-0.010708
-0.0101055
-0.0088499
-0.00973553
-0.00947769
-0.00929272
-0.0099205
-0.0101055
-0.0113106
-0.0105462
-0.010708
-0.0109284
-0.0103258
-0.0101055
-0.0105462
-0.0088499
-0.0103258
-0.00969806
-0.00947769
-0.00833865
-0.00783118
-0.00973553
-0.00808492
-0.00878336
-0.00903709
-0.00833865
-0.00973553
-0.0088499
-0.00903709
-0.00929272
-0.00859428
-0.00833865
-0.00686291
-0.00783118
-0.00760078
-0.00734705
-0.00808492
-0.00833865
-0.0088499
-0.00686291
-0.00859428
-0.00785641
-0.00760078
-0.0122043
-0.0133739
-0.0122787
-0.0127891
-0.0128263
-0.0122415
-0.0122043
-0.0122787
-0.010952
-0.0122415
-0.0116154
-0.0115782
-0.0122043
-0.0124379
-0.0133739
-0.0123211
-0.0129059
-0.0127891
-0.0122043
-0.010952
-0.0124379
-0.0115782
-0.0116949
-0.0123211
-0.0124036
-0.0113106
-0.0122787
-0.0118571
-0.0117947
-0.0123412
-0.0124036
-0.0122787
-0.0134606
-0.0123412
-0.0128696
-0.0129321
-0.0124036
-0.0126664
-0.0113106
-0.012535
-0.0119885
-0.0118571
-0.0124036
-0.0134606
-0.0126664
-0.0129321
-0.0130635
-0.012535
-0.0133327
-0.0122787
-0.0133739
-0.0128057
-0.0128263
-0.0133533
-0.0133327
-0.0134606
-0.0122787
-0.0133966
-0.0128696
-0.0128057
-0.0133327
-0.0133739
-0.0143319
-0.0133533
-0.0138529
-0.0138323
-0.0133327
-0.0143319
-0.0134606
-0.0138323
-0.0138962
-0.0133966
-0.0135082
-0.0133739
-0.0124379
-0.0134411
-0.0129059
-0.0129731
-0.0135082
-0.0124379
-0.0139492
-0.0129731
-0.0131936
-0.0137287
-0.0135082
-0.0144224
-0.0133739
-0.0139653
-0.0138981
-0.0134411
-0.0135082
-0.0139492
-0.0144224
-0.0137287
-0.0141858
-0.0139653
-0.00757917
-0.00625001
-0.00686291
-0.00691459
-0.00655646
-0.00722104
-0.00757917
-0.00686291
-0.0088499
-0.00722104
-0.00785641
-0.00821454
-0.00757917
-0.00825371
-0.00625001
-0.00791644
-0.00725186
-0.00691459
-0.00757917
-0.0088499
-0.00825371
-0.00821454
-0.00855181
-0.00791644
-0.00544993
-0.00686291
-0.00625001
-0.00615642
-0.00655646
-0.00584997
-0.00544993
-0.00453595
-0.00686291
-0.00499294
-0.00569943
-0.00615642
-0.00544993
-0.00625001
-0.00398097
-0.00584997
-0.00511549
-0.00471545
-0.00544993
-0.00398097
-0.00453595
-0.00471545
-0.00425846
-0.00499294
-0.00942128
-0.0105462
-0.0100065
-0.00998375
-0.0102763
-0.00971389
-0.00942128
-0.0088499
-0.0105462
-0.00913559
-0.00969806
-0.00998375
-0.00942128
-0.0100065
-0.00825371
-0.00971389
-0.0091301
-0.0088375
-0.00942128
-0.00825371
-0.0088499
-0.0088375
-0.00855181
-0.00913559
-0.0116204
-0.0105462
-0.0113106
-0.0110833
-0.0109284
-0.0114655
-0.0116204
-0.0120147
-0.0105462
-0.0118176
-0.0112805
-0.0110833
-0.0116204
-0.0113106
-0.0126664
-0.0114655
-0.0119885
-0.0121434
-0.0116204
-0.0126664
-0.0120147
-0.0121434
-0.0123406
-0.0118176
-0.0110224
-0.0100065
-0.0105462
-0.0105145
-0.0102763
-0.0107843
-0.0110224
-0.0105462
-0.0120147
-0.0107843
-0.0112805
-0.0115186
-0.0110224
-0.0115383
-0.0100065
-0.0112803
-0.0107724
-0.0105145
-0.0110224
-0.0120147
-0.0115383
-0.0115186
-0.0117765
-0.0112803
-0.00710667
-0.00625001
-0.00825371
-0.00667834
-0.00725186
-0.00768019
-0.00710667
-0.00825371
-0.00791202
-0.00768019
-0.00808287
-0.00750935
-0.00710667
-0.00590974
-0.00625001
-0.0065082
-0.00607987
-0.00667834
-0.00710667
-0.00791202
-0.00590974
-0.00750935
-0.00691088
-0.0065082
-0.00897768
-0.00825371
-0.0100065
-0.00861569
-0.0091301
-0.00949208
-0.00897768
-0.00791202
-0.00825371
-0.00844485
-0.00808287
-0.00861569
-0.00897768
-0.0100065
-0.00968733
-0.00949208
-0.00984691
-0.0093325
-0.00897768
-0.00968733
-0.00791202
-0.0093325
-0.00879967
-0.00844485
-0.00300887
-0.00146724
-0.00186539
-0.00223805
-0.00166631
-0.00243713
-0.00300887
-0.00186539
-0.00453595
-0.00243713
-0.00320067
-0.00377241
-0.00300887
-0.00398097
-0.00146724
-0.00349492
-0.0027241
-0.00223805
-0.00300887
-0.00453595
-0.00398097
-0.00377241
-0.00425846
-0.00349492
-0.00499027
-0.00398097
-0.00625001
-0.00448562
-0.00511549
-0.00562014
-0.00499027
-0.0036824
-0.00398097
-0.00433633
-0.00383168
-0.00448562
-0.00499027
-0.00625001
-0.00590974
-0.00562014
-0.00607987
-0.00545
-0.00499027
-0.00590974
-0.0036824
-0.00545
-0.00479607
-0.00433633
-0.002631
-0.00146724
-0.00398097
-0.00204912
-0.0027241
-0.00330598
-0.002631
-0.00398097
-0.0036824
-0.00330598
-0.00383168
-0.0031567
-0.002631
-0.00125824
-0.00146724
-0.00194462
-0.00136274
-0.00204912
-0.002631
-0.0036824
-0.00125824
-0.0031567
-0.00247032
-0.00194462
-0.0146667
-0.0149419
-0.0152088
-0.0148043
-0.0150753
-0.0149378
-0.0146667
-0.0139492
-0.0149419
-0.014308
-0.0144455
-0.0148043
-0.0146667
-0.0152088
-0.0144224
-0.0149378
-0.0148156
-0.0145446
-0.0146667
-0.0144224
-0.0139492
-0.0145446
-0.0141858
-0.014308
-0.0152055
-0.0144224
-0.0152088
-0.0148139
-0.0148156
-0.0152071
-0.0152055
-0.0151848
-0.0144224
-0.0151952
-0.0148036
-0.0148139
-0.0152055
-0.0152088
-0.0159246
-0.0152071
-0.0155667
-0.015565
-0.0152055
-0.0159246
-0.0151848
-0.015565
-0.0155547
-0.0151952
-0.0143186
-0.0133739
-0.0144224
-0.0138462
-0.0138981
-0.0143705
-0.0143186
-0.0144224
-0.0151848
-0.0143705
-0.0148036
-0.0147517
-0.0143186
-0.0143319
-0.0133739
-0.0143252
-0.0138529
-0.0138462
-0.0143186
-0.0151848
-0.0143319
-0.0147517
-0.0147583
-0.0143252
-0.0143996
-0.0143319
-0.0153074
-0.0143657
-0.0148196
-0.0148535
-0.0143996
-0.0134606
-0.0143319
-0.0139301
-0.0138962
-0.0143657
-0.0143996
-0.0153074
-0.0145558
-0.0148535
-0.0149316
-0.0144777
-0.0143996
-0.0145558
-0.0134606
-0.0144777
-0.0140082
-0.0139301
-0.0152222
-0.0153074
-0.0143319
-0.0152648
-0.0148196
-0.014777
-0.0152222
-0.0143319
-0.0151848
-0.014777
-0.0147583
-0.0152035
-0.0152222
-0.0160742
-0.0153074
-0.0156482
-0.0156908
-0.0152648
-0.0152222
-0.0151848
-0.0160742
-0.0152035
-0.0156295
-0.0156482
-0.0136211
-0.0138727
-0.0126664
-0.0137469
-0.0132695
-0.0131438
-0.0136211
-0.0126664
-0.0134606
-0.0131438
-0.0130635
-0.0135408
-0.0136211
-0.0145558
-0.0138727
-0.0140885
-0.0142142
-0.0137469
-0.0136211
-0.0134606
-0.0145558
-0.0135408
-0.0140082
-0.0140885
-0.0129499
-0.0126664
-0.0138727
-0.0128081
-0.0132695
-0.0134113
-0.0129499
-0.0120147
-0.0126664
-0.0124823
-0.0123406
-0.0128081
-0.0129499
-0.0138727
-0.0133036
-0.0134113
-0.0135881
-0.0131267
-0.0129499
-0.0133036
-0.0120147
-0.0131267
-0.0126592
-0.0124823
-0.0154205
-0.0145558
-0.0153074
-0.0149882
-0.0149316
-0.0153639
-0.0154205
-0.0155805
-0.0145558
-0.0155005
-0.0150682
-0.0149882
-0.0154205
-0.0153074
-0.0162698
-0.0153639
-0.0157886
-0.0158452
-0.0154205
-0.0162698
-0.0155805
-0.0158452
-0.0159251
-0.0155005
-0.0147303
-0.0138727
-0.0145558
-0.0143015
-0.0142142
-0.014643
-0.0147303
-0.0145558
-0.0155805
-0.014643
-0.0150682
-0.0151554
-0.0147303
-0.0149611
-0.0138727
-0.0148457
-0.0144169
-0.0143015
-0.0147303
-0.0155805
-0.0149611
-0.0151554
-0.0152708
-0.0148457
-0.0160088
-0.0159246
-0.0168151
-0.0159667
-0.0163699
-0.016412
-0.0160088
-0.0151848
-0.0159246
-0.0155968
-0.0155547
-0.0159667
-0.0160088
-0.0168151
-0.0160742
-0.016412
-0.0164446
-0.0160415
-0.0160088
-0.0160742
-0.0151848
-0.0160415
-0.0156295
-0.0155968
-0.0161614
-0.0153074
-0.0160742
-0.0157344
-0.0156908
-0.0161178
-0.0161614
-0.0160742
-0.0169983
-0.0161178
-0.0165362
-0.0165798
-0.0161614
-0.0162698
-0.0153074
-0.0162156
-0.0157886
-0.0157344
-0.0161614
-0.0169983
-0.0162698
-0.0165798
-0.0166341
-0.0162156
-0.0169118
-0.0160742
-0.0168151
-0.016493
-0.0164446
-0.0168635
-0.0169118
-0.0169983
-0.0160742
-0.0169551
-0.0165362
-0.016493
-0.0169118
-0.0168151
-0.0177485
-0.0168635
-0.0172818
-0.0173301
-0.0169118
-0.0177485
-0.0169983
-0.0173301
-0.0173734
-0.0169551
-0.00245884
-0.00119322
-0.00125824
-0.00182603
-0.00122573
-0.00185854
-0.00245884
-0.00125824
-0.0036824
-0.00185854
-0.00247032
-0.00307062
-0.00245884
-0.00358803
-0.00119322
-0.00302344
-0.00239063
-0.00182603
-0.00245884
-0.0036824
-0.00358803
-0.00307062
-0.00363522
-0.00302344
-0.00477592
-0.0058007
-0.00358803
-0.00528831
-0.00469436
-0.00418198
-0.00477592
-0.00358803
-0.0036824
-0.00418198
-0.00363522
-0.00422916
-0.00477592
-0.00590974
-0.0058007
-0.00534283
-0.00585522
-0.00528831
-0.00477592
-0.0036824
-0.00590974
-0.00422916
-0.00479607
-0.00534283
-0.00245884
-0.00119322
-0.00358803
-0.00182603
-0.00239063
-0.00302344
-0.00245884
-0.00358803
-0.0036824
-0.00302344
-0.00363522
-0.00307062
-0.00245884
-0.00125824
-0.00119322
-0.00185854
-0.00122573
-0.00182603
-0.00245884
-0.0036824
-0.00125824
-0.00307062
-0.00247032
-0.00185854
-0.00477592
-0.00358803
-0.0058007
-0.00418198
-0.00469436
-0.00528831
-0.00477592
-0.0036824
-0.00358803
-0.00422916
-0.00363522
-0.00418198
-0.00477592
-0.0058007
-0.00590974
-0.00528831
-0.00585522
-0.00534283
-0.00477592
-0.00590974
-0.0036824
-0.00534283
-0.00479607
-0.00422916
-0.00688059
-0.0058007
-0.00590974
-0.00634064
-0.00585522
-0.00639516
-0.00688059
-0.00590974
-0.00791202
-0.00639516
-0.00691088
-0.00739631
-0.00688059
-0.00780078
-0.0058007
-0.00734069
-0.00680074
-0.00634064
-0.00688059
-0.00791202
-0.00780078
-0.00739631
-0.0078564
-0.00734069
-0.00876028
-0.00958193
-0.00780078
-0.0091711
-0.00869135
-0.00828053
-0.00876028
-0.00780078
-0.00791202
-0.00828053
-0.0078564
-0.00833615
-0.00876028
-0.00968733
-0.00958193
-0.0092238
-0.00963463
-0.0091711
-0.00876028
-0.00791202
-0.00968733
-0.00833615
-0.00879967
-0.0092238
-0.00876028
-0.00780078
-0.00958193
-0.00828053
-0.00869135
-0.0091711
-0.00876028
-0.00791202
-0.00780078
-0.00833615
-0.0078564
-0.00828053
-0.00876028
-0.00958193
-0.00968733
-0.0091711
-0.00963463
-0.0092238
-0.00876028
-0.00968733
-0.00791202
-0.0092238
-0.00879967
-0.00833615
-0.00688059
-0.0058007
-0.00780078
-0.00634064
-0.00680074
-0.00734069
-0.00688059
-0.00780078
-0.00791202
-0.00734069
-0.0078564
-0.00739631
-0.00688059
-0.00590974
-0.0058007
-0.00639516
-0.00585522
-0.00634064
-0.00688059
-0.00791202
-0.00590974
-0.00739631
-0.00691088
-0.00639516
-0.0104229
-0.00958193
-0.00968733
-0.0100024
-0.00963463
-0.0100551
-0.0104229
-0.00968733
-0.01125
-0.0100551
-0.0104687
-0.0108365
-0.0104229
-0.0111537
-0.00958193
-0.0107883
-0.0103678
-0.0100024
-0.0104229
-0.01125
-0.0111537
-0.0108365
-0.0112018
-0.0107883
-0.0106225
-0.00968733
-0.0100065
-0.0101549
-0.00984691
-0.0103145
-0.0106225
-0.01125
-0.00968733
-0.0109362
-0.0104687
-0.0101549
-0.0106225
-0.0100065
-0.0115383
-0.0103145
-0.0107724
-0.0110804
-0.0106225
-0.0115383
-0.01125
-0.0110804
-0.0113941
-0.0109362
-0.00499027
-0.00590974
-0.00625001
-0.00545
-0.00607987
-0.00562014
-0.00499027
-0.0036824
-0.00590974
-0.00433633
-0.00479607
-0.00545
-0.00499027
-0.00625001
-0.00398097
-0.00562014
-0.00511549
-0.00448562
-0.00499027
-0.00398097
-0.0036824
-0.00448562
-0.00383168
-0.00433633
-0.00710667
-0.00625001
-0.00590974
-0.00667834
-0.00607987
-0.0065082
-0.00710667
-0.00590974
-0.00791202
-0.0065082
-0.00691088
-0.00750935
-0.00710667
-0.00825371
-0.00625001
-0.00768019
-0.00725186
-0.00667834
-0.00710667
-0.00791202
-0.00825371
-0.00750935
-0.00808287
-0.00768019
-0.002631
-0.00146724
-0.00125824
-0.00204912
-0.00136274
-0.00194462
-0.002631
-0.00125824
-0.0036824
-0.00194462
-0.00247032
-0.0031567
-0.002631
-0.00398097
-0.00146724
-0.00330598
-0.0027241
-0.00204912
-0.002631
-0.0036824
-0.00398097
-0.0031567
-0.00383168
-0.00330598
-0.00544993
-0.00398097
-0.00625001
-0.00471545
-0.00511549
-0.00584997
-0.00544993
-0.00453595
-0.00398097
-0.00499294
-0.00425846
-0.00471545
-0.00544993
-0.00625001
-0.00686291
-0.00584997
-0.00655646
-0.00615642
-0.00544993
-0.00686291
-0.00453595
-0.00615642
-0.00569943
-0.00499294
-0.00300887
-0.00146724
-0.00398097
-0.00223805
-0.0027241
-0.00349492
-0.00300887
-0.00398097
-0.00453595
-0.00349492
-0.00425846
-0.00377241
-0.00300887
-0.00186539
-0.00146724
-0.00243713
-0.00166631
-0.00223805
-0.00300887
-0.00453595
-0.00186539
-0.00377241
-0.00320067
-0.00243713
-0.00897768
-0.00968733
-0.0100065
-0.0093325
-0.00984691
-0.00949208
-0.00897768
-0.00791202
-0.00968733
-0.00844485
-0.00879967
-0.0093325
-0.00897768
-0.0100065
-0.00825371
-0.00949208
-0.0091301
-0.00861569
-0.00897768
-0.00825371
-0.00791202
-0.00861569
-0.00808287
-0.00844485
-0.0104229
-0.00968733
-0.00958193
-0.0100551
-0.00963463
-0.0100024
-0.0104229
-0.01125
-0.00968733
-0.0108365
-0.0104687
-0.0100551
-0.0104229
-0.00958193
-0.0111537
-0.0100024
-0.0103678
-0.0107883
-0.0104229
-0.0111537
-0.01125
-0.0107883
-0.0112018
-0.0108365
-0.0106225
-0.0100065
-0.00968733
-0.0103145
-0.00984691
-0.0101549
-0.0106225
-0.00968733
-0.01125
-0.0101549
-0.0104687
-0.0109362
-0.0106225
-0.0115383
-0.0100065
-0.0110804
-0.0107724
-0.0103145
-0.0106225
-0.01125
-0.0115383
-0.0109362
-0.0113941
-0.0110804
-0.00757917
-0.00625001
-0.00825371
-0.00691459
-0.00725186
-0.00791644
-0.00757917
-0.00825371
-0.0088499
-0.00791644
-0.00855181
-0.00821454
-0.00757917
-0.00686291
-0.00625001
-0.00722104
-0.00655646
-0.00691459
-0.00757917
-0.0088499
-0.00686291
-0.00821454
-0.00785641
-0.00722104
-0.00942128
-0.00825371
-0.0100065
-0.0088375
-0.0091301
-0.00971389
-0.00942128
-0.0088499
-0.00825371
-0.00913559
-0.00855181
-0.0088375
-0.00942128
-0.0100065
-0.0105462
-0.00971389
-0.0102763
-0.00998375
-0.00942128
-0.0105462
-0.0088499
-0.00998375
-0.00969806
-0.00913559
-0.0124247
-0.0128801
-0.0115383
-0.0126524
-0.0122092
-0.0119815
-0.0124247
-0.0115383
-0.0120147
-0.0119815
-0.0117765
-0.0122197
-0.0124247
-0.0133036
-0.0128801
-0.0128642
-0.0130919
-0.0126524
-0.0124247
-0.0120147
-0.0133036
-0.0122197
-0.0126592
-0.0128642
-0.0120668
-0.0115383
-0.0128801
-0.0118025
-0.0122092
-0.0124734
-0.0120668
-0.01125
-0.0115383
-0.0116584
-0.0113941
-0.0118025
-0.0120668
-0.0128801
-0.0126202
-0.0124734
-0.0127501
-0.0123435
-0.0120668
-0.0126202
-0.01125
-0.0123435
-0.0119351
-0.0116584
-0.0136595
-0.0128801
-0.0133036
-0.0132698
-0.0130919
-0.0134816
-0.0136595
-0.0133036
-0.0144441
-0.0134816
-0.0138738
-0.0140518
-0.0136595
-0.0140564
-0.0128801
-0.0138579
-0.0134682
-0.0132698
-0.0136595
-0.0144441
-0.0140564
-0.0140518
-0.0142502
-0.0138579
-0.0141324
-0.0133036
-0.0138727
-0.013718
-0.0135881
-0.0140025
-0.0141324
-0.0144441
-0.0133036
-0.0142882
-0.0138738
-0.013718
-0.0141324
-0.0138727
-0.0149611
-0.0140025
-0.0144169
-0.0145467
-0.0141324
-0.0149611
-0.0144441
-0.0145467
-0.0147026
-0.0142882
-0.0118859
-0.0125327
-0.0111537
-0.0122093
-0.0118432
-0.0115198
-0.0118859
-0.0111537
-0.01125
-0.0115198
-0.0112018
-0.0115679
-0.0118859
-0.0126202
-0.0125327
-0.012253
-0.0125764
-0.0122093
-0.0118859
-0.01125
-0.0126202
-0.0115679
-0.0119351
-0.012253
-0.0118859
-0.0111537
-0.0125327
-0.0115198
-0.0118432
-0.0122093
-0.0118859
-0.01125
-0.0111537
-0.0115679
-0.0112018
-0.0115198
-0.0118859
-0.0125327
-0.0126202
-0.0122093
-0.0125764
-0.012253
-0.0118859
-0.0126202
-0.01125
-0.012253
-0.0119351
-0.0115679
-0.0133336
-0.0126202
-0.0128801
-0.0129769
-0.0127501
-0.0131069
-0.0133336
-0.0138167
-0.0126202
-0.0135752
-0.0132184
-0.0129769
-0.0133336
-0.0128801
-0.0140564
-0.0131069
-0.0134682
-0.013695
-0.0133336
-0.0140564
-0.0138167
-0.013695
-0.0139365
-0.0135752
-0.0131677
-0.0125327
-0.0126202
-0.0128502
-0.0125764
-0.012894
-0.0131677
-0.0126202
-0.0138167
-0.012894
-0.0132184
-0.0134922
-0.0131677
-0.0137356
-0.0125327
-0.0134517
-0.0131342
-0.0128502
-0.0131677
-0.0138167
-0.0137356
-0.0134922
-0.0137761
-0.0134517
-0.0142834
-0.014775
-0.0137356
-0.0145292
-0.0142553
-0.0140095
-0.0142834
-0.0137356
-0.0138167
-0.0140095
-0.0137761
-0.01405
-0.0142834
-0.0148529
-0.014775
-0.0145682
-0.014814
-0.0145292
-0.0142834
-0.0138167
-0.0148529
-0.01405
-0.0143348
-0.0145682
-0.0142834
-0.0137356
-0.014775
-0.0140095
-0.0142553
-0.0145292
-0.0142834
-0.0138167
-0.0137356
-0.01405
-0.0137761
-0.0140095
-0.0142834
-0.014775
-0.0148529
-0.0145292
-0.014814
-0.0145682
-0.0142834
-0.0148529
-0.0138167
-0.0145682
-0.0143348
-0.01405
-0.0131677
-0.0125327
-0.0137356
-0.0128502
-0.0131342
-0.0134517
-0.0131677
-0.0137356
-0.0138167
-0.0134517
-0.0137761
-0.0134922
-0.0131677
-0.0126202
-0.0125327
-0.012894
-0.0125764
-0.0128502
-0.0131677
-0.0138167
-0.0126202
-0.0134922
-0.0132184
-0.012894
-0.0144402
-0.0150828
-0.0148529
-0.0147615
-0.0149679
-0.0146465
-0.0144402
-0.0148529
-0.0138167
-0.0146465
-0.0143348
-0.0141284
-0.0144402
-0.0140564
-0.0150828
-0.0142483
-0.0145696
-0.0147615
-0.0144402
-0.0138167
-0.0140564
-0.0141284
-0.0139365
-0.0142483
-0.0152419
-0.014775
-0.0148529
-0.0150085
-0.014814
-0.0150474
-0.0152419
-0.0148529
-0.0157355
-0.0150474
-0.0152942
-0.0154887
-0.0152419
-0.0156569
-0.014775
-0.0154494
-0.015216
-0.0150085
-0.0152419
-0.0157355
-0.0156569
-0.0154887
-0.0156962
-0.0154494
-0.0153964
-0.0148529
-0.0150828
-0.0151247
-0.0149679
-0.0152396
-0.0153964
-0.0157355
-0.0148529
-0.015566
-0.0152942
-0.0151247
-0.0153964
-0.0150828
-0.015967
-0.0152396
-0.0155249
-0.0156817
-0.0153964
-0.015967
-0.0157355
-0.0156817
-0.0158513
-0.015566
-0.0147468
-0.0150828
-0.0140564
-0.0149148
-0.0145696
-0.0144016
-0.0147468
-0.0140564
-0.0144441
-0.0144016
-0.0142502
-0.0145955
-0.0147468
-0.0154533
-0.0150828
-0.0151001
-0.015268
-0.0149148
-0.0147468
-0.0144441
-0.0154533
-0.0145955
-0.0149487
-0.0151001
-0.0133336
-0.0128801
-0.0126202
-0.0131069
-0.0127501
-0.0129769
-0.0133336
-0.0126202
-0.0138167
-0.0129769
-0.0132184
-0.0135752
-0.0133336
-0.0140564
-0.0128801
-0.013695
-0.0134682
-0.0131069
-0.0133336
-0.0138167
-0.0140564
-0.0135752
-0.0139365
-0.013695
-0.0120668
-0.0126202
-0.0128801
-0.0123435
-0.0127501
-0.0124734
-0.0120668
-0.01125
-0.0126202
-0.0116584
-0.0119351
-0.0123435
-0.0120668
-0.0128801
-0.0115383
-0.0124734
-0.0122092
-0.0118025
-0.0120668
-0.0115383
-0.01125
-0.0118025
-0.0113941
-0.0116584
-0.0144402
-0.0148529
-0.0150828
-0.0146465
-0.0149679
-0.0147615
-0.0144402
-0.0138167
-0.0148529
-0.0141284
-0.0143348
-0.0146465
-0.0144402
-0.0150828
-0.0140564
-0.0147615
-0.0145696
-0.0142483
-0.0144402
-0.0140564
-0.0138167
-0.0142483
-0.0139365
-0.0141284
-0.0152419
-0.0148529
-0.014775
-0.0150474
-0.014814
-0.0150085
-0.0152419
-0.0157355
-0.0148529
-0.0154887
-0.0152942
-0.0150474
-0.0152419
-0.014775
-0.0156569
-0.0150085
-0.015216
-0.0154494
-0.0152419
-0.0156569
-0.0157355
-0.0154494
-0.0156962
-0.0154887
-0.0153964
-0.0150828
-0.0148529
-0.0152396
-0.0149679
-0.0151247
-0.0153964
-0.0148529
-0.0157355
-0.0151247
-0.0152942
-0.015566
-0.0153964
-0.015967
-0.0150828
-0.0156817
-0.0155249
-0.0152396
-0.0153964
-0.0157355
-0.015967
-0.015566
-0.0158513
-0.0156817
-0.0136595
-0.0128801
-0.0140564
-0.0132698
-0.0134682
-0.0138579
-0.0136595
-0.0140564
-0.0144441
-0.0138579
-0.0142502
-0.0140518
-0.0136595
-0.0133036
-0.0128801
-0.0134816
-0.0130919
-0.0132698
-0.0136595
-0.0144441
-0.0133036
-0.0140518
-0.0138738
-0.0134816
-0.0147468
-0.0140564
-0.0150828
-0.0144016
-0.0145696
-0.0149148
-0.0147468
-0.0144441
-0.0140564
-0.0145955
-0.0142502
-0.0144016
-0.0147468
-0.0150828
-0.0154533
-0.0149148
-0.015268
-0.0151001
-0.0147468
-0.0154533
-0.0144441
-0.0151001
-0.0149487
-0.0145955
-0.0124247
-0.0115383
-0.0128801
-0.0119815
-0.0122092
-0.0126524
-0.0124247
-0.0120147
-0.0115383
-0.0122197
-0.0117765
-0.0119815
-0.0124247
-0.0128801
-0.0133036
-0.0126524
-0.0130919
-0.0128642
-0.0124247
-0.0133036
-0.0120147
-0.0128642
-0.0126592
-0.0122197
-0.0110224
-0.0100065
-0.0115383
-0.0105145
-0.0107724
-0.0112803
-0.0110224
-0.0115383
-0.0120147
-0.0112803
-0.0117765
-0.0115186
-0.0110224
-0.0105462
-0.0100065
-0.0107843
-0.0102763
-0.0105145
-0.0110224
-0.0120147
-0.0105462
-0.0115186
-0.0112805
-0.0107843
-0.0151894
-0.0159456
-0.0154533
-0.0155675
-0.0156994
-0.0153213
-0.0151894
-0.0154533
-0.0144441
-0.0153213
-0.0149487
-0.0148167
-0.0151894
-0.0149611
-0.0159456
-0.0150752
-0.0154533
-0.0155675
-0.0151894
-0.0144441
-0.0149611
-0.0148167
-0.0147026
-0.0150752
-0.0161315
-0.0154533
-0.0159456
-0.0157924
-0.0156994
-0.0160385
-0.0161315
-0.0163392
-0.0154533
-0.0162354
-0.0158962
-0.0157924
-0.0161315
-0.0159456
-0.0168321
-0.0160385
-0.0163888
-0.0164818
-0.0161315
-0.0168321
-0.0163392
-0.0164818
-0.0165856
-0.0162354
-0.015698
-0.0150828
-0.0154533
-0.0153904
-0.015268
-0.0155756
-0.015698
-0.0154533
-0.0163392
-0.0155756
-0.0158962
-0.0160186
-0.015698
-0.015967
-0.0150828
-0.0158325
-0.0155249
-0.0153904
-0.015698
-0.0163392
-0.015967
-0.0160186
-0.0161531
-0.0158325
-0.0157464
-0.0159456
-0.0149611
-0.015846
-0.0154533
-0.0153537
-0.0157464
-0.0149611
-0.0155805
-0.0153537
-0.0152708
-0.0156634
-0.0157464
-0.0165352
-0.0159456
-0.0161408
-0.0162404
-0.015846
-0.0157464
-0.0155805
-0.0165352
-0.0156634
-0.0160579
-0.0161408
-0.0162054
-0.015967
-0.0167089
-0.0160862
-0.016338
-0.0164571
-0.0162054
-0.0157355
-0.015967
-0.0159704
-0.0158513
-0.0160862
-0.0162054
-0.0167089
-0.0164632
-0.0164571
-0.0165861
-0.0163343
-0.0162054
-0.0164632
-0.0157355
-0.0163343
-0.0160994
-0.0159704
-0.0165167
-0.0167089
-0.015967
-0.0166128
-0.016338
-0.0162419
-0.0165167
-0.015967
-0.0163392
-0.0162419
-0.0161531
-0.016428
-0.0165167
-0.0171032
-0.0167089
-0.0168099
-0.016906
-0.0166128
-0.0165167
-0.0163392
-0.0171032
-0.016428
-0.0167212
-0.0168099
-0.0160455
-0.0163799
-0.0156569
-0.0162127
-0.0160184
-0.0158512
-0.0160455
-0.0156569
-0.0157355
-0.0158512
-0.0156962
-0.0158905
-0.0160455
-0.0164632
-0.0163799
-0.0162544
-0.0164216
-0.0162127
-0.0160455
-0.0157355
-0.0164632
-0.0158905
-0.0160994
-0.0162544
-0.0160455
-0.0156569
-0.0163799
-0.0158512
-0.0160184
-0.0162127
-0.0160455
-0.0157355
-0.0156569
-0.0158905
-0.0156962
-0.0158512
-0.0160455
-0.0163799
-0.0164632
-0.0162127
-0.0164216
-0.0162544
-0.0160455
-0.0164632
-0.0157355
-0.0162544
-0.0160994
-0.0158905
-0.0168623
-0.0164632
-0.0167089
-0.0166628
-0.0165861
-0.0167856
-0.0168623
-0.0170267
-0.0164632
-0.0169445
-0.016745
-0.0166628
-0.0168623
-0.0167089
-0.0173001
-0.0167856
-0.0170045
-0.0170812
-0.0168623
-0.0173001
-0.0170267
-0.0170812
-0.0171634
-0.0169445
-0.0166889
-0.0163799
-0.0164632
-0.0165344
-0.0164216
-0.0165761
-0.0166889
-0.0164632
-0.0170267
-0.0165761
-0.016745
-0.0168578
-0.0166889
-0.016934
-0.0163799
-0.0168115
-0.0166569
-0.0165344
-0.0166889
-0.0170267
-0.016934
-0.0168578
-0.0169804
-0.0168115
-0.0169631
-0.0168321
-0.0176231
-0.0168976
-0.0172276
-0.0172931
-0.0169631
-0.0163392
-0.0168321
-0.0166512
-0.0165856
-0.0168976
-0.0169631
-0.0176231
-0.0171032
-0.0172931
-0.0173631
-0.0170331
-0.0169631
-0.0171032
-0.0163392
-0.0170331
-0.0167212
-0.0166512
-0.0166753
-0.0168321
-0.0159456
-0.0167537
-0.0163888
-0.0163104
-0.0166753
-0.0174198
-0.0168321
-0.0170476
-0.017126
-0.0167537
-0.0166753
-0.0159456
-0.0165352
-0.0163104
-0.0162404
-0.0166053
-0.0166753
-0.0165352
-0.0174198
-0.0166053
-0.0169775
-0.0170476
-0.0175202
-0.0176231
-0.0168321
-0.0175717
-0.0172276
-0.0171761
-0.0175202
-0.0168321
-0.0174198
-0.0171761
-0.017126
-0.01747
-0.0175202
-0.0182378
-0.0176231
-0.017879
-0.0179304
-0.0175717
-0.0175202
-0.0174198
-0.0182378
-0.01747
-0.0178288
-0.017879
-0.0172001
-0.0167089
-0.0171032
-0.0169545
-0.016906
-0.0171516
-0.0172001
-0.0171032
-0.0177394
-0.0171516
-0.0174213
-0.0174697
-0.0172001
-0.0173001
-0.0167089
-0.0172501
-0.0170045
-0.0169545
-0.0172001
-0.0177394
-0.0173001
-0.0174697
-0.0175197
-0.0172501
-0.0176836
-0.0171032
-0.0176231
-0.0173934
-0.0173631
-0.0176534
-0.0176836
-0.0177394
-0.0171032
-0.0177115
-0.0174213
-0.0173934
-0.0176836
-0.0176231
-0.0183183
-0.0176534
-0.0179707
-0.018001
-0.0176836
-0.0183183
-0.0177394
-0.018001
-0.0180289
-0.0177115
-0.0163904
-0.017196
-0.0165352
-0.0167932
-0.0168656
-0.0164628
-0.0163904
-0.0165352
-0.0155805
-0.0164628
-0.0160579
-0.0159854
-0.0163904
-0.0162698
-0.017196
-0.0163301
-0.0167329
-0.0167932
-0.0163904
-0.0155805
-0.0162698
-0.0159854
-0.0159251
-0.0163301
-0.0173029
-0.0165352
-0.017196
-0.0169191
-0.0168656
-0.0172495
-0.0173029
-0.0174198
-0.0165352
-0.0173614
-0.0169775
-0.0169191
-0.0173029
-0.017196
-0.0180755
-0.0172495
-0.0176358
-0.0176892
-0.0173029
-0.0180755
-0.0174198
-0.0176892
-0.0177477
-0.0173614
-0.0170918
-0.017196
-0.0162698
-0.0171439
-0.0167329
-0.0166808
-0.0170918
-0.0162698
-0.0169983
-0.0166808
-0.0166341
-0.0170451
-0.0170918
-0.0179067
-0.017196
-0.0174993
-0.0175514
-0.0171439
-0.0170918
-0.0169983
-0.0179067
-0.0170451
-0.0174525
-0.0174993
-0.0116204
-0.0113106
-0.0105462
-0.0114655
-0.0109284
-0.0110833
-0.0116204
-0.0105462
-0.0120147
-0.0110833
-0.0112805
-0.0118176
-0.0116204
-0.0126664
-0.0113106
-0.0121434
-0.0119885
-0.0114655
-0.0116204
-0.0120147
-0.0126664
-0.0118176
-0.0123406
-0.0121434
-0.0101055
-0.0105462
-0.0113106
-0.0103258
-0.0109284
-0.010708
-0.0101055
-0.0088499
-0.0105462
-0.00947769
-0.00969806
-0.0103258
-0.0101055
-0.0113106
-0.00973553
-0.010708
-0.0105231
-0.0099205
-0.0101055
-0.00973553
-0.0088499
-0.0099205
-0.00929272
-0.00947769
-0.0129499
-0.0138727
-0.0126664
-0.0134113
-0.0132695
-0.0128081
-0.0129499
-0.0126664
-0.0120147
-0.0128081
-0.0123406
-0.0124823
-0.0129499
-0.0133036
-0.0138727
-0.0131267
-0.0135881
-0.0134113
-0.0129499
-0.0120147
-0.0133036
-0.0124823
-0.0126592
-0.0131267
-0.0124036
-0.0113106
-0.0126664
-0.0118571
-0.0119885
-0.012535
-0.0124036
-0.0126664
-0.0134606
-0.012535
-0.0130635
-0.0129321
-0.0124036
-0.0122787
-0.0113106
-0.0123412
-0.0117947
-0.0118571
-0.0124036
-0.0134606
-0.0122787
-0.0129321
-0.0128696
-0.0123412
-0.0136211
-0.0126664
-0.0138727
-0.0131438
-0.0132695
-0.0137469
-0.0136211
-0.0134606
-0.0126664
-0.0135408
-0.0130635
-0.0131438
-0.0136211
-0.0138727
-0.0145558
-0.0137469
-0.0142142
-0.0140885
-0.0136211
-0.0145558
-0.0134606
-0.0140885
-0.0140082
-0.0135408
-0.0141324
-0.0138727
-0.0133036
-0.0140025
-0.0135881
-0.013718
-0.0141324
-0.0133036
-0.0144441
-0.013718
-0.0138738
-0.0142882
-0.0141324
-0.0149611
-0.0138727
-0.0145467
-0.0144169
-0.0140025
-0.0141324
-0.0144441
-0.0149611
-0.0142882
-0.0147026
-0.0145467
-0.00833865
-0.00973553
-0.00783118
-0.00903709
-0.00878336
-0.00808492
-0.00833865
-0.0088499
-0.00973553
-0.00859428
-0.00929272
-0.00903709
-0.00833865
-0.00783118
-0.00686291
-0.00808492
-0.00734705
-0.00760078
-0.00833865
-0.00686291
-0.0088499
-0.00760078
-0.00785641
-0.00859428
-0.011038
-0.00973553
-0.0113106
-0.0103868
-0.0105231
-0.0111743
-0.011038
-0.010952
-0.00973553
-0.010995
-0.0103438
-0.0103868
-0.011038
-0.0113106
-0.0122787
-0.0111743
-0.0117947
-0.0116584
-0.011038
-0.0122787
-0.010952
-0.0116584
-0.0116154
-0.010995
-0.00944507
-0.00783118
-0.00973553
-0.00863813
-0.00878336
-0.0095903
-0.00944507
-0.00973553
-0.010952
-0.0095903
-0.0103438
-0.0101985
-0.00944507
-0.00926589
-0.00783118
-0.00935548
-0.00854854
-0.00863813
-0.00944507
-0.010952
-0.00926589
-0.0101985
-0.0101089
-0.00935548
-0.00622552
-0.00686291
-0.00783118
-0.00654422
-0.00734705
-0.00702835
-0.00622552
-0.00453595
-0.00686291
-0.00538074
-0.00569943
-0.00654422
-0.00622552
-0.00783118
-0.00544901
-0.00702835
-0.0066401
-0.00583726
-0.00622552
-0.00544901
-0.00453595
-0.00583726
-0.00499248
-0.00538074
-0.0151894
-0.0154533
-0.0159456
-0.0153213
-0.0156994
-0.0155675
-0.0151894
-0.0144441
-0.0154533
-0.0148167
-0.0149487
-0.0153213
-0.0151894
-0.0159456
-0.0149611
-0.0155675
-0.0154533
-0.0150752
-0.0151894
-0.0149611
-0.0144441
-0.0150752
-0.0147026
-0.0148167
-0.0161315
-0.0159456
-0.0154533
-0.0160385
-0.0156994
-0.0157924
-0.0161315
-0.0154533
-0.0163392
-0.0157924
-0.0158962
-0.0162354
-0.0161315
-0.0168321
-0.0159456
-0.0164818
-0.0163888
-0.0160385
-0.0161315
-0.0163392
-0.0168321
-0.0162354
-0.0165856
-0.0164818
-0.015698
-0.0154533
-0.0150828
-0.0155756
-0.015268
-0.0153904
-0.015698
-0.0163392
-0.0154533
-0.0160186
-0.0158962
-0.0155756
-0.015698
-0.0150828
-0.015967
-0.0153904
-0.0155249
-0.0158325
-0.015698
-0.015967
-0.0163392
-0.0158325
-0.0161531
-0.0160186
-0.0157464
-0.0149611
-0.0159456
-0.0153537
-0.0154533
-0.015846
-0.0157464
-0.0155805
-0.0149611
-0.0156634
-0.0152708
-0.0153537
-0.0157464
-0.0159456
-0.0165352
-0.015846
-0.0162404
-0.0161408
-0.0157464
-0.0165352
-0.0155805
-0.0161408
-0.0160579
-0.0156634
-0.0147303
-0.0138727
-0.0149611
-0.0143015
-0.0144169
-0.0148457
-0.0147303
-0.0149611
-0.0155805
-0.0148457
-0.0152708
-0.0151554
-0.0147303
-0.0145558
-0.0138727
-0.014643
-0.0142142
-0.0143015
-0.0147303
-0.0155805
-0.0145558
-0.0151554
-0.0150682
-0.014643
-0.0162054
-0.0167089
-0.015967
-0.0164571
-0.016338
-0.0160862
-0.0162054
-0.015967
-0.0157355
-0.0160862
-0.0158513
-0.0159704
-0.0162054
-0.0164632
-0.0167089
-0.0163343
-0.0165861
-0.0164571
-0.0162054
-0.0157355
-0.0164632
-0.0159704
-0.0160994
-0.0163343
-0.0165167
-0.015967
-0.0167089
-0.0162419
-0.016338
-0.0166128
-0.0165167
-0.0163392
-0.015967
-0.016428
-0.0161531
-0.0162419
-0.0165167
-0.0167089
-0.0171032
-0.0166128
-0.016906
-0.0168099
-0.0165167
-0.0171032
-0.0163392
-0.0168099
-0.0167212
-0.016428
-0.0168623
-0.0167089
-0.0164632
-0.0167856
-0.0165861
-0.0166628
-0.0168623
-0.0164632
-0.0170267
-0.0166628
-0.016745
-0.0169445
-0.0168623
-0.0173001
-0.0167089
-0.0170812
-0.0170045
-0.0167856
-0.0168623
-0.0170267
-0.0173001
-0.0169445
-0.0171634
-0.0170812
-0.0166889
-0.0164632
-0.0163799
-0.0165761
-0.0164216
-0.0165344
-0.0166889
-0.0170267
-0.0164632
-0.0168578
-0.016745
-0.0165761
-0.0166889
-0.0163799
-0.016934
-0.0165344
-0.0166569
-0.0168115
-0.0166889
-0.016934
-0.0170267
-0.0168115
-0.0169804
-0.0168578
-0.0169631
-0.0176231
-0.0168321
-0.0172931
-0.0172276
-0.0168976
-0.0169631
-0.0168321
-0.0163392
-0.0168976
-0.0165856
-0.0166512
-0.0169631
-0.0171032
-0.0176231
-0.0170331
-0.0173631
-0.0172931
-0.0169631
-0.0163392
-0.0171032
-0.0166512
-0.0167212
-0.0170331
-0.0166753
-0.0159456
-0.0168321
-0.0163104
-0.0163888
-0.0167537
-0.0166753
-0.0168321
-0.0174198
-0.0167537
-0.017126
-0.0170476
-0.0166753
-0.0165352
-0.0159456
-0.0166053
-0.0162404
-0.0163104
-0.0166753
-0.0174198
-0.0165352
-0.0170476
-0.0169775
-0.0166053
-0.0175202
-0.0168321
-0.0176231
-0.0171761
-0.0172276
-0.0175717
-0.0175202
-0.0174198
-0.0168321
-0.01747
-0.017126
-0.0171761
-0.0175202
-0.0176231
-0.0182378
-0.0175717
-0.0179304
-0.017879
-0.0175202
-0.0182378
-0.0174198
-0.017879
-0.0178288
-0.01747
-0.0172001
-0.0171032
-0.0167089
-0.0171516
-0.016906
-0.0169545
-0.0172001
-0.0177394
-0.0171032
-0.0174697
-0.0174213
-0.0171516
-0.0172001
-0.0167089
-0.0173001
-0.0169545
-0.0170045
-0.0172501
-0.0172001
-0.0173001
-0.0177394
-0.0172501
-0.0175197
-0.0174697
-0.0176836
-0.0176231
-0.0171032
-0.0176534
-0.0173631
-0.0173934
-0.0176836
-0.0171032
-0.0177394
-0.0173934
-0.0174213
-0.0177115
-0.0176836
-0.0183183
-0.0176231
-0.018001
-0.0179707
-0.0176534
-0.0176836
-0.0177394
-0.0183183
-0.0177115
-0.0180289
-0.018001
-0.0143996
-0.0145558
-0.0153074
-0.0144777
-0.0149316
-0.0148535
-0.0143996
-0.0134606
-0.0145558
-0.0139301
-0.0140082
-0.0144777
-0.0143996
-0.0153074
-0.0143319
-0.0148535
-0.0148196
-0.0143657
-0.0143996
-0.0143319
-0.0134606
-0.0143657
-0.0138962
-0.0139301
-0.0154205
-0.0153074
-0.0145558
-0.0153639
-0.0149316
-0.0149882
-0.0154205
-0.0145558
-0.0155805
-0.0149882
-0.0150682
-0.0155005
-0.0154205
-0.0162698
-0.0153074
-0.0158452
-0.0157886
-0.0153639
-0.0154205
-0.0155805
-0.0162698
-0.0155005
-0.0159251
-0.0158452
-0.0133327
-0.0133739
-0.0122787
-0.0133533
-0.0128263
-0.0128057
-0.0133327
-0.0122787
-0.0134606
-0.0128057
-0.0128696
-0.0133966
-0.0133327
-0.0143319
-0.0133739
-0.0138323
-0.0138529
-0.0133533
-0.0133327
-0.0134606
-0.0143319
-0.0133966
-0.0138962
-0.0138323
-0.0122043
-0.0122787
-0.0133739
-0.0122415
-0.0128263
-0.0127891
-0.0122043
-0.010952
-0.0122787
-0.0115782
-0.0116154
-0.0122415
-0.0122043
-0.0133739
-0.0124379
-0.0127891
-0.0129059
-0.0123211
-0.0122043
-0.0124379
-0.010952
-0.0123211
-0.0116949
-0.0115782
-0.0152222
-0.0143319
-0.0153074
-0.014777
-0.0148196
-0.0152648
-0.0152222
-0.0151848
-0.0143319
-0.0152035
-0.0147583
-0.014777
-0.0152222
-0.0153074
-0.0160742
-0.0152648
-0.0156908
-0.0156482
-0.0152222
-0.0160742
-0.0151848
-0.0156482
-0.0156295
-0.0152035
-0.0143186
-0.0133739
-0.0143319
-0.0138462
-0.0138529
-0.0143252
-0.0143186
-0.0143319
-0.0151848
-0.0143252
-0.0147583
-0.0147517
-0.0143186
-0.0144224
-0.0133739
-0.0143705
-0.0138981
-0.0138462
-0.0143186
-0.0151848
-0.0144224
-0.0147517
-0.0148036
-0.0143705
-0.0163904
-0.0165352
-0.017196
-0.0164628
-0.0168656
-0.0167932
-0.0163904
-0.0155805
-0.0165352
-0.0159854
-0.0160579
-0.0164628
-0.0163904
-0.017196
-0.0162698
-0.0167932
-0.0167329
-0.0163301
-0.0163904
-0.0162698
-0.0155805
-0.0163301
-0.0159251
-0.0159854
-0.0173029
-0.017196
-0.0165352
-0.0172495
-0.0168656
-0.0169191
-0.0173029
-0.0165352
-0.0174198
-0.0169191
-0.0169775
-0.0173614
-0.0173029
-0.0180755
-0.017196
-0.0176892
-0.0176358
-0.0172495
-0.0173029
-0.0174198
-0.0180755
-0.0173614
-0.0177477
-0.0176892
-0.0161614
-0.0153074
-0.0162698
-0.0157344
-0.0157886
-0.0162156
-0.0161614
-0.0162698
-0.0169983
-0.0162156
-0.0166341
-0.0165798
-0.0161614
-0.0160742
-0.0153074
-0.0161178
-0.0156908
-0.0157344
-0.0161614
-0.0169983
-0.0160742
-0.0165798
-0.0165362
-0.0161178
-0.0170918
-0.0162698
-0.017196
-0.0166808
-0.0167329
-0.0171439
-0.0170918
-0.0169983
-0.0162698
-0.0170451
-0.0166341
-0.0166808
-0.0170918
-0.017196
-0.0179067
-0.0171439
-0.0175514
-0.0174993
-0.0170918
-0.0179067
-0.0169983
-0.0174993
-0.0174525
-0.0170451
-0.00367131
-0.00254802
-0.00186539
-0.00310967
-0.00220671
-0.00276835
-0.00367131
-0.00186539
-0.00453595
-0.00276835
-0.00320067
-0.00410363
-0.00367131
-0.00544901
-0.00254802
-0.00456016
-0.00399852
-0.00310967
-0.00367131
-0.00453595
-0.00544901
-0.00410363
-0.00499248
-0.00456016
-0.00478314
-0.00254802
-0.00544901
-0.00366558
-0.00399852
-0.00511608
-0.00478314
-0.00544901
-0.00696354
-0.00511608
-0.00620627
-0.00587334
-0.00478314
-0.00367094
-0.00254802
-0.00422704
-0.00310948
-0.00366558
-0.00478314
-0.00696354
-0.00367094
-0.00587334
-0.00531724
-0.00422704
-0.00744466
-0.00544901
-0.00783118
-0.00644683
-0.0066401
-0.00763792
-0.00744466
-0.00696354
-0.00544901
-0.0072041
-0.00620627
-0.00644683
-0.00744466
-0.00783118
-0.00926589
-0.00763792
-0.00854854
-0.00835527
-0.00744466
-0.00926589
-0.00696354
-0.00835527
-0.00811471
-0.0072041
-0.0109275
-0.0114519
-0.00926589
-0.0111897
-0.0103589
-0.0100967
-0.0109275
-0.00926589
-0.010952
-0.0100967
-0.0101089
-0.0109397
-0.0109275
-0.0124379
-0.0114519
-0.0116827
-0.0119449
-0.0111897
-0.0109275
-0.010952
-0.0124379
-0.0109397
-0.0116949
-0.0116827
-0.00935975
-0.00926589
-0.0114519
-0.00931282
-0.0103589
-0.0104058
-0.00935975
-0.00696354
-0.00926589
-0.00816164
-0.00811471
-0.00931282
-0.00935975
-0.0114519
-0.00929424
-0.0104058
-0.0103731
-0.009327
-0.00935975
-0.00929424
-0.00696354
-0.009327
-0.00812889
-0.00816164
-0.0128029
-0.0114519
-0.0124379
-0.0121274
-0.0119449
-0.0126204
-0.0128029
-0.0124379
-0.0139492
-0.0126204
-0.0131936
-0.013376
-0.0128029
-0.0139857
-0.0114519
-0.0133943
-0.0127188
-0.0121274
-0.0128029
-0.0139492
-0.0139857
-0.013376
-0.0139675
-0.0133943
-0.0135082
-0.0124379
-0.0133739
-0.0129731
-0.0129059
-0.0134411
-0.0135082
-0.0139492
-0.0124379
-0.0137287
-0.0131936
-0.0129731
-0.0135082
-0.0133739
-0.0144224
-0.0134411
-0.0138981
-0.0139653
-0.0135082
-0.0144224
-0.0139492
-0.0139653
-0.0141858
-0.0137287
-0.00672143
-0.00566483
-0.00367094
-0.00619313
-0.00466789
-0.00519618
-0.00672143
-0.00367094
-0.00696354
-0.00519618
-0.00531724
-0.00684248
-0.00672143
-0.00929424
-0.00566483
-0.00800783
-0.00747954
-0.00619313
-0.00672143
-0.00696354
-0.00929424
-0.00684248
-0.00812889
-0.00800783
-0.011976
-0.00929424
-0.0114519
-0.0106351
-0.0103731
-0.0117139
-0.011976
-0.0149735
-0.00929424
-0.0134747
-0.0121339
-0.0106351
-0.011976
-0.0114519
-0.0139857
-0.0117139
-0.0127188
-0.0129808
-0.011976
-0.0139857
-0.0149735
-0.0129808
-0.0144796
-0.0134747
-0.0116416
-0.00566483
-0.00929424
-0.00865321
-0.00747954
-0.0104679
-0.0116416
-0.00929424
-0.0149735
-0.0104679
-0.0121339
-0.0133076
-0.0116416
-0.00776356
-0.00566483
-0.00970257
-0.0067142
-0.00865321
-0.0116416
-0.0149735
-0.00776356
-0.0133076
-0.0113685
-0.00970257
-0.0178279
-0.0177485
-0.0186596
-0.0177882
-0.018204
-0.0182437
-0.0178279
-0.0169983
-0.0177485
-0.0174131
-0.0173734
-0.0177882
-0.0178279
-0.0186596
-0.0179067
-0.0182437
-0.0182831
-0.0178673
-0.0178279
-0.0179067
-0.0169983
-0.0178673
-0.0174525
-0.0174131
-0.018715
-0.0179067
-0.0186596
-0.0183109
-0.0182831
-0.0186873
-0.018715
-0.0187778
-0.0179067
-0.0187464
-0.0183423
-0.0183109
-0.018715
-0.0186596
-0.0195204
-0.0186873
-0.01909
-0.0191177
-0.018715
-0.0195204
-0.0187778
-0.0191177
-0.0191491
-0.0187464
-0.0179886
-0.017196
-0.0179067
-0.0175923
-0.0175514
-0.0179476
-0.0179886
-0.0179067
-0.0187778
-0.0179476
-0.0183423
-0.0183832
-0.0179886
-0.0180755
-0.017196
-0.018032
-0.0176358
-0.0175923
-0.0179886
-0.0187778
-0.0180755
-0.0183832
-0.0184267
-0.018032
-0.0188455
-0.0189117
-0.0180755
-0.0188786
-0.0184936
-0.0184605
-0.0188455
-0.0180755
-0.0187778
-0.0184605
-0.0184267
-0.0188117
-0.0188455
-0.0196139
-0.0189117
-0.0192297
-0.0192628
-0.0188786
-0.0188455
-0.0187778
-0.0196139
-0.0188117
-0.0191958
-0.0192297
-0.0181579
-0.0180755
-0.0189117
-0.0181167
-0.0184936
-0.0185348
-0.0181579
-0.0174198
-0.0180755
-0.0177889
-0.0177477
-0.0181167
-0.0181579
-0.0189117
-0.0182378
-0.0185348
-0.0185747
-0.0181978
-0.0181579
-0.0182378
-0.0174198
-0.0181978
-0.0178288
-0.0177889
-0.0195611
-0.0195204
-0.0203306
-0.0195408
-0.0199255
-0.0199459
-0.0195611
-0.0187778
-0.0195204
-0.0191695
-0.0191491
-0.0195408
-0.0195611
-0.0203306
-0.0196139
-0.0199459
-0.0199722
-0.0195875
-0.0195611
-0.0196139
-0.0187778
-0.0195875
-0.0191958
-0.0191695
-0.0196756
-0.0189117
-0.0196139
-0.0192936
-0.0192628
-0.0196447
-0.0196756
-0.0196139
-0.0204424
-0.0196447
-0.0200281
-0.020059
-0.0196756
-0.0197234
-0.0189117
-0.0196995
-0.0193175
-0.0192936
-0.0196756
-0.0204424
-0.0197234
-0.020059
-0.0200829
-0.0196995
-0.0203811
-0.0196139
-0.0203306
-0.0199975
-0.0199722
-0.0203559
-0.0203811
-0.0204424
-0.0196139
-0.0204117
-0.0200281
-0.0199975
-0.0203811
-0.0203306
-0.0211182
-0.0203559
-0.0207244
-0.0207496
-0.0203811
-0.0211182
-0.0204424
-0.0207496
-0.0207803
-0.0204117
-0.0189633
-0.0182378
-0.0189117
-0.0186005
-0.0185747
-0.0189375
-0.0189633
-0.0189971
-0.0182378
-0.0189802
-0.0186174
-0.0186005
-0.0189633
-0.0189117
-0.0197234
-0.0189375
-0.0193175
-0.0193434
-0.0189633
-0.0197234
-0.0189971
-0.0193434
-0.0193602
-0.0189802
-0.0182843
-0.0176231
-0.0182378
-0.0179537
-0.0179304
-0.018261
-0.0182843
-0.0182378
-0.0189971
-0.018261
-0.0186174
-0.0186407
-0.0182843
-0.0183183
-0.0176231
-0.0183013
-0.0179707
-0.0179537
-0.0182843
-0.0189971
-0.0183183
-0.0186407
-0.0186577
-0.0183013
-0.0182866
-0.0183183
-0.0189105
-0.0183024
-0.0186144
-0.0185985
-0.0182866
-0.0177394
-0.0183183
-0.018013
-0.0180289
-0.0183024
-0.0182866
-0.0189105
-0.018233
-0.0185985
-0.0185717
-0.0182598
-0.0182866
-0.018233
-0.0177394
-0.0182598
-0.0179862
-0.018013
-0.0189695
-0.0189105
-0.0183183
-0.01894
-0.0186144
-0.0186439
-0.0189695
-0.0183183
-0.0189971
-0.0186439
-0.0186577
-0.0189833
-0.0189695
-0.0197073
-0.0189105
-0.0193384
-0.0193089
-0.01894
-0.0189695
-0.0189971
-0.0197073
-0.0189833
-0.0193522
-0.0193384
-0.0177371
-0.018233
-0.0177228
-0.017985
-0.0179779
-0.01773
-0.0177371
-0.0177394
-0.018233
-0.0177383
-0.0179862
-0.017985
-0.0177371
-0.0177228
-0.0173001
-0.01773
-0.0175114
-0.0175186
-0.0177371
-0.0173001
-0.0177394
-0.0175186
-0.0175197
-0.0177383
-0.0187554
-0.018233
-0.0189105
-0.0184942
-0.0185717
-0.018833
-0.0187554
-0.0185549
-0.018233
-0.0186552
-0.0183939
-0.0184942
-0.0187554
-0.0189105
-0.0193763
-0.018833
-0.0191434
-0.0190659
-0.0187554
-0.0193763
-0.0185549
-0.0190659
-0.0189656
-0.0186552
-0.0181068
-0.0177228
-0.018233
-0.0179148
-0.0179779
-0.0181699
-0.0181068
-0.018233
-0.0185549
-0.0181699
-0.0183939
-0.0183308
-0.0181068
-0.017948
-0.0177228
-0.0180274
-0.0178354
-0.0179148
-0.0181068
-0.0185549
-0.017948
-0.0183308
-0.0182515
-0.0180274
-0.0173544
-0.0173001
-0.0177228
-0.0173272
-0.0175114
-0.0175386
-0.0173544
-0.0170267
-0.0173001
-0.0171905
-0.0171634
-0.0173272
-0.0173544
-0.0177228
-0.0174074
-0.0175386
-0.0175651
-0.0173809
-0.0173544
-0.0174074
-0.0170267
-0.0173809
-0.017217
-0.0171905
-0.0197353
-0.0205466
-0.0197073
-0.020141
-0.0201269
-0.0197213
-0.0197353
-0.0197073
-0.0189971
-0.0197213
-0.0193522
-0.0193662
-0.0197353
-0.0197234
-0.0205466
-0.0197294
-0.020135
-0.020141
-0.0197353
-0.0189971
-0.0197234
-0.0193662
-0.0193602
-0.0197294
-0.0195706
-0.0189105
-0.0197073
-0.0192406
-0.0193089
-0.019639
-0.0195706
-0.0197073
-0.0203684
-0.019639
-0.0200378
-0.0199695
-0.0195706
-0.0193763
-0.0189105
-0.0194735
-0.0191434
-0.0192406
-0.0195706
-0.0203684
-0.0193763
-0.0199695
-0.0198723
-0.0194735
-0.0204934
-0.0197073
-0.0205466
-0.0201003
-0.0201269
-0.02052
-0.0204934
-0.0203684
-0.0197073
-0.0204309
-0.0200378
-0.0201003
-0.0204934
-0.0205466
-0.0214297
-0.02052
-0.0209882
-0.0209615
-0.0204934
-0.0214297
-0.0203684
-0.0209615
-0.0208991
-0.0204309
-0.0205137
-0.0205466
-0.0197234
-0.0205302
-0.020135
-0.0201186
-0.0205137
-0.0197234
-0.0204424
-0.0201186
-0.0200829
-0.020478
-0.0205137
-0.0213249
-0.0205466
-0.0209193
-0.0209357
-0.0205302
-0.0205137
-0.0204424
-0.0213249
-0.020478
-0.0208836
-0.0209193
-0.0171584
-0.0173008
-0.016934
-0.0172296
-0.0171174
-0.0170462
-0.0171584
-0.016934
-0.0170267
-0.0170462
-0.0169804
-0.0170925
-0.0171584
-0.0174074
-0.0173008
-0.0172829
-0.0173541
-0.0172296
-0.0171584
-0.0170267
-0.0174074
-0.0170925
-0.017217
-0.0172829
-0.0171584
-0.016934
-0.0173008
-0.0170462
-0.0171174
-0.0172296
-0.0171584
-0.0170267
-0.016934
-0.0170925
-0.0169804
-0.0170462
-0.0171584
-0.0173008
-0.0174074
-0.0172296
-0.0173541
-0.0172829
-0.0171584
-0.0174074
-0.0170267
-0.0172829
-0.017217
-0.0170925
-0.0174313
-0.0173008
-0.0174074
-0.017366
-0.0173541
-0.0174193
-0.0174313
-0.0174074
-0.0175771
-0.0174193
-0.0174922
-0.0175042
-0.0174313
-0.0174524
-0.0173008
-0.0174419
-0.0173766
-0.017366
-0.0174313
-0.0175771
-0.0174524
-0.0175042
-0.0175148
-0.0174419
-0.0176592
-0.0174074
-0.0177228
-0.0175333
-0.0175651
-0.017691
-0.0176592
-0.0175771
-0.0174074
-0.0176181
-0.0174922
-0.0175333
-0.0176592
-0.0177228
-0.017948
-0.017691
-0.0178354
-0.0178036
-0.0176592
-0.017948
-0.0175771
-0.0178036
-0.0177625
-0.0176181
-0.0173544
-0.0174074
-0.0177228
-0.0173809
-0.0175651
-0.0175386
-0.0173544
-0.0170267
-0.0174074
-0.0171905
-0.017217
-0.0173809
-0.0173544
-0.0177228
-0.0173001
-0.0175386
-0.0175114
-0.0173272
-0.0173544
-0.0173001
-0.0170267
-0.0173272
-0.0171634
-0.0171905
-0.0174313
-0.0174074
-0.0173008
-0.0174193
-0.0173541
-0.017366
-0.0174313
-0.0175771
-0.0174074
-0.0175042
-0.0174922
-0.0174193
-0.0174313
-0.0173008
-0.0174524
-0.017366
-0.0173766
-0.0174419
-0.0174313
-0.0174524
-0.0175771
-0.0174419
-0.0175148
-0.0175042
-0.0176592
-0.0177228
-0.0174074
-0.017691
-0.0175651
-0.0175333
-0.0176592
-0.0174074
-0.0175771
-0.0175333
-0.0174922
-0.0176181
-0.0176592
-0.017948
-0.0177228
-0.0178036
-0.0178354
-0.017691
-0.0176592
-0.0175771
-0.017948
-0.0176181
-0.0177625
-0.0178036
-0.0177371
-0.0173001
-0.0177228
-0.0175186
-0.0175114
-0.01773
-0.0177371
-0.0177394
-0.0173001
-0.0177383
-0.0175197
-0.0175186
-0.0177371
-0.0177228
-0.018233
-0.01773
-0.0179779
-0.017985
-0.0177371
-0.018233
-0.0177394
-0.017985
-0.0179862
-0.0177383
-0.0182744
-0.0179349
-0.017948
-0.0181047
-0.0179414
-0.0181112
-0.0182744
-0.017948
-0.0185549
-0.0181112
-0.0182515
-0.0184147
-0.0182744
-0.018658
-0.0179349
-0.0184662
-0.0182964
-0.0181047
-0.0182744
-0.0185549
-0.018658
-0.0184147
-0.0186064
-0.0184662
-0.0177436
-0.017948
-0.0179349
-0.0178458
-0.0179414
-0.0178393
-0.0177436
-0.0175771
-0.017948
-0.0176604
-0.0177625
-0.0178458
-0.0177436
-0.0179349
-0.0174991
-0.0178393
-0.017717
-0.0176214
-0.0177436
-0.0174991
-0.0175771
-0.0176214
-0.0175381
-0.0176604
-0.0190565
-0.0193763
-0.0196624
-0.0192164
-0.0195194
-0.0193595
-0.0190565
-0.0185549
-0.0193763
-0.0188057
-0.0189656
-0.0192164
-0.0190565
-0.0196624
-0.018658
-0.0193595
-0.0191602
-0.0188572
-0.0190565
-0.018658
-0.0185549
-0.0188572
-0.0186064
-0.0188057
-0.0200646
-0.0196624
-0.0193763
-0.0198635
-0.0195194
-0.0197204
-0.0200646
-0.0193763
-0.0203684
-0.0197204
-0.0198723
-0.0202165
-0.0200646
-0.0209312
-0.0196624
-0.0204979
-0.0202968
-0.0198635
-0.0200646
-0.0203684
-0.0209312
-0.0202165
-0.0206498
-0.0204979
-0.0181899
-0.0179349
-0.018658
-0.0180624
-0.0182964
-0.0184239
-0.0181899
-0.018658
-0.0184784
-0.0184239
-0.0185682
-0.0183341
-0.0181899
-0.0176339
-0.0179349
-0.0179119
-0.0177844
-0.0180624
-0.0181899
-0.0184784
-0.0176339
-0.0183341
-0.0180562
-0.0179119
-0.0191291
-0.018658
-0.0196624
-0.0188935
-0.0191602
-0.0193958
-0.0191291
-0.0184784
-0.018658
-0.0188038
-0.0185682
-0.0188935
-0.0191291
-0.0196624
-0.019677
-0.0193958
-0.0196697
-0.019403
-0.0191291
-0.019677
-0.0184784
-0.019403
-0.0190777
-0.0188038
-0.0174758
-0.0173535
-0.0174524
-0.0174147
-0.017403
-0.0174641
-0.0174758
-0.0174524
-0.0175771
-0.0174641
-0.0175148
-0.0175264
-0.0174758
-0.0174991
-0.0173535
-0.0174874
-0.0174263
-0.0174147
-0.0174758
-0.0175771
-0.0174991
-0.0175264
-0.0175381
-0.0174874
-0.0174758
-0.0174524
-0.0173535
-0.0174641
-0.017403
-0.0174147
-0.0174758
-0.0175771
-0.0174524
-0.0175264
-0.0175148
-0.0174641
-0.0174758
-0.0173535
-0.0174991
-0.0174147
-0.0174263
-0.0174874
-0.0174758
-0.0174991
-0.0175771
-0.0174874
-0.0175381
-0.0175264
-0.0175646
-0.0174991
-0.0179349
-0.0175319
-0.017717
-0.0177498
-0.0175646
-0.0171305
-0.0174991
-0.0173476
-0.0173148
-0.0175319
-0.0175646
-0.0179349
-0.0176339
-0.0177498
-0.0177844
-0.0175993
-0.0175646
-0.0176339
-0.0171305
-0.0175993
-0.0173822
-0.0173476
-0.0172521
-0.0173535
-0.0174991
-0.0173028
-0.0174263
-0.0173756
-0.0172521
-0.0174991
-0.0171305
-0.0173756
-0.0173148
-0.0171913
-0.0172521
-0.0169631
-0.0173535
-0.0171076
-0.0171583
-0.0173028
-0.0172521
-0.0171305
-0.0169631
-0.0171913
-0.0170468
-0.0171076
-0.0212231
-0.0211182
-0.0219527
-0.0211706
-0.0215354
-0.0215879
-0.0212231
-0.0204424
-0.0211182
-0.0208327
-0.0207803
-0.0211706
-0.0212231
-0.0219527
-0.0213249
-0.0215879
-0.0216388
-0.021274
-0.0212231
-0.0213249
-0.0204424
-0.021274
-0.0208836
-0.0208327
-0.0221885
-0.0213249
-0.0219527
-0.0217567
-0.0216388
-0.0220706
-0.0221885
-0.0223788
-0.0213249
-0.0222837
-0.0218519
-0.0217567
-0.0221885
-0.0219527
-0.0229792
-0.0220706
-0.0224659
-0.0225839
-0.0221885
-0.0229792
-0.0223788
-0.0225839
-0.022679
-0.0222837
-0.0214209
-0.0205466
-0.0213249
-0.0209837
-0.0209357
-0.0213729
-0.0214209
-0.0213249
-0.0223788
-0.0213729
-0.0218519
-0.0218998
-0.0214209
-0.0214297
-0.0205466
-0.0214253
-0.0209882
-0.0209837
-0.0214209
-0.0223788
-0.0214297
-0.0218998
-0.0219043
-0.0214253
-0.0212414
-0.0214297
-0.022417
-0.0213356
-0.0219233
-0.0218292
-0.0212414
-0.0203684
-0.0214297
-0.0208049
-0.0208991
-0.0213356
-0.0212414
-0.022417
-0.0209312
-0.0218292
-0.0216741
-0.0210863
-0.0212414
-0.0209312
-0.0203684
-0.0210863
-0.0206498
-0.0208049
-0.0224789
-0.022417
-0.0214297
-0.022448
-0.0219233
-0.0219543
-0.0224789
-0.0214297
-0.0223788
-0.0219543
-0.0219043
-0.0224289
-0.0224789
-0.0238042
-0.022417
-0.0231416
-0.0231106
-0.022448
-0.0224789
-0.0223788
-0.0238042
-0.0224289
-0.0230915
-0.0231416
-0.0219462
-0.0209312
-0.022417
-0.0214387
-0.0216741
-0.0221816
-0.0219462
-0.0212635
-0.0209312
-0.0216048
-0.0210974
-0.0214387
-0.0219462
-0.022417
-0.0233043
-0.0221816
-0.0228607
-0.0226252
-0.0219462
-0.0233043
-0.0212635
-0.0226252
-0.0222839
-0.0216048
-0.0203842
-0.0196624
-0.0209312
-0.0200233
-0.0202968
-0.0206577
-0.0203842
-0.0209312
-0.0212635
-0.0206577
-0.0210974
-0.0208239
-0.0203842
-0.019677
-0.0196624
-0.0200306
-0.0196697
-0.0200233
-0.0203842
-0.0212635
-0.019677
-0.0208239
-0.0204703
-0.0200306
-0.0234843
-0.0229792
-0.0245236
-0.0232317
-0.0237514
-0.0240039
-0.0234843
-0.0223788
-0.0229792
-0.0229315
-0.022679
-0.0232317
-0.0234843
-0.0245236
-0.0238042
-0.0240039
-0.0241639
-0.0236442
-0.0234843
-0.0238042
-0.0223788
-0.0236442
-0.0230915
-0.0229315
-0.0237149
-0.022417
-0.0238042
-0.0230659
-0.0231106
-0.0237595
-0.0237149
-0.0238042
-0.0260096
-0.0237595
-0.0249069
-0.0248622
-0.0237149
-0.0233043
-0.022417
-0.0235096
-0.0228607
-0.0230659
-0.0237149
-0.0260096
-0.0233043
-0.0248622
-0.024657
-0.0235096
-0.0255277
-0.0238042
-0.0245236
-0.0246659
-0.0241639
-0.0250256
-0.0255277
-0.0260096
-0.0238042
-0.0257686
-0.0249069
-0.0246659
-0.0255277
-0.0245236
-0.0274451
-0.0250256
-0.0259843
-0.0264864
-0.0255277
-0.0274451
-0.0260096
-0.0264864
-0.0267273
-0.0257686
-0.0172477
-0.0455012
-0.00776356
-0.0313745
-0.0266324
-0.0125056
-0.0172477
-0.00776356
-0.0149735
-0.0125056
-0.0113685
-0.0161106
-0.0172477
-0.0200169
-0.0455012
-0.0186323
-0.032759
-0.0313745
-0.0172477
-0.0149735
-0.0200169
-0.0161106
-0.0174952
-0.0186323
-0.0157829
-0.0157404
-0.0200169
-0.0157616
-0.0178786
-0.0178999
-0.0157829
-0.0200169
-0.0149735
-0.0178999
-0.0174952
-0.0153782
-0.0157829
-0.0139857
-0.0157404
-0.0148843
-0.014863
-0.0157616
-0.0157829
-0.0149735
-0.0139857
-0.0153782
-0.0144796
-0.0148843
-0.0147214
-0.0157404
-0.0139857
-0.0152309
-0.014863
-0.0143536
-0.0147214
-0.0139857
-0.0139492
-0.0143536
-0.0139675
-0.0143353
-0.0147214
-0.0149419
-0.0157404
-0.0148317
-0.0153411
-0.0152309
-0.0147214
-0.0139492
-0.0149419
-0.0143353
-0.0144455
-0.0148317
-0.0146667
-0.0152088
-0.0149419
-0.0149378
-0.0150753
-0.0148043
-0.0146667
-0.0149419
-0.0139492
-0.0148043
-0.0144455
-0.014308
-0.0146667
-0.0144224
-0.0152088
-0.0145446
-0.0148156
-0.0149378
-0.0146667
-0.0139492
-0.0144224
-0.014308
-0.0141858
-0.0145446
-0.0152055
-0.0152088
-0.0144224
-0.0152071
-0.0148156
-0.0148139
-0.0152055
-0.0144224
-0.0151848
-0.0148139
-0.0148036
-0.0151952
-0.0152055
-0.0159246
-0.0152088
-0.015565
-0.0155667
-0.0152071
-0.0152055
-0.0151848
-0.0159246
-0.0151952
-0.0155547
-0.015565
-0.0160088
-0.0168151
-0.0159246
-0.016412
-0.0163699
-0.0159667
-0.0160088
-0.0159246
-0.0151848
-0.0159667
-0.0155547
-0.0155968
-0.0160088
-0.0160742
-0.0168151
-0.0160415
-0.0164446
-0.016412
-0.0160088
-0.0151848
-0.0160742
-0.0155968
-0.0156295
-0.0160415
-0.0169118
-0.0168151
-0.0160742
-0.0168635
-0.0164446
-0.016493
-0.0169118
-0.0160742
-0.0169983
-0.016493
-0.0165362
-0.0169551
-0.0169118
-0.0177485
-0.0168151
-0.0173301
-0.0172818
-0.0168635
-0.0169118
-0.0169983
-0.0177485
-0.0169551
-0.0173734
-0.0173301
-0.0178279
-0.0186596
-0.0177485
-0.0182437
-0.018204
-0.0177882
-0.0178279
-0.0177485
-0.0169983
-0.0177882
-0.0173734
-0.0174131
-0.0178279
-0.0179067
-0.0186596
-0.0178673
-0.0182831
-0.0182437
-0.0178279
-0.0169983
-0.0179067
-0.0174131
-0.0174525
-0.0178673
-0.018715
-0.0186596
-0.0179067
-0.0186873
-0.0182831
-0.0183109
-0.018715
-0.0179067
-0.0187778
-0.0183109
-0.0183423
-0.0187464
-0.018715
-0.0195204
-0.0186596
-0.0191177
-0.01909
-0.0186873
-0.018715
-0.0187778
-0.0195204
-0.0187464
-0.0191491
-0.0191177
-0.0179886
-0.0179067
-0.017196
-0.0179476
-0.0175514
-0.0175923
-0.0179886
-0.0187778
-0.0179067
-0.0183832
-0.0183423
-0.0179476
-0.0179886
-0.017196
-0.0180755
-0.0175923
-0.0176358
-0.018032
-0.0179886
-0.0180755
-0.0187778
-0.018032
-0.0184267
-0.0183832
-0.0188455
-0.0180755
-0.0189117
-0.0184605
-0.0184936
-0.0188786
-0.0188455
-0.0187778
-0.0180755
-0.0188117
-0.0184267
-0.0184605
-0.0188455
-0.0189117
-0.0196139
-0.0188786
-0.0192628
-0.0192297
-0.0188455
-0.0196139
-0.0187778
-0.0192297
-0.0191958
-0.0188117
-0.0181579
-0.0189117
-0.0180755
-0.0185348
-0.0184936
-0.0181167
-0.0181579
-0.0180755
-0.0174198
-0.0181167
-0.0177477
-0.0177889
-0.0181579
-0.0182378
-0.0189117
-0.0181978
-0.0185747
-0.0185348
-0.0181579
-0.0174198
-0.0182378
-0.0177889
-0.0178288
-0.0181978
-0.0195611
-0.0203306
-0.0195204
-0.0199459
-0.0199255
-0.0195408
-0.0195611
-0.0195204
-0.0187778
-0.0195408
-0.0191491
-0.0191695
-0.0195611
-0.0196139
-0.0203306
-0.0195875
-0.0199722
-0.0199459
-0.0195611
-0.0187778
-0.0196139
-0.0191695
-0.0191958
-0.0195875
-0.0196756
-0.0196139
-0.0189117
-0.0196447
-0.0192628
-0.0192936
-0.0196756
-0.0204424
-0.0196139
-0.020059
-0.0200281
-0.0196447
-0.0196756
-0.0189117
-0.0197234
-0.0192936
-0.0193175
-0.0196995
-0.0196756
-0.0197234
-0.0204424
-0.0196995
-0.0200829
-0.020059
-0.0203811
-0.0203306
-0.0196139
-0.0203559
-0.0199722
-0.0199975
-0.0203811
-0.0196139
-0.0204424
-0.0199975
-0.0200281
-0.0204117
-0.0203811
-0.0211182
-0.0203306
-0.0207496
-0.0207244
-0.0203559
-0.0203811
-0.0204424
-0.0211182
-0.0204117
-0.0207803
-0.0207496
-0.0189633
-0.0189117
-0.0182378
-0.0189375
-0.0185747
-0.0186005
-0.0189633
-0.0182378
-0.0189971
-0.0186005
-0.0186174
-0.0189802
-0.0189633
-0.0197234
-0.0189117
-0.0193434
-0.0193175
-0.0189375
-0.0189633
-0.0189971
-0.0197234
-0.0189802
-0.0193602
-0.0193434
-0.0182843
-0.0182378
-0.0176231
-0.018261
-0.0179304
-0.0179537
-0.0182843
-0.0189971
-0.0182378
-0.0186407
-0.0186174
-0.018261
-0.0182843
-0.0176231
-0.0183183
-0.0179537
-0.0179707
-0.0183013
-0.0182843
-0.0183183
-0.0189971
-0.0183013
-0.0186577
-0.0186407
-0.0182866
-0.0189105
-0.0183183
-0.0185985
-0.0186144
-0.0183024
-0.0182866
-0.0183183
-0.0177394
-0.0183024
-0.0180289
-0.018013
-0.0182866
-0.018233
-0.0189105
-0.0182598
-0.0185717
-0.0185985
-0.0182866
-0.0177394
-0.018233
-0.018013
-0.0179862
-0.0182598
-0.0189695
-0.0183183
-0.0189105
-0.0186439
-0.0186144
-0.01894
-0.0189695
-0.0189971
-0.0183183
-0.0189833
-0.0186577
-0.0186439
-0.0189695
-0.0189105
-0.0197073
-0.01894
-0.0193089
-0.0193384
-0.0189695
-0.0197073
-0.0189971
-0.0193384
-0.0193522
-0.0189833
-0.0187554
-0.0189105
-0.018233
-0.018833
-0.0185717
-0.0184942
-0.0187554
-0.018233
-0.0185549
-0.0184942
-0.0183939
-0.0186552
-0.0187554
-0.0193763
-0.0189105
-0.0190659
-0.0191434
-0.018833
-0.0187554
-0.0185549
-0.0193763
-0.0186552
-0.0189656
-0.0190659
-0.0181068
-0.018233
-0.0177228
-0.0181699
-0.0179779
-0.0179148
-0.0181068
-0.0185549
-0.018233
-0.0183308
-0.0183939
-0.0181699
-0.0181068
-0.0177228
-0.017948
-0.0179148
-0.0178354
-0.0180274
-0.0181068
-0.017948
-0.0185549
-0.0180274
-0.0182515
-0.0183308
-0.0197353
-0.0197073
-0.0205466
-0.0197213
-0.0201269
-0.020141
-0.0197353
-0.0189971
-0.0197073
-0.0193662
-0.0193522
-0.0197213
-0.0197353
-0.0205466
-0.0197234
-0.020141
-0.020135
-0.0197294
-0.0197353
-0.0197234
-0.0189971
-0.0197294
-0.0193602
-0.0193662
-0.0195706
-0.0197073
-0.0189105
-0.019639
-0.0193089
-0.0192406
-0.0195706
-0.0203684
-0.0197073
-0.0199695
-0.0200378
-0.019639
-0.0195706
-0.0189105
-0.0193763
-0.0192406
-0.0191434
-0.0194735
-0.0195706
-0.0193763
-0.0203684
-0.0194735
-0.0198723
-0.0199695
-0.0204934
-0.0205466
-0.0197073
-0.02052
-0.0201269
-0.0201003
-0.0204934
-0.0197073
-0.0203684
-0.0201003
-0.0200378
-0.0204309
-0.0204934
-0.0214297
-0.0205466
-0.0209615
-0.0209882
-0.02052
-0.0204934
-0.0203684
-0.0214297
-0.0204309
-0.0208991
-0.0209615
-0.0205137
-0.0197234
-0.0205466
-0.0201186
-0.020135
-0.0205302
-0.0205137
-0.0204424
-0.0197234
-0.020478
-0.0200829
-0.0201186
-0.0205137
-0.0205466
-0.0213249
-0.0205302
-0.0209357
-0.0209193
-0.0205137
-0.0213249
-0.0204424
-0.0209193
-0.0208836
-0.020478
-0.0182744
-0.017948
-0.0179349
-0.0181112
-0.0179414
-0.0181047
-0.0182744
-0.0185549
-0.017948
-0.0184147
-0.0182515
-0.0181112
-0.0182744
-0.0179349
-0.018658
-0.0181047
-0.0182964
-0.0184662
-0.0182744
-0.018658
-0.0185549
-0.0184662
-0.0186064
-0.0184147
-0.0177436
-0.0179349
-0.017948
-0.0178393
-0.0179414
-0.0178458
-0.0177436
-0.017948
-0.0175771
-0.0178458
-0.0177625
-0.0176604
-0.0177436
-0.0174991
-0.0179349
-0.0176214
-0.017717
-0.0178393
-0.0177436
-0.0175771
-0.0174991
-0.0176604
-0.0175381
-0.0176214
-0.0190565
-0.0196624
-0.0193763
-0.0193595
-0.0195194
-0.0192164
-0.0190565
-0.0193763
-0.0185549
-0.0192164
-0.0189656
-0.0188057
-0.0190565
-0.018658
-0.0196624
-0.0188572
-0.0191602
-0.0193595
-0.0190565
-0.0185549
-0.018658
-0.0188057
-0.0186064
-0.0188572
-0.0200646
-0.0193763
-0.0196624
-0.0197204
-0.0195194
-0.0198635
-0.0200646
-0.0203684
-0.0193763
-0.0202165
-0.0198723
-0.0197204
-0.0200646
-0.0196624
-0.0209312
-0.0198635
-0.0202968
-0.0204979
-0.0200646
-0.0209312
-0.0203684
-0.0204979
-0.0206498
-0.0202165
-0.0181899
-0.018658
-0.0179349
-0.0184239
-0.0182964
-0.0180624
-0.0181899
-0.0184784
-0.018658
-0.0183341
-0.0185682
-0.0184239
-0.0181899
-0.0179349
-0.0176339
-0.0180624
-0.0177844
-0.0179119
-0.0181899
-0.0176339
-0.0184784
-0.0179119
-0.0180562
-0.0183341
-0.0191291
-0.0196624
-0.018658
-0.0193958
-0.0191602
-0.0188935
-0.0191291
-0.018658
-0.0184784
-0.0188935
-0.0185682
-0.0188038
-0.0191291
-0.019677
-0.0196624
-0.019403
-0.0196697
-0.0193958
-0.0191291
-0.0184784
-0.019677
-0.0188038
-0.0190777
-0.019403
-0.0175646
-0.0179349
-0.0174991
-0.0177498
-0.017717
-0.0175319
-0.0175646
-0.0174991
-0.0171305
-0.0175319
-0.0173148
-0.0173476
-0.0175646
-0.0176339
-0.0179349
-0.0175993
-0.0177844
-0.0177498
-0.0175646
-0.0171305
-0.0176339
-0.0173476
-0.0173822
-0.0175993
-0.0172521
-0.0174991
-0.0173535
-0.0173756
-0.0174263
-0.0173028
-0.0172521
-0.0171305
-0.0174991
-0.0171913
-0.0173148
-0.0173756
-0.0172521
-0.0173535
-0.0169631
-0.0173028
-0.0171583
-0.0171076
-0.0172521
-0.0169631
-0.0171305
-0.0171076
-0.0170468
-0.0171913
-0.0212231
-0.0219527
-0.0211182
-0.0215879
-0.0215354
-0.0211706
-0.0212231
-0.0211182
-0.0204424
-0.0211706
-0.0207803
-0.0208327
-0.0212231
-0.0213249
-0.0219527
-0.021274
-0.0216388
-0.0215879
-0.0212231
-0.0204424
-0.0213249
-0.0208327
-0.0208836
-0.021274
-0.0221885
-0.0219527
-0.0213249
-0.0220706
-0.0216388
-0.0217567
-0.0221885
-0.0213249
-0.0223788
-0.0217567
-0.0218519
-0.0222837
-0.0221885
-0.0229792
-0.0219527
-0.0225839
-0.0224659
-0.0220706
-0.0221885
-0.0223788
-0.0229792
-0.0222837
-0.022679
-0.0225839
-0.0214209
-0.0213249
-0.0205466
-0.0213729
-0.0209357
-0.0209837
-0.0214209
-0.0223788
-0.0213249
-0.0218998
-0.0218519
-0.0213729
-0.0214209
-0.0205466
-0.0214297
-0.0209837
-0.0209882
-0.0214253
-0.0214209
-0.0214297
-0.0223788
-0.0214253
-0.0219043
-0.0218998
-0.0212414
-0.022417
-0.0214297
-0.0218292
-0.0219233
-0.0213356
-0.0212414
-0.0214297
-0.0203684
-0.0213356
-0.0208991
-0.0208049
-0.0212414
-0.0209312
-0.022417
-0.0210863
-0.0216741
-0.0218292
-0.0212414
-0.0203684
-0.0209312
-0.0208049
-0.0206498
-0.0210863
-0.0224789
-0.0214297
-0.022417
-0.0219543
-0.0219233
-0.022448
-0.0224789
-0.0223788
-0.0214297
-0.0224289
-0.0219043
-0.0219543
-0.0224789
-0.022417
-0.0238042
-0.022448
-0.0231106
-0.0231416
-0.0224789
-0.0238042
-0.0223788
-0.0231416
-0.0230915
-0.0224289
-0.0219462
-0.022417
-0.0209312
-0.0221816
-0.0216741
-0.0214387
-0.0219462
-0.0209312
-0.0212635
-0.0214387
-0.0210974
-0.0216048
-0.0219462
-0.0233043
-0.022417
-0.0226252
-0.0228607
-0.0221816
-0.0219462
-0.0212635
-0.0233043
-0.0216048
-0.0222839
-0.0226252
-0.0203842
-0.0209312
-0.0196624
-0.0206577
-0.0202968
-0.0200233
-0.0203842
-0.0212635
-0.0209312
-0.0208239
-0.0210974
-0.0206577
-0.0203842
-0.0196624
-0.019677
-0.0200233
-0.0196697
-0.0200306
-0.0203842
-0.019677
-0.0212635
-0.0200306
-0.0204703
-0.0208239
-0.0234843
-0.0245236
-0.0229792
-0.0240039
-0.0237514
-0.0232317
-0.0234843
-0.0229792
-0.0223788
-0.0232317
-0.022679
-0.0229315
-0.0234843
-0.0238042
-0.0245236
-0.0236442
-0.0241639
-0.0240039
-0.0234843
-0.0223788
-0.0238042
-0.0229315
-0.0230915
-0.0236442
-0.0237149
-0.0238042
-0.022417
-0.0237595
-0.0231106
-0.0230659
-0.0237149
-0.0260096
-0.0238042
-0.0248622
-0.0249069
-0.0237595
-0.0237149
-0.022417
-0.0233043
-0.0230659
-0.0228607
-0.0235096
-0.0237149
-0.0233043
-0.0260096
-0.0235096
-0.024657
-0.0248622
-0.0255277
-0.0245236
-0.0238042
-0.0250256
-0.0241639
-0.0246659
-0.0255277
-0.0238042
-0.0260096
-0.0246659
-0.0249069
-0.0257686
-0.0255277
-0.0274451
-0.0245236
-0.0264864
-0.0259843
-0.0250256
-0.0255277
-0.0260096
-0.0274451
-0.0257686
-0.0267273
-0.0264864
-0.0291357
-0.0378798
-0.0274451
-0.0335078
-0.0326625
-0.0282904
-0.0291357
-0.0274451
-0.0260096
-0.0282904
-0.0267273
-0.0275727
-0.0291357
-0.0273081
-0.0378798
-0.0282219
-0.032594
-0.0335078
-0.0291357
-0.0260096
-0.0273081
-0.0275727
-0.0266589
-0.0282219
-0.0251248
-0.0236235
-0.0273081
-0.0243742
-0.0254658
-0.0262165
-0.0251248
-0.0273081
-0.0260096
-0.0262165
-0.0266589
-0.0255672
-0.0251248
-0.0233043
-0.0236235
-0.0242146
-0.0234639
-0.0243742
-0.0251248
-0.0260096
-0.0233043
-0.0255672
-0.024657
-0.0242146
-0.02239
-0.0236235
-0.0233043
-0.0230067
-0.0234639
-0.0228472
-0.02239
-0.0233043
-0.0212635
-0.0228472
-0.0222839
-0.0218268
-0.02239
-0.0211486
-0.0236235
-0.0217693
-0.0223861
-0.0230067
-0.02239
-0.0212635
-0.0211486
-0.0218268
-0.0212061
-0.0217693
-0.0203868
-0.019314
-0.0211486
-0.0198504
-0.0202313
-0.0207677
-0.0203868
-0.0211486
-0.0212635
-0.0207677
-0.0212061
-0.0208252
-0.0203868
-0.019677
-0.019314
-0.0200319
-0.0194955
-0.0198504
-0.0203868
-0.0212635
-0.019677
-0.0208252
-0.0204703
-0.0200319
-0.0188843
-0.019314
-0.019677
-0.0190992
-0.0194955
-0.0192806
-0.0188843
-0.019677
-0.0184784
-0.0192806
-0.0190777
-0.0186814
-0.0188843
-0.0179484
-0.019314
-0.0184164
-0.0186312
-0.0190992
-0.0188843
-0.0184784
-0.0179484
-0.0186814
-0.0182134
-0.0184164
-0.0177911
-0.0169938
-0.0179484
-0.0173924
-0.0174711
-0.0178697
-0.0177911
-0.0179484
-0.0184784
-0.0178697
-0.0182134
-0.0181347
-0.0177911
-0.0176339
-0.0169938
-0.0177125
-0.0173139
-0.0173924
-0.0177911
-0.0184784
-0.0176339
-0.0181347
-0.0180562
-0.0177125
-0.0170727
-0.0169938
-0.0176339
-0.0170333
-0.0173139
-0.0173533
-0.0170727
-0.0176339
-0.0171305
-0.0173533
-0.0173822
-0.0171016
-0.0170727
-0.0164267
-0.0169938
-0.0167497
-0.0167103
-0.0170333
-0.0170727
-0.0171305
-0.0164267
-0.0171016
-0.0167786
-0.0167497
-0.0167159
-0.0162385
-0.0164267
-0.0164772
-0.0163326
-0.0165713
-0.0167159
-0.0164267
-0.0171305
-0.0165713
-0.0167786
-0.0169232
-0.0167159
-0.0169631
-0.0162385
-0.0168395
-0.0166008
-0.0164772
-0.0167159
-0.0171305
-0.0169631
-0.0169232
-0.0170468
-0.0168395
-0.0167159
-0.0162385
-0.0169631
-0.0164772
-0.0166008
-0.0168395
-0.0167159
-0.0169631
-0.0171305
-0.0168395
-0.0170468
-0.0169232
-0.0167159
-0.0164267
-0.0162385
-0.0165713
-0.0163326
-0.0164772
-0.0167159
-0.0171305
-0.0164267
-0.0169232
-0.0167786
-0.0165713
-0.0170727
-0.0169938
-0.0164267
-0.0170333
-0.0167103
-0.0167497
-0.0170727
-0.0164267
-0.0171305
-0.0167497
-0.0167786
-0.0171016
-0.0170727
-0.0176339
-0.0169938
-0.0173533
-0.0173139
-0.0170333
-0.0170727
-0.0171305
-0.0176339
-0.0171016
-0.0173822
-0.0173533
-0.0177911
-0.0169938
-0.0176339
-0.0173924
-0.0173139
-0.0177125
-0.0177911
-0.0176339
-0.0184784
-0.0177125
-0.0180562
-0.0181347
-0.0177911
-0.0179484
-0.0169938
-0.0178697
-0.0174711
-0.0173924
-0.0177911
-0.0184784
-0.0179484
-0.0181347
-0.0182134
-0.0178697
-0.0188843
-0.019314
-0.0179484
-0.0190992
-0.0186312
-0.0184164
-0.0188843
-0.0179484
-0.0184784
-0.0184164
-0.0182134
-0.0186814
-0.0188843
-0.019677
-0.019314
-0.0192806
-0.0194955
-0.0190992
-0.0188843
-0.0184784
-0.019677
-0.0186814
-0.0190777
-0.0192806
-0.0203868
-0.019314
-0.019677
-0.0198504
-0.0194955
-0.0200319
-0.0203868
-0.019677
-0.0212635
-0.0200319
-0.0204703
-0.0208252
-0.0203868
-0.0211486
-0.019314
-0.0207677
-0.0202313
-0.0198504
-0.0203868
-0.0212635
-0.0211486
-0.0208252
-0.0212061
-0.0207677
-0.02239
-0.0236235
-0.0211486
-0.0230067
-0.0223861
-0.0217693
-0.02239
-0.0211486
-0.0212635
-0.0217693
-0.0212061
-0.0218268
-0.02239
-0.0233043
-0.0236235
-0.0228472
-0.0234639
-0.0230067
-0.02239
-0.0212635
-0.0233043
-0.0218268
-0.0222839
-0.0228472
-0.0251248
-0.0236235
-0.0233043
-0.0243742
-0.0234639
-0.0242146
-0.0251248
-0.0233043
-0.0260096
-0.0242146
-0.024657
-0.0255672
-0.0251248
-0.0273081
-0.0236235
-0.0262165
-0.0254658
-0.0243742
-0.0251248
-0.0260096
-0.0273081
-0.0255672
-0.0266589
-0.0262165
-0.0291357
-0.0274451
-0.0378798
-0.0282904
-0.0326625
-0.0335078
-0.0291357
-0.0260096
-0.0274451
-0.0275727
-0.0267273
-0.0282904
-0.0291357
-0.0378798
-0.0273081
-0.0335078
-0.032594
-0.0282219
-0.0291357
-0.0273081
-0.0260096
-0.0282219
-0.0266589
-0.0275727
