# vtk DataFile Version 1.0
2D Unstructured Grid of Linear Triangles
ASCII

DATASET UNSTRUCTURED_GRID
POINTS 6144 float
0.03125 0.03125 0
0 0.0625 0
0 0 0
0.015625 0.046875 0
0 0.03125 0
0.015625 0.015625 0
0.03125 0.03125 0
0.0625 0.0625 0
0 0.0625 0
0.046875 0.046875 0
0.03125 0.0625 0
0.015625 0.046875 0
0.03125 0.03125 0
0 0 0
0.0625 0 0
0.015625 0.015625 0
0.03125 0 0
0.046875 0.015625 0
0.03125 0.03125 0
0.0625 0 0
0.0625 0.0625 0
0.046875 0.015625 0
0.0625 0.03125 0
0.046875 0.046875 0
0.03125 0.09375 0
0 0.125 0
0 0.0625 0
0.015625 0.109375 0
0 0.09375 0
0.015625 0.078125 0
0.03125 0.09375 0
0 0.0625 0
0.0625 0.0625 0
0.015625 0.078125 0
0.03125 0.0625 0
0.046875 0.078125 0
0.03125 0.09375 0
0.0625 0.125 0
0 0.125 0
0.046875 0.109375 0
0.03125 0.125 0
0.015625 0.109375 0
0.03125 0.09375 0
0.0625 0.0625 0
0.0625 0.125 0
0.046875 0.078125 0
0.0625 0.09375 0
0.046875 0.109375 0
0.09375 0.09375 0
0.125 0.125 0
0.0625 0.125 0
0.109375 0.109375 0
0.09375 0.125 0
0.078125 0.109375 0
0.09375 0.09375 0
0.0625 0.125 0
0.0625 0.0625 0
0.078125 0.109375 0
0.0625 0.09375 0
0.078125 0.078125 0
0.09375 0.09375 0
0.125 0.0625 0
0.125 0.125 0
0.109375 0.078125 0
0.125 0.09375 0
0.109375 0.109375 0
0.09375 0.09375 0
0.0625 0.0625 0
0.125 0.0625 0
0.078125 0.078125 0
0.09375 0.0625 0
0.109375 0.078125 0
0.09375 0.15625 0
0.0625 0.125 0
0.125 0.125 0
0.078125 0.140625 0
0.09375 0.125 0
0.109375 0.140625 0
0.09375 0.15625 0
0.0625 0.1875 0
0.0625 0.125 0
0.078125 0.171875 0
0.0625 0.15625 0
0.078125 0.140625 0
0.09375 0.15625 0
0.125 0.125 0
0.125 0.1875 0
0.109375 0.140625 0
0.125 0.15625 0
0.109375 0.171875 0
0.09375 0.15625 0
0.125 0.1875 0
0.0625 0.1875 0
0.109375 0.171875 0
0.09375 0.1875 0
0.078125 0.171875 0
0.03125 0.15625 0
0 0.125 0
0.0625 0.125 0
0.015625 0.140625 0
0.03125 0.125 0
0.046875 0.140625 0
0.03125 0.15625 0
0.0625 0.125 0
0.0625 0.1875 0
0.046875 0.140625 0
0.0625 0.15625 0
0.046875 0.171875 0
0.03125 0.15625 0
0 0.1875 0
0 0.125 0
0.015625 0.171875 0
0 0.15625 0
0.015625 0.140625 0
0.03125 0.15625 0
0.0625 0.1875 0
0 0.1875 0
0.046875 0.171875 0
0.03125 0.1875 0
0.015625 0.171875 0
0.09375 0.03125 0
0.0625 0 0
0.125 0 0
0.078125 0.015625 0
0.09375 0 0
0.109375 0.015625 0
0.09375 0.03125 0
0.0625 0.0625 0
0.0625 0 0
0.078125 0.046875 0
0.0625 0.03125 0
0.078125 0.015625 0
0.09375 0.03125 0
0.125 0 0
0.125 0.0625 0
0.109375 0.015625 0
0.125 0.03125 0
0.109375 0.046875 0
0.09375 0.03125 0
0.125 0.0625 0
0.0625 0.0625 0
0.109375 0.046875 0
0.09375 0.0625 0
0.078125 0.046875 0
0.15625 0.09375 0
0.125 0.125 0
0.125 0.0625 0
0.140625 0.109375 0
0.125 0.09375 0
0.140625 0.078125 0
0.15625 0.09375 0
0.125 0.0625 0
0.1875 0.0625 0
0.140625 0.078125 0
0.15625 0.0625 0
0.171875 0.078125 0
0.15625 0.09375 0
0.1875 0.125 0
0.125 0.125 0
0.171875 0.109375 0
0.15625 0.125 0
0.140625 0.109375 0
0.15625 0.09375 0
0.1875 0.0625 0
0.1875 0.125 0
0.171875 0.078125 0
0.1875 0.09375 0
0.171875 0.109375 0
0.15625 0.03125 0
0.125 0.0625 0
0.125 0 0
0.140625 0.046875 0
0.125 0.03125 0
0.140625 0.015625 0
0.15625 0.03125 0
0.1875 0.0625 0
0.125 0.0625 0
0.171875 0.046875 0
0.15625 0.0625 0
0.140625 0.046875 0
0.15625 0.03125 0
0.125 0 0
0.1875 0 0
0.140625 0.015625 0
0.15625 0 0
0.171875 0.015625 0
0.15625 0.03125 0
0.1875 0 0
0.1875 0.0625 0
0.171875 0.015625 0
0.1875 0.03125 0
0.171875 0.046875 0
0.03125 0.21875 0
0 0.25 0
0 0.1875 0
0.015625 0.234375 0
0 0.21875 0
0.015625 0.203125 0
0.03125 0.21875 0
0 0.1875 0
0.0625 0.1875 0
0.015625 0.203125 0
0.03125 0.1875 0
0.046875 0.203125 0
0.03125 0.21875 0
0.0625 0.25 0
0 0.25 0
0.046875 0.234375 0
0.03125 0.25 0
0.015625 0.234375 0
0.03125 0.21875 0
0.0625 0.1875 0
0.0625 0.25 0
0.046875 0.203125 0
0.0625 0.21875 0
0.046875 0.234375 0
0.09375 0.21875 0
0.125 0.25 0
0.0625 0.25 0
0.109375 0.234375 0
0.09375 0.25 0
0.078125 0.234375 0
0.09375 0.21875 0
0.0625 0.25 0
0.0625 0.1875 0
0.078125 0.234375 0
0.0625 0.21875 0
0.078125 0.203125 0
0.09375 0.21875 0
0.125 0.1875 0
0.125 0.25 0
0.109375 0.203125 0
0.125 0.21875 0
0.109375 0.234375 0
0.09375 0.21875 0
0.0625 0.1875 0
0.125 0.1875 0
0.078125 0.203125 0
0.09375 0.1875 0
0.109375 0.203125 0
0.03125 0.28125 0
0 0.25 0
0.0625 0.25 0
0.015625 0.265625 0
0.03125 0.25 0
0.046875 0.265625 0
0.03125 0.28125 0
0.0625 0.25 0
0.0625 0.3125 0
0.046875 0.265625 0
0.0625 0.28125 0
0.046875 0.296875 0
0.03125 0.28125 0
0 0.3125 0
0 0.25 0
0.015625 0.296875 0
0 0.28125 0
0.015625 0.265625 0
0.03125 0.28125 0
0.0625 0.3125 0
0 0.3125 0
0.046875 0.296875 0
0.03125 0.3125 0
0.015625 0.296875 0
0.09375 0.28125 0
0.0625 0.25 0
0.125 0.25 0
0.078125 0.265625 0
0.09375 0.25 0
0.109375 0.265625 0
0.09375 0.28125 0
0.0625 0.3125 0
0.0625 0.25 0
0.078125 0.296875 0
0.0625 0.28125 0
0.078125 0.265625 0
0.09375 0.28125 0
0.125 0.25 0
0.125 0.3125 0
0.109375 0.265625 0
0.125 0.28125 0
0.109375 0.296875 0
0.09375 0.28125 0
0.125 0.3125 0
0.0625 0.3125 0
0.109375 0.296875 0
0.09375 0.3125 0
0.078125 0.296875 0
0.15625 0.15625 0
0.125 0.1875 0
0.125 0.125 0
0.140625 0.171875 0
0.125 0.15625 0
0.140625 0.140625 0
0.15625 0.15625 0
0.1875 0.1875 0
0.125 0.1875 0
0.171875 0.171875 0
0.15625 0.1875 0
0.140625 0.171875 0
0.15625 0.15625 0
0.125 0.125 0
0.1875 0.125 0
0.140625 0.140625 0
0.15625 0.125 0
0.171875 0.140625 0
0.15625 0.15625 0
0.1875 0.125 0
0.1875 0.1875 0
0.171875 0.140625 0
0.1875 0.15625 0
0.171875 0.171875 0
0.15625 0.21875 0
0.125 0.25 0
0.125 0.1875 0
0.140625 0.234375 0
0.125 0.21875 0
0.140625 0.203125 0
0.15625 0.21875 0
0.125 0.1875 0
0.1875 0.1875 0
0.140625 0.203125 0
0.15625 0.1875 0
0.171875 0.203125 0
0.15625 0.21875 0
0.1875 0.25 0
0.125 0.25 0
0.171875 0.234375 0
0.15625 0.25 0
0.140625 0.234375 0
0.15625 0.21875 0
0.1875 0.1875 0
0.1875 0.25 0
0.171875 0.203125 0
0.1875 0.21875 0
0.171875 0.234375 0
0.21875 0.21875 0
0.25 0.25 0
0.1875 0.25 0
0.234375 0.234375 0
0.21875 0.25 0
0.203125 0.234375 0
0.21875 0.21875 0
0.1875 0.25 0
0.1875 0.1875 0
0.203125 0.234375 0
0.1875 0.21875 0
0.203125 0.203125 0
0.21875 0.21875 0
0.25 0.1875 0
0.25 0.25 0
0.234375 0.203125 0
0.25 0.21875 0
0.234375 0.234375 0
0.21875 0.21875 0
0.1875 0.1875 0
0.25 0.1875 0
0.203125 0.203125 0
0.21875 0.1875 0
0.234375 0.203125 0
0.21875 0.28125 0
0.1875 0.25 0
0.25 0.25 0
0.203125 0.265625 0
0.21875 0.25 0
0.234375 0.265625 0
0.21875 0.28125 0
0.1875 0.3125 0
0.1875 0.25 0
0.203125 0.296875 0
0.1875 0.28125 0
0.203125 0.265625 0
0.21875 0.28125 0
0.25 0.25 0
0.25 0.3125 0
0.234375 0.265625 0
0.25 0.28125 0
0.234375 0.296875 0
0.21875 0.28125 0
0.25 0.3125 0
0.1875 0.3125 0
0.234375 0.296875 0
0.21875 0.3125 0
0.203125 0.296875 0
0.15625 0.28125 0
0.125 0.25 0
0.1875 0.25 0
0.140625 0.265625 0
0.15625 0.25 0
0.171875 0.265625 0
0.15625 0.28125 0
0.1875 0.25 0
0.1875 0.3125 0
0.171875 0.265625 0
0.1875 0.28125 0
0.171875 0.296875 0
0.15625 0.28125 0
0.125 0.3125 0
0.125 0.25 0
0.140625 0.296875 0
0.125 0.28125 0
0.140625 0.265625 0
0.15625 0.28125 0
0.1875 0.3125 0
0.125 0.3125 0
0.171875 0.296875 0
0.15625 0.3125 0
0.140625 0.296875 0
0.21875 0.15625 0
0.25 0.125 0
0.25 0.1875 0
0.234375 0.140625 0
0.25 0.15625 0
0.234375 0.171875 0
0.21875 0.15625 0
0.25 0.1875 0
0.1875 0.1875 0
0.234375 0.171875 0
0.21875 0.1875 0
0.203125 0.171875 0
0.21875 0.15625 0
0.1875 0.125 0
0.25 0.125 0
0.203125 0.140625 0
0.21875 0.125 0
0.234375 0.140625 0
0.21875 0.15625 0
0.1875 0.1875 0
0.1875 0.125 0
0.203125 0.171875 0
0.1875 0.15625 0
0.203125 0.140625 0
0.28125 0.21875 0
0.25 0.25 0
0.25 0.1875 0
0.265625 0.234375 0
0.25 0.21875 0
0.265625 0.203125 0
0.28125 0.21875 0
0.25 0.1875 0
0.3125 0.1875 0
0.265625 0.203125 0
0.28125 0.1875 0
0.296875 0.203125 0
0.28125 0.21875 0
0.3125 0.25 0
0.25 0.25 0
0.296875 0.234375 0
0.28125 0.25 0
0.265625 0.234375 0
0.28125 0.21875 0
0.3125 0.1875 0
0.3125 0.25 0
0.296875 0.203125 0
0.3125 0.21875 0
0.296875 0.234375 0
0.28125 0.15625 0
0.25 0.1875 0
0.25 0.125 0
0.265625 0.171875 0
0.25 0.15625 0
0.265625 0.140625 0
0.28125 0.15625 0
0.3125 0.1875 0
0.25 0.1875 0
0.296875 0.171875 0
0.28125 0.1875 0
0.265625 0.171875 0
0.28125 0.15625 0
0.25 0.125 0
0.3125 0.125 0
0.265625 0.140625 0
0.28125 0.125 0
0.296875 0.140625 0
0.28125 0.15625 0
0.3125 0.125 0
0.3125 0.1875 0
0.296875 0.140625 0
0.3125 0.15625 0
0.296875 0.171875 0
0.21875 0.09375 0
0.25 0.125 0
0.1875 0.125 0
0.234375 0.109375 0
0.21875 0.125 0
0.203125 0.109375 0
0.21875 0.09375 0
0.1875 0.125 0
0.1875 0.0625 0
0.203125 0.109375 0
0.1875 0.09375 0
0.203125 0.078125 0
0.21875 0.09375 0
0.25 0.0625 0
0.25 0.125 0
0.234375 0.078125 0
0.25 0.09375 0
0.234375 0.109375 0
0.21875 0.09375 0
0.1875 0.0625 0
0.25 0.0625 0
0.203125 0.078125 0
0.21875 0.0625 0
0.234375 0.078125 0
0.15625 0.34375 0
0.125 0.375 0
0.125 0.3125 0
0.140625 0.359375 0
0.125 0.34375 0
0.140625 0.328125 0
0.15625 0.34375 0
0.125 0.3125 0
0.1875 0.3125 0
0.140625 0.328125 0
0.15625 0.3125 0
0.171875 0.328125 0
0.15625 0.34375 0
0.1875 0.375 0
0.125 0.375 0
0.171875 0.359375 0
0.15625 0.375 0
0.140625 0.359375 0
0.15625 0.34375 0
0.1875 0.3125 0
0.1875 0.375 0
0.171875 0.328125 0
0.1875 0.34375 0
0.171875 0.359375 0
0.09375 0.34375 0
0.125 0.3125 0
0.125 0.375 0
0.109375 0.328125 0
0.125 0.34375 0
0.109375 0.359375 0
0.09375 0.34375 0
0.0625 0.3125 0
0.125 0.3125 0
0.078125 0.328125 0
0.09375 0.3125 0
0.109375 0.328125 0
0.09375 0.34375 0
0.125 0.375 0
0.0625 0.375 0
0.109375 0.359375 0
0.09375 0.375 0
0.078125 0.359375 0
0.09375 0.34375 0
0.0625 0.375 0
0.0625 0.3125 0
0.078125 0.359375 0
0.0625 0.34375 0
0.078125 0.328125 0
0.21875 0.34375 0
0.25 0.3125 0
0.25 0.375 0
0.234375 0.328125 0
0.25 0.34375 0
0.234375 0.359375 0
0.21875 0.34375 0
0.1875 0.3125 0
0.25 0.3125 0
0.203125 0.328125 0
0.21875 0.3125 0
0.234375 0.328125 0
0.21875 0.34375 0
0.25 0.375 0
0.1875 0.375 0
0.234375 0.359375 0
0.21875 0.375 0
0.203125 0.359375 0
0.21875 0.34375 0
0.1875 0.375 0
0.1875 0.3125 0
0.203125 0.359375 0
0.1875 0.34375 0
0.203125 0.328125 0
0.28125 0.28125 0
0.25 0.3125 0
0.25 0.25 0
0.265625 0.296875 0
0.25 0.28125 0
0.265625 0.265625 0
0.28125 0.28125 0
0.3125 0.3125 0
0.25 0.3125 0
0.296875 0.296875 0
0.28125 0.3125 0
0.265625 0.296875 0
0.28125 0.28125 0
0.25 0.25 0
0.3125 0.25 0
0.265625 0.265625 0
0.28125 0.25 0
0.296875 0.265625 0
0.28125 0.28125 0
0.3125 0.25 0
0.3125 0.3125 0
0.296875 0.265625 0
0.3125 0.28125 0
0.296875 0.296875 0
0.28125 0.34375 0
0.25 0.375 0
0.25 0.3125 0
0.265625 0.359375 0
0.25 0.34375 0
0.265625 0.328125 0
0.28125 0.34375 0
0.25 0.3125 0
0.3125 0.3125 0
0.265625 0.328125 0
0.28125 0.3125 0
0.296875 0.328125 0
0.28125 0.34375 0
0.3125 0.375 0
0.25 0.375 0
0.296875 0.359375 0
0.28125 0.375 0
0.265625 0.359375 0
0.28125 0.34375 0
0.3125 0.3125 0
0.3125 0.375 0
0.296875 0.328125 0
0.3125 0.34375 0
0.296875 0.359375 0
0.15625 0.40625 0
0.125 0.375 0
0.1875 0.375 0
0.140625 0.390625 0
0.15625 0.375 0
0.171875 0.390625 0
0.15625 0.40625 0
0.1875 0.375 0
0.1875 0.4375 0
0.171875 0.390625 0
0.1875 0.40625 0
0.171875 0.421875 0
0.15625 0.40625 0
0.125 0.4375 0
0.125 0.375 0
0.140625 0.421875 0
0.125 0.40625 0
0.140625 0.390625 0
0.15625 0.40625 0
0.1875 0.4375 0
0.125 0.4375 0
0.171875 0.421875 0
0.15625 0.4375 0
0.140625 0.421875 0
0.21875 0.40625 0
0.1875 0.375 0
0.25 0.375 0
0.203125 0.390625 0
0.21875 0.375 0
0.234375 0.390625 0
0.21875 0.40625 0
0.1875 0.4375 0
0.1875 0.375 0
0.203125 0.421875 0
0.1875 0.40625 0
0.203125 0.390625 0
0.21875 0.40625 0
0.25 0.375 0
0.25 0.4375 0
0.234375 0.390625 0
0.25 0.40625 0
0.234375 0.421875 0
0.21875 0.40625 0
0.25 0.4375 0
0.1875 0.4375 0
0.234375 0.421875 0
0.21875 0.4375 0
0.203125 0.421875 0
0.03125 0.34375 0
0 0.375 0
0 0.3125 0
0.015625 0.359375 0
0 0.34375 0
0.015625 0.328125 0
0.03125 0.34375 0
0 0.3125 0
0.0625 0.3125 0
0.015625 0.328125 0
0.03125 0.3125 0
0.046875 0.328125 0
0.03125 0.34375 0
0.0625 0.375 0
0 0.375 0
0.046875 0.359375 0
0.03125 0.375 0
0.015625 0.359375 0
0.03125 0.34375 0
0.0625 0.3125 0
0.0625 0.375 0
0.046875 0.328125 0
0.0625 0.34375 0
0.046875 0.359375 0
0.09375 0.40625 0
0.0625 0.375 0
0.125 0.375 0
0.078125 0.390625 0
0.09375 0.375 0
0.109375 0.390625 0
0.09375 0.40625 0
0.0625 0.4375 0
0.0625 0.375 0
0.078125 0.421875 0
0.0625 0.40625 0
0.078125 0.390625 0
0.09375 0.40625 0
0.125 0.375 0
0.125 0.4375 0
0.109375 0.390625 0
0.125 0.40625 0
0.109375 0.421875 0
0.09375 0.40625 0
0.125 0.4375 0
0.0625 0.4375 0
0.109375 0.421875 0
0.09375 0.4375 0
0.078125 0.421875 0
0.03125 0.40625 0
0 0.375 0
0.0625 0.375 0
0.015625 0.390625 0
0.03125 0.375 0
0.046875 0.390625 0
0.03125 0.40625 0
0.0625 0.375 0
0.0625 0.4375 0
0.046875 0.390625 0
0.0625 0.40625 0
0.046875 0.421875 0
0.03125 0.40625 0
0 0.4375 0
0 0.375 0
0.015625 0.421875 0
0 0.40625 0
0.015625 0.390625 0
0.03125 0.40625 0
0.0625 0.4375 0
0 0.4375 0
0.046875 0.421875 0
0.03125 0.4375 0
0.015625 0.421875 0
0.21875 0.03125 0
0.1875 0 0
0.25 0 0
0.203125 0.015625 0
0.21875 0 0
0.234375 0.015625 0
0.21875 0.03125 0
0.1875 0.0625 0
0.1875 0 0
0.203125 0.046875 0
0.1875 0.03125 0
0.203125 0.015625 0
0.21875 0.03125 0
0.25 0 0
0.25 0.0625 0
0.234375 0.015625 0
0.25 0.03125 0
0.234375 0.046875 0
0.21875 0.03125 0
0.25 0.0625 0
0.1875 0.0625 0
0.234375 0.046875 0
0.21875 0.0625 0
0.203125 0.046875 0
0.28125 0.03125 0
0.25 0.0625 0
0.25 0 0
0.265625 0.046875 0
0.25 0.03125 0
0.265625 0.015625 0
0.28125 0.03125 0
0.3125 0.0625 0
0.25 0.0625 0
0.296875 0.046875 0
0.28125 0.0625 0
0.265625 0.046875 0
0.28125 0.03125 0
0.25 0 0
0.3125 0 0
0.265625 0.015625 0
0.28125 0 0
0.296875 0.015625 0
0.28125 0.03125 0
0.3125 0 0
0.3125 0.0625 0
0.296875 0.015625 0
0.3125 0.03125 0
0.296875 0.046875 0
0.28125 0.09375 0
0.25 0.125 0
0.25 0.0625 0
0.265625 0.109375 0
0.25 0.09375 0
0.265625 0.078125 0
0.28125 0.09375 0
0.25 0.0625 0
0.3125 0.0625 0
0.265625 0.078125 0
0.28125 0.0625 0
0.296875 0.078125 0
0.28125 0.09375 0
0.3125 0.125 0
0.25 0.125 0
0.296875 0.109375 0
0.28125 0.125 0
0.265625 0.109375 0
0.28125 0.09375 0
0.3125 0.0625 0
0.3125 0.125 0
0.296875 0.078125 0
0.3125 0.09375 0
0.296875 0.109375 0
0.34375 0.15625 0
0.3125 0.125 0
0.375 0.125 0
0.328125 0.140625 0
0.34375 0.125 0
0.359375 0.140625 0
0.34375 0.15625 0
0.3125 0.1875 0
0.3125 0.125 0
0.328125 0.171875 0
0.3125 0.15625 0
0.328125 0.140625 0
0.34375 0.15625 0
0.375 0.125 0
0.375 0.1875 0
0.359375 0.140625 0
0.375 0.15625 0
0.359375 0.171875 0
0.34375 0.15625 0
0.375 0.1875 0
0.3125 0.1875 0
0.359375 0.171875 0
0.34375 0.1875 0
0.328125 0.171875 0
0.34375 0.09375 0
0.375 0.125 0
0.3125 0.125 0
0.359375 0.109375 0
0.34375 0.125 0
0.328125 0.109375 0
0.34375 0.09375 0
0.3125 0.125 0
0.3125 0.0625 0
0.328125 0.109375 0
0.3125 0.09375 0
0.328125 0.078125 0
0.34375 0.09375 0
0.375 0.0625 0
0.375 0.125 0
0.359375 0.078125 0
0.375 0.09375 0
0.359375 0.109375 0
0.34375 0.09375 0
0.3125 0.0625 0
0.375 0.0625 0
0.328125 0.078125 0
0.34375 0.0625 0
0.359375 0.078125 0
0.34375 0.21875 0
0.375 0.25 0
0.3125 0.25 0
0.359375 0.234375 0
0.34375 0.25 0
0.328125 0.234375 0
0.34375 0.21875 0
0.3125 0.25 0
0.3125 0.1875 0
0.328125 0.234375 0
0.3125 0.21875 0
0.328125 0.203125 0
0.34375 0.21875 0
0.375 0.1875 0
0.375 0.25 0
0.359375 0.203125 0
0.375 0.21875 0
0.359375 0.234375 0
0.34375 0.21875 0
0.3125 0.1875 0
0.375 0.1875 0
0.328125 0.203125 0
0.34375 0.1875 0
0.359375 0.203125 0
0.34375 0.28125 0
0.3125 0.25 0
0.375 0.25 0
0.328125 0.265625 0
0.34375 0.25 0
0.359375 0.265625 0
0.34375 0.28125 0
0.3125 0.3125 0
0.3125 0.25 0
0.328125 0.296875 0
0.3125 0.28125 0
0.328125 0.265625 0
0.34375 0.28125 0
0.375 0.25 0
0.375 0.3125 0
0.359375 0.265625 0
0.375 0.28125 0
0.359375 0.296875 0
0.34375 0.28125 0
0.375 0.3125 0
0.3125 0.3125 0
0.359375 0.296875 0
0.34375 0.3125 0
0.328125 0.296875 0
0.40625 0.15625 0
0.375 0.1875 0
0.375 0.125 0
0.390625 0.171875 0
0.375 0.15625 0
0.390625 0.140625 0
0.40625 0.15625 0
0.4375 0.1875 0
0.375 0.1875 0
0.421875 0.171875 0
0.40625 0.1875 0
0.390625 0.171875 0
0.40625 0.15625 0
0.375 0.125 0
0.4375 0.125 0
0.390625 0.140625 0
0.40625 0.125 0
0.421875 0.140625 0
0.40625 0.15625 0
0.4375 0.125 0
0.4375 0.1875 0
0.421875 0.140625 0
0.4375 0.15625 0
0.421875 0.171875 0
0.40625 0.21875 0
0.375 0.25 0
0.375 0.1875 0
0.390625 0.234375 0
0.375 0.21875 0
0.390625 0.203125 0
0.40625 0.21875 0
0.375 0.1875 0
0.4375 0.1875 0
0.390625 0.203125 0
0.40625 0.1875 0
0.421875 0.203125 0
0.40625 0.21875 0
0.4375 0.25 0
0.375 0.25 0
0.421875 0.234375 0
0.40625 0.25 0
0.390625 0.234375 0
0.40625 0.21875 0
0.4375 0.1875 0
0.4375 0.25 0
0.421875 0.203125 0
0.4375 0.21875 0
0.421875 0.234375 0
0.34375 0.03125 0
0.3125 0 0
0.375 0 0
0.328125 0.015625 0
0.34375 0 0
0.359375 0.015625 0
0.34375 0.03125 0
0.3125 0.0625 0
0.3125 0 0
0.328125 0.046875 0
0.3125 0.03125 0
0.328125 0.015625 0
0.34375 0.03125 0
0.375 0 0
0.375 0.0625 0
0.359375 0.015625 0
0.375 0.03125 0
0.359375 0.046875 0
0.34375 0.03125 0
0.375 0.0625 0
0.3125 0.0625 0
0.359375 0.046875 0
0.34375 0.0625 0
0.328125 0.046875 0
0.40625 0.09375 0
0.375 0.125 0
0.375 0.0625 0
0.390625 0.109375 0
0.375 0.09375 0
0.390625 0.078125 0
0.40625 0.09375 0
0.375 0.0625 0
0.4375 0.0625 0
0.390625 0.078125 0
0.40625 0.0625 0
0.421875 0.078125 0
0.40625 0.09375 0
0.4375 0.125 0
0.375 0.125 0
0.421875 0.109375 0
0.40625 0.125 0
0.390625 0.109375 0
0.40625 0.09375 0
0.4375 0.0625 0
0.4375 0.125 0
0.421875 0.078125 0
0.4375 0.09375 0
0.421875 0.109375 0
0.40625 0.03125 0
0.375 0.0625 0
0.375 0 0
0.390625 0.046875 0
0.375 0.03125 0
0.390625 0.015625 0
0.40625 0.03125 0
0.4375 0.0625 0
0.375 0.0625 0
0.421875 0.046875 0
0.40625 0.0625 0
0.390625 0.046875 0
0.40625 0.03125 0
0.375 0 0
0.4375 0 0
0.390625 0.015625 0
0.40625 0 0
0.421875 0.015625 0
0.40625 0.03125 0
0.4375 0 0
0.4375 0.0625 0
0.421875 0.015625 0
0.4375 0.03125 0
0.421875 0.046875 0
0.03125 0.46875 0
0 0.5 0
0 0.4375 0
0.015625 0.484375 0
0 0.46875 0
0.015625 0.453125 0
0.03125 0.46875 0
0 0.4375 0
0.0625 0.4375 0
0.015625 0.453125 0
0.03125 0.4375 0
0.046875 0.453125 0
0.03125 0.46875 0
0.0625 0.5 0
0 0.5 0
0.046875 0.484375 0
0.03125 0.5 0
0.015625 0.484375 0
0.03125 0.46875 0
0.0625 0.4375 0
0.0625 0.5 0
0.046875 0.453125 0
0.0625 0.46875 0
0.046875 0.484375 0
0.09375 0.46875 0
0.125 0.5 0
0.0625 0.5 0
0.109375 0.484375 0
0.09375 0.5 0
0.078125 0.484375 0
0.09375 0.46875 0
0.0625 0.5 0
0.0625 0.4375 0
0.078125 0.484375 0
0.0625 0.46875 0
0.078125 0.453125 0
0.09375 0.46875 0
0.125 0.4375 0
0.125 0.5 0
0.109375 0.453125 0
0.125 0.46875 0
0.109375 0.484375 0
0.09375 0.46875 0
0.0625 0.4375 0
0.125 0.4375 0
0.078125 0.453125 0
0.09375 0.4375 0
0.109375 0.453125 0
0.03125 0.53125 0
0 0.5 0
0.0625 0.5 0
0.015625 0.515625 0
0.03125 0.5 0
0.046875 0.515625 0
0.03125 0.53125 0
0.0625 0.5 0
0.0625 0.5625 0
0.046875 0.515625 0
0.0625 0.53125 0
0.046875 0.546875 0
0.03125 0.53125 0
0 0.5625 0
0 0.5 0
0.015625 0.546875 0
0 0.53125 0
0.015625 0.515625 0
0.03125 0.53125 0
0.0625 0.5625 0
0 0.5625 0
0.046875 0.546875 0
0.03125 0.5625 0
0.015625 0.546875 0
0.09375 0.53125 0
0.0625 0.5 0
0.125 0.5 0
0.078125 0.515625 0
0.09375 0.5 0
0.109375 0.515625 0
0.09375 0.53125 0
0.0625 0.5625 0
0.0625 0.5 0
0.078125 0.546875 0
0.0625 0.53125 0
0.078125 0.515625 0
0.09375 0.53125 0
0.125 0.5 0
0.125 0.5625 0
0.109375 0.515625 0
0.125 0.53125 0
0.109375 0.546875 0
0.09375 0.53125 0
0.125 0.5625 0
0.0625 0.5625 0
0.109375 0.546875 0
0.09375 0.5625 0
0.078125 0.546875 0
0.15625 0.46875 0
0.125 0.5 0
0.125 0.4375 0
0.140625 0.484375 0
0.125 0.46875 0
0.140625 0.453125 0
0.15625 0.46875 0
0.125 0.4375 0
0.1875 0.4375 0
0.140625 0.453125 0
0.15625 0.4375 0
0.171875 0.453125 0
0.15625 0.46875 0
0.1875 0.5 0
0.125 0.5 0
0.171875 0.484375 0
0.15625 0.5 0
0.140625 0.484375 0
0.15625 0.46875 0
0.1875 0.4375 0
0.1875 0.5 0
0.171875 0.453125 0
0.1875 0.46875 0
0.171875 0.484375 0
0.21875 0.46875 0
0.25 0.5 0
0.1875 0.5 0
0.234375 0.484375 0
0.21875 0.5 0
0.203125 0.484375 0
0.21875 0.46875 0
0.1875 0.5 0
0.1875 0.4375 0
0.203125 0.484375 0
0.1875 0.46875 0
0.203125 0.453125 0
0.21875 0.46875 0
0.25 0.4375 0
0.25 0.5 0
0.234375 0.453125 0
0.25 0.46875 0
0.234375 0.484375 0
0.21875 0.46875 0
0.1875 0.4375 0
0.25 0.4375 0
0.203125 0.453125 0
0.21875 0.4375 0
0.234375 0.453125 0
0.21875 0.53125 0
0.1875 0.5 0
0.25 0.5 0
0.203125 0.515625 0
0.21875 0.5 0
0.234375 0.515625 0
0.21875 0.53125 0
0.1875 0.5625 0
0.1875 0.5 0
0.203125 0.546875 0
0.1875 0.53125 0
0.203125 0.515625 0
0.21875 0.53125 0
0.25 0.5 0
0.25 0.5625 0
0.234375 0.515625 0
0.25 0.53125 0
0.234375 0.546875 0
0.21875 0.53125 0
0.25 0.5625 0
0.1875 0.5625 0
0.234375 0.546875 0
0.21875 0.5625 0
0.203125 0.546875 0
0.15625 0.53125 0
0.125 0.5 0
0.1875 0.5 0
0.140625 0.515625 0
0.15625 0.5 0
0.171875 0.515625 0
0.15625 0.53125 0
0.1875 0.5 0
0.1875 0.5625 0
0.171875 0.515625 0
0.1875 0.53125 0
0.171875 0.546875 0
0.15625 0.53125 0
0.125 0.5625 0
0.125 0.5 0
0.140625 0.546875 0
0.125 0.53125 0
0.140625 0.515625 0
0.15625 0.53125 0
0.1875 0.5625 0
0.125 0.5625 0
0.171875 0.546875 0
0.15625 0.5625 0
0.140625 0.546875 0
0.28125 0.46875 0
0.25 0.5 0
0.25 0.4375 0
0.265625 0.484375 0
0.25 0.46875 0
0.265625 0.453125 0
0.28125 0.46875 0
0.25 0.4375 0
0.3125 0.4375 0
0.265625 0.453125 0
0.28125 0.4375 0
0.296875 0.453125 0
0.28125 0.46875 0
0.3125 0.5 0
0.25 0.5 0
0.296875 0.484375 0
0.28125 0.5 0
0.265625 0.484375 0
0.28125 0.46875 0
0.3125 0.4375 0
0.3125 0.5 0
0.296875 0.453125 0
0.3125 0.46875 0
0.296875 0.484375 0
0.28125 0.40625 0
0.25 0.4375 0
0.25 0.375 0
0.265625 0.421875 0
0.25 0.40625 0
0.265625 0.390625 0
0.28125 0.40625 0
0.3125 0.4375 0
0.25 0.4375 0
0.296875 0.421875 0
0.28125 0.4375 0
0.265625 0.421875 0
0.28125 0.40625 0
0.25 0.375 0
0.3125 0.375 0
0.265625 0.390625 0
0.28125 0.375 0
0.296875 0.390625 0
0.28125 0.40625 0
0.3125 0.375 0
0.3125 0.4375 0
0.296875 0.390625 0
0.3125 0.40625 0
0.296875 0.421875 0
0.09375 0.59375 0
0.125 0.5625 0
0.125 0.625 0
0.109375 0.578125 0
0.125 0.59375 0
0.109375 0.609375 0
0.09375 0.59375 0
0.0625 0.5625 0
0.125 0.5625 0
0.078125 0.578125 0
0.09375 0.5625 0
0.109375 0.578125 0
0.09375 0.59375 0
0.125 0.625 0
0.0625 0.625 0
0.109375 0.609375 0
0.09375 0.625 0
0.078125 0.609375 0
0.09375 0.59375 0
0.0625 0.625 0
0.0625 0.5625 0
0.078125 0.609375 0
0.0625 0.59375 0
0.078125 0.578125 0
0.15625 0.59375 0
0.125 0.625 0
0.125 0.5625 0
0.140625 0.609375 0
0.125 0.59375 0
0.140625 0.578125 0
0.15625 0.59375 0
0.125 0.5625 0
0.1875 0.5625 0
0.140625 0.578125 0
0.15625 0.5625 0
0.171875 0.578125 0
0.15625 0.59375 0
0.1875 0.625 0
0.125 0.625 0
0.171875 0.609375 0
0.15625 0.625 0
0.140625 0.609375 0
0.15625 0.59375 0
0.1875 0.5625 0
0.1875 0.625 0
0.171875 0.578125 0
0.1875 0.59375 0
0.171875 0.609375 0
0.03125 0.59375 0
0 0.625 0
0 0.5625 0
0.015625 0.609375 0
0 0.59375 0
0.015625 0.578125 0
0.03125 0.59375 0
0 0.5625 0
0.0625 0.5625 0
0.015625 0.578125 0
0.03125 0.5625 0
0.046875 0.578125 0
0.03125 0.59375 0
0.0625 0.625 0
0 0.625 0
0.046875 0.609375 0
0.03125 0.625 0
0.015625 0.609375 0
0.03125 0.59375 0
0.0625 0.5625 0
0.0625 0.625 0
0.046875 0.578125 0
0.0625 0.59375 0
0.046875 0.609375 0
0.09375 0.65625 0
0.0625 0.625 0
0.125 0.625 0
0.078125 0.640625 0
0.09375 0.625 0
0.109375 0.640625 0
0.09375 0.65625 0
0.0625 0.6875 0
0.0625 0.625 0
0.078125 0.671875 0
0.0625 0.65625 0
0.078125 0.640625 0
0.09375 0.65625 0
0.125 0.625 0
0.125 0.6875 0
0.109375 0.640625 0
0.125 0.65625 0
0.109375 0.671875 0
0.09375 0.65625 0
0.125 0.6875 0
0.0625 0.6875 0
0.109375 0.671875 0
0.09375 0.6875 0
0.078125 0.671875 0
0.03125 0.65625 0
0 0.625 0
0.0625 0.625 0
0.015625 0.640625 0
0.03125 0.625 0
0.046875 0.640625 0
0.03125 0.65625 0
0.0625 0.625 0
0.0625 0.6875 0
0.046875 0.640625 0
0.0625 0.65625 0
0.046875 0.671875 0
0.03125 0.65625 0
0 0.6875 0
0 0.625 0
0.015625 0.671875 0
0 0.65625 0
0.015625 0.640625 0
0.03125 0.65625 0
0.0625 0.6875 0
0 0.6875 0
0.046875 0.671875 0
0.03125 0.6875 0
0.015625 0.671875 0
0.21875 0.59375 0
0.25 0.5625 0
0.25 0.625 0
0.234375 0.578125 0
0.25 0.59375 0
0.234375 0.609375 0
0.21875 0.59375 0
0.1875 0.5625 0
0.25 0.5625 0
0.203125 0.578125 0
0.21875 0.5625 0
0.234375 0.578125 0
0.21875 0.59375 0
0.25 0.625 0
0.1875 0.625 0
0.234375 0.609375 0
0.21875 0.625 0
0.203125 0.609375 0
0.21875 0.59375 0
0.1875 0.625 0
0.1875 0.5625 0
0.203125 0.609375 0
0.1875 0.59375 0
0.203125 0.578125 0
0.28125 0.53125 0
0.25 0.5625 0
0.25 0.5 0
0.265625 0.546875 0
0.25 0.53125 0
0.265625 0.515625 0
0.28125 0.53125 0
0.3125 0.5625 0
0.25 0.5625 0
0.296875 0.546875 0
0.28125 0.5625 0
0.265625 0.546875 0
0.28125 0.53125 0
0.25 0.5 0
0.3125 0.5 0
0.265625 0.515625 0
0.28125 0.5 0
0.296875 0.515625 0
0.28125 0.53125 0
0.3125 0.5 0
0.3125 0.5625 0
0.296875 0.515625 0
0.3125 0.53125 0
0.296875 0.546875 0
0.28125 0.59375 0
0.25 0.625 0
0.25 0.5625 0
0.265625 0.609375 0
0.25 0.59375 0
0.265625 0.578125 0
0.28125 0.59375 0
0.25 0.5625 0
0.3125 0.5625 0
0.265625 0.578125 0
0.28125 0.5625 0
0.296875 0.578125 0
0.28125 0.59375 0
0.3125 0.625 0
0.25 0.625 0
0.296875 0.609375 0
0.28125 0.625 0
0.265625 0.609375 0
0.28125 0.59375 0
0.3125 0.5625 0
0.3125 0.625 0
0.296875 0.578125 0
0.3125 0.59375 0
0.296875 0.609375 0
0.15625 0.65625 0
0.125 0.625 0
0.1875 0.625 0
0.140625 0.640625 0
0.15625 0.625 0
0.171875 0.640625 0
0.15625 0.65625 0
0.1875 0.625 0
0.1875 0.6875 0
0.171875 0.640625 0
0.1875 0.65625 0
0.171875 0.671875 0
0.15625 0.65625 0
0.125 0.6875 0
0.125 0.625 0
0.140625 0.671875 0
0.125 0.65625 0
0.140625 0.640625 0
0.15625 0.65625 0
0.1875 0.6875 0
0.125 0.6875 0
0.171875 0.671875 0
0.15625 0.6875 0
0.140625 0.671875 0
0.21875 0.65625 0
0.1875 0.625 0
0.25 0.625 0
0.203125 0.640625 0
0.21875 0.625 0
0.234375 0.640625 0
0.21875 0.65625 0
0.1875 0.6875 0
0.1875 0.625 0
0.203125 0.671875 0
0.1875 0.65625 0
0.203125 0.640625 0
0.21875 0.65625 0
0.25 0.625 0
0.25 0.6875 0
0.234375 0.640625 0
0.25 0.65625 0
0.234375 0.671875 0
0.21875 0.65625 0
0.25 0.6875 0
0.1875 0.6875 0
0.234375 0.671875 0
0.21875 0.6875 0
0.203125 0.671875 0
0.34375 0.34375 0
0.375 0.375 0
0.3125 0.375 0
0.359375 0.359375 0
0.34375 0.375 0
0.328125 0.359375 0
0.34375 0.34375 0
0.3125 0.375 0
0.3125 0.3125 0
0.328125 0.359375 0
0.3125 0.34375 0
0.328125 0.328125 0
0.34375 0.34375 0
0.375 0.3125 0
0.375 0.375 0
0.359375 0.328125 0
0.375 0.34375 0
0.359375 0.359375 0
0.34375 0.34375 0
0.3125 0.3125 0
0.375 0.3125 0
0.328125 0.328125 0
0.34375 0.3125 0
0.359375 0.328125 0
0.34375 0.40625 0
0.3125 0.375 0
0.375 0.375 0
0.328125 0.390625 0
0.34375 0.375 0
0.359375 0.390625 0
0.34375 0.40625 0
0.3125 0.4375 0
0.3125 0.375 0
0.328125 0.421875 0
0.3125 0.40625 0
0.328125 0.390625 0
0.34375 0.40625 0
0.375 0.375 0
0.375 0.4375 0
0.359375 0.390625 0
0.375 0.40625 0
0.359375 0.421875 0
0.34375 0.40625 0
0.375 0.4375 0
0.3125 0.4375 0
0.359375 0.421875 0
0.34375 0.4375 0
0.328125 0.421875 0
0.40625 0.34375 0
0.375 0.375 0
0.375 0.3125 0
0.390625 0.359375 0
0.375 0.34375 0
0.390625 0.328125 0
0.40625 0.34375 0
0.375 0.3125 0
0.4375 0.3125 0
0.390625 0.328125 0
0.40625 0.3125 0
0.421875 0.328125 0
0.40625 0.34375 0
0.4375 0.375 0
0.375 0.375 0
0.421875 0.359375 0
0.40625 0.375 0
0.390625 0.359375 0
0.40625 0.34375 0
0.4375 0.3125 0
0.4375 0.375 0
0.421875 0.328125 0
0.4375 0.34375 0
0.421875 0.359375 0
0.40625 0.28125 0
0.375 0.3125 0
0.375 0.25 0
0.390625 0.296875 0
0.375 0.28125 0
0.390625 0.265625 0
0.40625 0.28125 0
0.4375 0.3125 0
0.375 0.3125 0
0.421875 0.296875 0
0.40625 0.3125 0
0.390625 0.296875 0
0.40625 0.28125 0
0.375 0.25 0
0.4375 0.25 0
0.390625 0.265625 0
0.40625 0.25 0
0.421875 0.265625 0
0.40625 0.28125 0
0.4375 0.25 0
0.4375 0.3125 0
0.421875 0.265625 0
0.4375 0.28125 0
0.421875 0.296875 0
0.34375 0.46875 0
0.375 0.5 0
0.3125 0.5 0
0.359375 0.484375 0
0.34375 0.5 0
0.328125 0.484375 0
0.34375 0.46875 0
0.3125 0.5 0
0.3125 0.4375 0
0.328125 0.484375 0
0.3125 0.46875 0
0.328125 0.453125 0
0.34375 0.46875 0
0.375 0.4375 0
0.375 0.5 0
0.359375 0.453125 0
0.375 0.46875 0
0.359375 0.484375 0
0.34375 0.46875 0
0.3125 0.4375 0
0.375 0.4375 0
0.328125 0.453125 0
0.34375 0.4375 0
0.359375 0.453125 0
0.34375 0.53125 0
0.3125 0.5 0
0.375 0.5 0
0.328125 0.515625 0
0.34375 0.5 0
0.359375 0.515625 0
0.34375 0.53125 0
0.3125 0.5625 0
0.3125 0.5 0
0.328125 0.546875 0
0.3125 0.53125 0
0.328125 0.515625 0
0.34375 0.53125 0
0.375 0.5 0
0.375 0.5625 0
0.359375 0.515625 0
0.375 0.53125 0
0.359375 0.546875 0
0.34375 0.53125 0
0.375 0.5625 0
0.3125 0.5625 0
0.359375 0.546875 0
0.34375 0.5625 0
0.328125 0.546875 0
0.40625 0.40625 0
0.375 0.4375 0
0.375 0.375 0
0.390625 0.421875 0
0.375 0.40625 0
0.390625 0.390625 0
0.40625 0.40625 0
0.4375 0.4375 0
0.375 0.4375 0
0.421875 0.421875 0
0.40625 0.4375 0
0.390625 0.421875 0
0.40625 0.40625 0
0.375 0.375 0
0.4375 0.375 0
0.390625 0.390625 0
0.40625 0.375 0
0.421875 0.390625 0
0.40625 0.40625 0
0.4375 0.375 0
0.4375 0.4375 0
0.421875 0.390625 0
0.4375 0.40625 0
0.421875 0.421875 0
0.40625 0.46875 0
0.375 0.5 0
0.375 0.4375 0
0.390625 0.484375 0
0.375 0.46875 0
0.390625 0.453125 0
0.40625 0.46875 0
0.375 0.4375 0
0.4375 0.4375 0
0.390625 0.453125 0
0.40625 0.4375 0
0.421875 0.453125 0
0.40625 0.46875 0
0.4375 0.5 0
0.375 0.5 0
0.421875 0.484375 0
0.40625 0.5 0
0.390625 0.484375 0
0.40625 0.46875 0
0.4375 0.4375 0
0.4375 0.5 0
0.421875 0.453125 0
0.4375 0.46875 0
0.421875 0.484375 0
0.46875 0.46875 0
0.5 0.5 0
0.4375 0.5 0
0.484375 0.484375 0
0.46875 0.5 0
0.453125 0.484375 0
0.46875 0.46875 0
0.4375 0.5 0
0.4375 0.4375 0
0.453125 0.484375 0
0.4375 0.46875 0
0.453125 0.453125 0
0.46875 0.46875 0
0.5 0.4375 0
0.5 0.5 0
0.484375 0.453125 0
0.5 0.46875 0
0.484375 0.484375 0
0.46875 0.46875 0
0.4375 0.4375 0
0.5 0.4375 0
0.453125 0.453125 0
0.46875 0.4375 0
0.484375 0.453125 0
0.46875 0.53125 0
0.4375 0.5 0
0.5 0.5 0
0.453125 0.515625 0
0.46875 0.5 0
0.484375 0.515625 0
0.46875 0.53125 0
0.4375 0.5625 0
0.4375 0.5 0
0.453125 0.546875 0
0.4375 0.53125 0
0.453125 0.515625 0
0.46875 0.53125 0
0.5 0.5 0
0.5 0.5625 0
0.484375 0.515625 0
0.5 0.53125 0
0.484375 0.546875 0
0.46875 0.53125 0
0.5 0.5625 0
0.4375 0.5625 0
0.484375 0.546875 0
0.46875 0.5625 0
0.453125 0.546875 0
0.40625 0.53125 0
0.375 0.5 0
0.4375 0.5 0
0.390625 0.515625 0
0.40625 0.5 0
0.421875 0.515625 0
0.40625 0.53125 0
0.4375 0.5 0
0.4375 0.5625 0
0.421875 0.515625 0
0.4375 0.53125 0
0.421875 0.546875 0
0.40625 0.53125 0
0.375 0.5625 0
0.375 0.5 0
0.390625 0.546875 0
0.375 0.53125 0
0.390625 0.515625 0
0.40625 0.53125 0
0.4375 0.5625 0
0.375 0.5625 0
0.421875 0.546875 0
0.40625 0.5625 0
0.390625 0.546875 0
0.46875 0.40625 0
0.5 0.375 0
0.5 0.4375 0
0.484375 0.390625 0
0.5 0.40625 0
0.484375 0.421875 0
0.46875 0.40625 0
0.5 0.4375 0
0.4375 0.4375 0
0.484375 0.421875 0
0.46875 0.4375 0
0.453125 0.421875 0
0.46875 0.40625 0
0.4375 0.375 0
0.5 0.375 0
0.453125 0.390625 0
0.46875 0.375 0
0.484375 0.390625 0
0.46875 0.40625 0
0.4375 0.4375 0
0.4375 0.375 0
0.453125 0.421875 0
0.4375 0.40625 0
0.453125 0.390625 0
0.53125 0.46875 0
0.5 0.5 0
0.5 0.4375 0
0.515625 0.484375 0
0.5 0.46875 0
0.515625 0.453125 0
0.53125 0.46875 0
0.5 0.4375 0
0.5625 0.4375 0
0.515625 0.453125 0
0.53125 0.4375 0
0.546875 0.453125 0
0.53125 0.46875 0
0.5625 0.5 0
0.5 0.5 0
0.546875 0.484375 0
0.53125 0.5 0
0.515625 0.484375 0
0.53125 0.46875 0
0.5625 0.4375 0
0.5625 0.5 0
0.546875 0.453125 0
0.5625 0.46875 0
0.546875 0.484375 0
0.53125 0.40625 0
0.5 0.4375 0
0.5 0.375 0
0.515625 0.421875 0
0.5 0.40625 0
0.515625 0.390625 0
0.53125 0.40625 0
0.5625 0.4375 0
0.5 0.4375 0
0.546875 0.421875 0
0.53125 0.4375 0
0.515625 0.421875 0
0.53125 0.40625 0
0.5 0.375 0
0.5625 0.375 0
0.515625 0.390625 0
0.53125 0.375 0
0.546875 0.390625 0
0.53125 0.40625 0
0.5625 0.375 0
0.5625 0.4375 0
0.546875 0.390625 0
0.5625 0.40625 0
0.546875 0.421875 0
0.46875 0.34375 0
0.5 0.375 0
0.4375 0.375 0
0.484375 0.359375 0
0.46875 0.375 0
0.453125 0.359375 0
0.46875 0.34375 0
0.4375 0.375 0
0.4375 0.3125 0
0.453125 0.359375 0
0.4375 0.34375 0
0.453125 0.328125 0
0.46875 0.34375 0
0.5 0.3125 0
0.5 0.375 0
0.484375 0.328125 0
0.5 0.34375 0
0.484375 0.359375 0
0.46875 0.34375 0
0.4375 0.3125 0
0.5 0.3125 0
0.453125 0.328125 0
0.46875 0.3125 0
0.484375 0.328125 0
0.40625 0.59375 0
0.375 0.625 0
0.375 0.5625 0
0.390625 0.609375 0
0.375 0.59375 0
0.390625 0.578125 0
0.40625 0.59375 0
0.375 0.5625 0
0.4375 0.5625 0
0.390625 0.578125 0
0.40625 0.5625 0
0.421875 0.578125 0
0.40625 0.59375 0
0.4375 0.625 0
0.375 0.625 0
0.421875 0.609375 0
0.40625 0.625 0
0.390625 0.609375 0
0.40625 0.59375 0
0.4375 0.5625 0
0.4375 0.625 0
0.421875 0.578125 0
0.4375 0.59375 0
0.421875 0.609375 0
0.34375 0.59375 0
0.375 0.5625 0
0.375 0.625 0
0.359375 0.578125 0
0.375 0.59375 0
0.359375 0.609375 0
0.34375 0.59375 0
0.3125 0.5625 0
0.375 0.5625 0
0.328125 0.578125 0
0.34375 0.5625 0
0.359375 0.578125 0
0.34375 0.59375 0
0.375 0.625 0
0.3125 0.625 0
0.359375 0.609375 0
0.34375 0.625 0
0.328125 0.609375 0
0.34375 0.59375 0
0.3125 0.625 0
0.3125 0.5625 0
0.328125 0.609375 0
0.3125 0.59375 0
0.328125 0.578125 0
0.46875 0.59375 0
0.5 0.5625 0
0.5 0.625 0
0.484375 0.578125 0
0.5 0.59375 0
0.484375 0.609375 0
0.46875 0.59375 0
0.4375 0.5625 0
0.5 0.5625 0
0.453125 0.578125 0
0.46875 0.5625 0
0.484375 0.578125 0
0.46875 0.59375 0
0.5 0.625 0
0.4375 0.625 0
0.484375 0.609375 0
0.46875 0.625 0
0.453125 0.609375 0
0.46875 0.59375 0
0.4375 0.625 0
0.4375 0.5625 0
0.453125 0.609375 0
0.4375 0.59375 0
0.453125 0.578125 0
0.53125 0.53125 0
0.5 0.5625 0
0.5 0.5 0
0.515625 0.546875 0
0.5 0.53125 0
0.515625 0.515625 0
0.53125 0.53125 0
0.5625 0.5625 0
0.5 0.5625 0
0.546875 0.546875 0
0.53125 0.5625 0
0.515625 0.546875 0
0.53125 0.53125 0
0.5 0.5 0
0.5625 0.5 0
0.515625 0.515625 0
0.53125 0.5 0
0.546875 0.515625 0
0.53125 0.53125 0
0.5625 0.5 0
0.5625 0.5625 0
0.546875 0.515625 0
0.5625 0.53125 0
0.546875 0.546875 0
0.53125 0.59375 0
0.5 0.625 0
0.5 0.5625 0
0.515625 0.609375 0
0.5 0.59375 0
0.515625 0.578125 0
0.53125 0.59375 0
0.5 0.5625 0
0.5625 0.5625 0
0.515625 0.578125 0
0.53125 0.5625 0
0.546875 0.578125 0
0.53125 0.59375 0
0.5625 0.625 0
0.5 0.625 0
0.546875 0.609375 0
0.53125 0.625 0
0.515625 0.609375 0
0.53125 0.59375 0
0.5625 0.5625 0
0.5625 0.625 0
0.546875 0.578125 0
0.5625 0.59375 0
0.546875 0.609375 0
0.40625 0.65625 0
0.375 0.625 0
0.4375 0.625 0
0.390625 0.640625 0
0.40625 0.625 0
0.421875 0.640625 0
0.40625 0.65625 0
0.4375 0.625 0
0.4375 0.6875 0
0.421875 0.640625 0
0.4375 0.65625 0
0.421875 0.671875 0
0.40625 0.65625 0
0.375 0.6875 0
0.375 0.625 0
0.390625 0.671875 0
0.375 0.65625 0
0.390625 0.640625 0
0.40625 0.65625 0
0.4375 0.6875 0
0.375 0.6875 0
0.421875 0.671875 0
0.40625 0.6875 0
0.390625 0.671875 0
0.46875 0.65625 0
0.4375 0.625 0
0.5 0.625 0
0.453125 0.640625 0
0.46875 0.625 0
0.484375 0.640625 0
0.46875 0.65625 0
0.4375 0.6875 0
0.4375 0.625 0
0.453125 0.671875 0
0.4375 0.65625 0
0.453125 0.640625 0
0.46875 0.65625 0
0.5 0.625 0
0.5 0.6875 0
0.484375 0.640625 0
0.5 0.65625 0
0.484375 0.671875 0
0.46875 0.65625 0
0.5 0.6875 0
0.4375 0.6875 0
0.484375 0.671875 0
0.46875 0.6875 0
0.453125 0.671875 0
0.34375 0.65625 0
0.3125 0.625 0
0.375 0.625 0
0.328125 0.640625 0
0.34375 0.625 0
0.359375 0.640625 0
0.34375 0.65625 0
0.3125 0.6875 0
0.3125 0.625 0
0.328125 0.671875 0
0.3125 0.65625 0
0.328125 0.640625 0
0.34375 0.65625 0
0.375 0.625 0
0.375 0.6875 0
0.359375 0.640625 0
0.375 0.65625 0
0.359375 0.671875 0
0.34375 0.65625 0
0.375 0.6875 0
0.3125 0.6875 0
0.359375 0.671875 0
0.34375 0.6875 0
0.328125 0.671875 0
0.28125 0.65625 0
0.25 0.625 0
0.3125 0.625 0
0.265625 0.640625 0
0.28125 0.625 0
0.296875 0.640625 0
0.28125 0.65625 0
0.3125 0.625 0
0.3125 0.6875 0
0.296875 0.640625 0
0.3125 0.65625 0
0.296875 0.671875 0
0.28125 0.65625 0
0.25 0.6875 0
0.25 0.625 0
0.265625 0.671875 0
0.25 0.65625 0
0.265625 0.640625 0
0.28125 0.65625 0
0.3125 0.6875 0
0.25 0.6875 0
0.296875 0.671875 0
0.28125 0.6875 0
0.265625 0.671875 0
0.46875 0.28125 0
0.5 0.25 0
0.5 0.3125 0
0.484375 0.265625 0
0.5 0.28125 0
0.484375 0.296875 0
0.46875 0.28125 0
0.5 0.3125 0
0.4375 0.3125 0
0.484375 0.296875 0
0.46875 0.3125 0
0.453125 0.296875 0
0.46875 0.28125 0
0.4375 0.25 0
0.5 0.25 0
0.453125 0.265625 0
0.46875 0.25 0
0.484375 0.265625 0
0.46875 0.28125 0
0.4375 0.3125 0
0.4375 0.25 0
0.453125 0.296875 0
0.4375 0.28125 0
0.453125 0.265625 0
0.53125 0.28125 0
0.5 0.3125 0
0.5 0.25 0
0.515625 0.296875 0
0.5 0.28125 0
0.515625 0.265625 0
0.53125 0.28125 0
0.5625 0.3125 0
0.5 0.3125 0
0.546875 0.296875 0
0.53125 0.3125 0
0.515625 0.296875 0
0.53125 0.28125 0
0.5 0.25 0
0.5625 0.25 0
0.515625 0.265625 0
0.53125 0.25 0
0.546875 0.265625 0
0.53125 0.28125 0
0.5625 0.25 0
0.5625 0.3125 0
0.546875 0.265625 0
0.5625 0.28125 0
0.546875 0.296875 0
0.53125 0.34375 0
0.5 0.375 0
0.5 0.3125 0
0.515625 0.359375 0
0.5 0.34375 0
0.515625 0.328125 0
0.53125 0.34375 0
0.5 0.3125 0
0.5625 0.3125 0
0.515625 0.328125 0
0.53125 0.3125 0
0.546875 0.328125 0
0.53125 0.34375 0
0.5625 0.375 0
0.5 0.375 0
0.546875 0.359375 0
0.53125 0.375 0
0.515625 0.359375 0
0.53125 0.34375 0
0.5625 0.3125 0
0.5625 0.375 0
0.546875 0.328125 0
0.5625 0.34375 0
0.546875 0.359375 0
0.46875 0.21875 0
0.5 0.25 0
0.4375 0.25 0
0.484375 0.234375 0
0.46875 0.25 0
0.453125 0.234375 0
0.46875 0.21875 0
0.4375 0.25 0
0.4375 0.1875 0
0.453125 0.234375 0
0.4375 0.21875 0
0.453125 0.203125 0
0.46875 0.21875 0
0.5 0.1875 0
0.5 0.25 0
0.484375 0.203125 0
0.5 0.21875 0
0.484375 0.234375 0
0.46875 0.21875 0
0.4375 0.1875 0
0.5 0.1875 0
0.453125 0.203125 0
0.46875 0.1875 0
0.484375 0.203125 0
0.59375 0.40625 0
0.5625 0.375 0
0.625 0.375 0
0.578125 0.390625 0
0.59375 0.375 0
0.609375 0.390625 0
0.59375 0.40625 0
0.5625 0.4375 0
0.5625 0.375 0
0.578125 0.421875 0
0.5625 0.40625 0
0.578125 0.390625 0
0.59375 0.40625 0
0.625 0.375 0
0.625 0.4375 0
0.609375 0.390625 0
0.625 0.40625 0
0.609375 0.421875 0
0.59375 0.40625 0
0.625 0.4375 0
0.5625 0.4375 0
0.609375 0.421875 0
0.59375 0.4375 0
0.578125 0.421875 0
0.59375 0.34375 0
0.625 0.375 0
0.5625 0.375 0
0.609375 0.359375 0
0.59375 0.375 0
0.578125 0.359375 0
0.59375 0.34375 0
0.5625 0.375 0
0.5625 0.3125 0
0.578125 0.359375 0
0.5625 0.34375 0
0.578125 0.328125 0
0.59375 0.34375 0
0.625 0.3125 0
0.625 0.375 0
0.609375 0.328125 0
0.625 0.34375 0
0.609375 0.359375 0
0.59375 0.34375 0
0.5625 0.3125 0
0.625 0.3125 0
0.578125 0.328125 0
0.59375 0.3125 0
0.609375 0.328125 0
0.59375 0.46875 0
0.625 0.5 0
0.5625 0.5 0
0.609375 0.484375 0
0.59375 0.5 0
0.578125 0.484375 0
0.59375 0.46875 0
0.5625 0.5 0
0.5625 0.4375 0
0.578125 0.484375 0
0.5625 0.46875 0
0.578125 0.453125 0
0.59375 0.46875 0
0.625 0.4375 0
0.625 0.5 0
0.609375 0.453125 0
0.625 0.46875 0
0.609375 0.484375 0
0.59375 0.46875 0
0.5625 0.4375 0
0.625 0.4375 0
0.578125 0.453125 0
0.59375 0.4375 0
0.609375 0.453125 0
0.59375 0.53125 0
0.5625 0.5 0
0.625 0.5 0
0.578125 0.515625 0
0.59375 0.5 0
0.609375 0.515625 0
0.59375 0.53125 0
0.5625 0.5625 0
0.5625 0.5 0
0.578125 0.546875 0
0.5625 0.53125 0
0.578125 0.515625 0
0.59375 0.53125 0
0.625 0.5 0
0.625 0.5625 0
0.609375 0.515625 0
0.625 0.53125 0
0.609375 0.546875 0
0.59375 0.53125 0
0.625 0.5625 0
0.5625 0.5625 0
0.609375 0.546875 0
0.59375 0.5625 0
0.578125 0.546875 0
0.65625 0.40625 0
0.625 0.4375 0
0.625 0.375 0
0.640625 0.421875 0
0.625 0.40625 0
0.640625 0.390625 0
0.65625 0.40625 0
0.6875 0.4375 0
0.625 0.4375 0
0.671875 0.421875 0
0.65625 0.4375 0
0.640625 0.421875 0
0.65625 0.40625 0
0.625 0.375 0
0.6875 0.375 0
0.640625 0.390625 0
0.65625 0.375 0
0.671875 0.390625 0
0.65625 0.40625 0
0.6875 0.375 0
0.6875 0.4375 0
0.671875 0.390625 0
0.6875 0.40625 0
0.671875 0.421875 0
0.65625 0.46875 0
0.625 0.5 0
0.625 0.4375 0
0.640625 0.484375 0
0.625 0.46875 0
0.640625 0.453125 0
0.65625 0.46875 0
0.625 0.4375 0
0.6875 0.4375 0
0.640625 0.453125 0
0.65625 0.4375 0
0.671875 0.453125 0
0.65625 0.46875 0
0.6875 0.5 0
0.625 0.5 0
0.671875 0.484375 0
0.65625 0.5 0
0.640625 0.484375 0
0.65625 0.46875 0
0.6875 0.4375 0
0.6875 0.5 0
0.671875 0.453125 0
0.6875 0.46875 0
0.671875 0.484375 0
0.59375 0.28125 0
0.5625 0.25 0
0.625 0.25 0
0.578125 0.265625 0
0.59375 0.25 0
0.609375 0.265625 0
0.59375 0.28125 0
0.5625 0.3125 0
0.5625 0.25 0
0.578125 0.296875 0
0.5625 0.28125 0
0.578125 0.265625 0
0.59375 0.28125 0
0.625 0.25 0
0.625 0.3125 0
0.609375 0.265625 0
0.625 0.28125 0
0.609375 0.296875 0
0.59375 0.28125 0
0.625 0.3125 0
0.5625 0.3125 0
0.609375 0.296875 0
0.59375 0.3125 0
0.578125 0.296875 0
0.53125 0.21875 0
0.5625 0.25 0
0.5 0.25 0
0.546875 0.234375 0
0.53125 0.25 0
0.515625 0.234375 0
0.53125 0.21875 0
0.5625 0.1875 0
0.5625 0.25 0
0.546875 0.203125 0
0.5625 0.21875 0
0.546875 0.234375 0
0.53125 0.21875 0
0.5 0.25 0
0.5 0.1875 0
0.515625 0.234375 0
0.5 0.21875 0
0.515625 0.203125 0
0.53125 0.21875 0
0.5 0.1875 0
0.5625 0.1875 0
0.515625 0.203125 0
0.53125 0.1875 0
0.546875 0.203125 0
0.59375 0.21875 0
0.625 0.25 0
0.5625 0.25 0
0.609375 0.234375 0
0.59375 0.25 0
0.578125 0.234375 0
0.59375 0.21875 0
0.5625 0.25 0
0.5625 0.1875 0
0.578125 0.234375 0
0.5625 0.21875 0
0.578125 0.203125 0
0.59375 0.21875 0
0.625 0.1875 0
0.625 0.25 0
0.609375 0.203125 0
0.625 0.21875 0
0.609375 0.234375 0
0.59375 0.21875 0
0.5625 0.1875 0
0.625 0.1875 0
0.578125 0.203125 0
0.59375 0.1875 0
0.609375 0.203125 0
0.65625 0.34375 0
0.625 0.375 0
0.625 0.3125 0
0.640625 0.359375 0
0.625 0.34375 0
0.640625 0.328125 0
0.65625 0.34375 0
0.625 0.3125 0
0.6875 0.3125 0
0.640625 0.328125 0
0.65625 0.3125 0
0.671875 0.328125 0
0.65625 0.34375 0
0.6875 0.375 0
0.625 0.375 0
0.671875 0.359375 0
0.65625 0.375 0
0.640625 0.359375 0
0.65625 0.34375 0
0.6875 0.3125 0
0.6875 0.375 0
0.671875 0.328125 0
0.6875 0.34375 0
0.671875 0.359375 0
0.65625 0.28125 0
0.625 0.3125 0
0.625 0.25 0
0.640625 0.296875 0
0.625 0.28125 0
0.640625 0.265625 0
0.65625 0.28125 0
0.6875 0.3125 0
0.625 0.3125 0
0.671875 0.296875 0
0.65625 0.3125 0
0.640625 0.296875 0
0.65625 0.28125 0
0.625 0.25 0
0.6875 0.25 0
0.640625 0.265625 0
0.65625 0.25 0
0.671875 0.265625 0
0.65625 0.28125 0
0.6875 0.25 0
0.6875 0.3125 0
0.671875 0.265625 0
0.6875 0.28125 0
0.671875 0.296875 0
0.46875 0.15625 0
0.5 0.125 0
0.5 0.1875 0
0.484375 0.140625 0
0.5 0.15625 0
0.484375 0.171875 0
0.46875 0.15625 0
0.5 0.1875 0
0.4375 0.1875 0
0.484375 0.171875 0
0.46875 0.1875 0
0.453125 0.171875 0
0.46875 0.15625 0
0.4375 0.125 0
0.5 0.125 0
0.453125 0.140625 0
0.46875 0.125 0
0.484375 0.140625 0
0.46875 0.15625 0
0.4375 0.1875 0
0.4375 0.125 0
0.453125 0.171875 0
0.4375 0.15625 0
0.453125 0.140625 0
0.53125 0.15625 0
0.5 0.1875 0
0.5 0.125 0
0.515625 0.171875 0
0.5 0.15625 0
0.515625 0.140625 0
0.53125 0.15625 0
0.5625 0.1875 0
0.5 0.1875 0
0.546875 0.171875 0
0.53125 0.1875 0
0.515625 0.171875 0
0.53125 0.15625 0
0.5 0.125 0
0.5625 0.125 0
0.515625 0.140625 0
0.53125 0.125 0
0.546875 0.140625 0
0.53125 0.15625 0
0.5625 0.125 0
0.5625 0.1875 0
0.546875 0.140625 0
0.5625 0.15625 0
0.546875 0.171875 0
0.46875 0.09375 0
0.5 0.125 0
0.4375 0.125 0
0.484375 0.109375 0
0.46875 0.125 0
0.453125 0.109375 0
0.46875 0.09375 0
0.4375 0.125 0
0.4375 0.0625 0
0.453125 0.109375 0
0.4375 0.09375 0
0.453125 0.078125 0
0.46875 0.09375 0
0.5 0.0625 0
0.5 0.125 0
0.484375 0.078125 0
0.5 0.09375 0
0.484375 0.109375 0
0.46875 0.09375 0
0.4375 0.0625 0
0.5 0.0625 0
0.453125 0.078125 0
0.46875 0.0625 0
0.484375 0.078125 0
0.28125 0.71875 0
0.25 0.75 0
0.25 0.6875 0
0.265625 0.734375 0
0.25 0.71875 0
0.265625 0.703125 0
0.28125 0.71875 0
0.25 0.6875 0
0.3125 0.6875 0
0.265625 0.703125 0
0.28125 0.6875 0
0.296875 0.703125 0
0.28125 0.71875 0
0.3125 0.75 0
0.25 0.75 0
0.296875 0.734375 0
0.28125 0.75 0
0.265625 0.734375 0
0.28125 0.71875 0
0.3125 0.6875 0
0.3125 0.75 0
0.296875 0.703125 0
0.3125 0.71875 0
0.296875 0.734375 0
0.21875 0.71875 0
0.25 0.6875 0
0.25 0.75 0
0.234375 0.703125 0
0.25 0.71875 0
0.234375 0.734375 0
0.21875 0.71875 0
0.1875 0.6875 0
0.25 0.6875 0
0.203125 0.703125 0
0.21875 0.6875 0
0.234375 0.703125 0
0.21875 0.71875 0
0.25 0.75 0
0.1875 0.75 0
0.234375 0.734375 0
0.21875 0.75 0
0.203125 0.734375 0
0.21875 0.71875 0
0.1875 0.75 0
0.1875 0.6875 0
0.203125 0.734375 0
0.1875 0.71875 0
0.203125 0.703125 0
0.34375 0.71875 0
0.375 0.75 0
0.3125 0.75 0
0.359375 0.734375 0
0.34375 0.75 0
0.328125 0.734375 0
0.34375 0.71875 0
0.3125 0.75 0
0.3125 0.6875 0
0.328125 0.734375 0
0.3125 0.71875 0
0.328125 0.703125 0
0.34375 0.71875 0
0.375 0.6875 0
0.375 0.75 0
0.359375 0.703125 0
0.375 0.71875 0
0.359375 0.734375 0
0.34375 0.71875 0
0.3125 0.6875 0
0.375 0.6875 0
0.328125 0.703125 0
0.34375 0.6875 0
0.359375 0.703125 0
0.28125 0.78125 0
0.25 0.75 0
0.3125 0.75 0
0.265625 0.765625 0
0.28125 0.75 0
0.296875 0.765625 0
0.28125 0.78125 0
0.3125 0.75 0
0.3125 0.8125 0
0.296875 0.765625 0
0.3125 0.78125 0
0.296875 0.796875 0
0.28125 0.78125 0
0.25 0.8125 0
0.25 0.75 0
0.265625 0.796875 0
0.25 0.78125 0
0.265625 0.765625 0
0.28125 0.78125 0
0.3125 0.8125 0
0.25 0.8125 0
0.296875 0.796875 0
0.28125 0.8125 0
0.265625 0.796875 0
0.34375 0.78125 0
0.3125 0.75 0
0.375 0.75 0
0.328125 0.765625 0
0.34375 0.75 0
0.359375 0.765625 0
0.34375 0.78125 0
0.3125 0.8125 0
0.3125 0.75 0
0.328125 0.796875 0
0.3125 0.78125 0
0.328125 0.765625 0
0.34375 0.78125 0
0.375 0.75 0
0.375 0.8125 0
0.359375 0.765625 0
0.375 0.78125 0
0.359375 0.796875 0
0.34375 0.78125 0
0.375 0.8125 0
0.3125 0.8125 0
0.359375 0.796875 0
0.34375 0.8125 0
0.328125 0.796875 0
0.40625 0.71875 0
0.375 0.75 0
0.375 0.6875 0
0.390625 0.734375 0
0.375 0.71875 0
0.390625 0.703125 0
0.40625 0.71875 0
0.375 0.6875 0
0.4375 0.6875 0
0.390625 0.703125 0
0.40625 0.6875 0
0.421875 0.703125 0
0.40625 0.71875 0
0.4375 0.75 0
0.375 0.75 0
0.421875 0.734375 0
0.40625 0.75 0
0.390625 0.734375 0
0.40625 0.71875 0
0.4375 0.6875 0
0.4375 0.75 0
0.421875 0.703125 0
0.4375 0.71875 0
0.421875 0.734375 0
0.15625 0.71875 0
0.1875 0.75 0
0.125 0.75 0
0.171875 0.734375 0
0.15625 0.75 0
0.140625 0.734375 0
0.15625 0.71875 0
0.1875 0.6875 0
0.1875 0.75 0
0.171875 0.703125 0
0.1875 0.71875 0
0.171875 0.734375 0
0.15625 0.71875 0
0.125 0.75 0
0.125 0.6875 0
0.140625 0.734375 0
0.125 0.71875 0
0.140625 0.703125 0
0.15625 0.71875 0
0.125 0.6875 0
0.1875 0.6875 0
0.140625 0.703125 0
0.15625 0.6875 0
0.171875 0.703125 0
0.21875 0.78125 0
0.1875 0.75 0
0.25 0.75 0
0.203125 0.765625 0
0.21875 0.75 0
0.234375 0.765625 0
0.21875 0.78125 0
0.1875 0.8125 0
0.1875 0.75 0
0.203125 0.796875 0
0.1875 0.78125 0
0.203125 0.765625 0
0.21875 0.78125 0
0.25 0.75 0
0.25 0.8125 0
0.234375 0.765625 0
0.25 0.78125 0
0.234375 0.796875 0
0.21875 0.78125 0
0.25 0.8125 0
0.1875 0.8125 0
0.234375 0.796875 0
0.21875 0.8125 0
0.203125 0.796875 0
0.15625 0.78125 0
0.125 0.75 0
0.1875 0.75 0
0.140625 0.765625 0
0.15625 0.75 0
0.171875 0.765625 0
0.15625 0.78125 0
0.1875 0.75 0
0.1875 0.8125 0
0.171875 0.765625 0
0.1875 0.78125 0
0.171875 0.796875 0
0.15625 0.78125 0
0.125 0.8125 0
0.125 0.75 0
0.140625 0.796875 0
0.125 0.78125 0
0.140625 0.765625 0
0.15625 0.78125 0
0.1875 0.8125 0
0.125 0.8125 0
0.171875 0.796875 0
0.15625 0.8125 0
0.140625 0.796875 0
0.09375 0.71875 0
0.125 0.6875 0
0.125 0.75 0
0.109375 0.703125 0
0.125 0.71875 0
0.109375 0.734375 0
0.09375 0.71875 0
0.0625 0.6875 0
0.125 0.6875 0
0.078125 0.703125 0
0.09375 0.6875 0
0.109375 0.703125 0
0.09375 0.71875 0
0.125 0.75 0
0.0625 0.75 0
0.109375 0.734375 0
0.09375 0.75 0
0.078125 0.734375 0
0.09375 0.71875 0
0.0625 0.75 0
0.0625 0.6875 0
0.078125 0.734375 0
0.0625 0.71875 0
0.078125 0.703125 0
0.46875 0.71875 0
0.5 0.6875 0
0.5 0.75 0
0.484375 0.703125 0
0.5 0.71875 0
0.484375 0.734375 0
0.46875 0.71875 0
0.4375 0.6875 0
0.5 0.6875 0
0.453125 0.703125 0
0.46875 0.6875 0
0.484375 0.703125 0
0.46875 0.71875 0
0.5 0.75 0
0.4375 0.75 0
0.484375 0.734375 0
0.46875 0.75 0
0.453125 0.734375 0
0.46875 0.71875 0
0.4375 0.75 0
0.4375 0.6875 0
0.453125 0.734375 0
0.4375 0.71875 0
0.453125 0.703125 0
0.53125 0.71875 0
0.5 0.75 0
0.5 0.6875 0
0.515625 0.734375 0
0.5 0.71875 0
0.515625 0.703125 0
0.53125 0.71875 0
0.5 0.6875 0
0.5625 0.6875 0
0.515625 0.703125 0
0.53125 0.6875 0
0.546875 0.703125 0
0.53125 0.71875 0
0.5625 0.75 0
0.5 0.75 0
0.546875 0.734375 0
0.53125 0.75 0
0.515625 0.734375 0
0.53125 0.71875 0
0.5625 0.6875 0
0.5625 0.75 0
0.546875 0.703125 0
0.5625 0.71875 0
0.546875 0.734375 0
0.53125 0.65625 0
0.5 0.6875 0
0.5 0.625 0
0.515625 0.671875 0
0.5 0.65625 0
0.515625 0.640625 0
0.53125 0.65625 0
0.5625 0.6875 0
0.5 0.6875 0
0.546875 0.671875 0
0.53125 0.6875 0
0.515625 0.671875 0
0.53125 0.65625 0
0.5 0.625 0
0.5625 0.625 0
0.515625 0.640625 0
0.53125 0.625 0
0.546875 0.640625 0
0.53125 0.65625 0
0.5625 0.625 0
0.5625 0.6875 0
0.546875 0.640625 0
0.5625 0.65625 0
0.546875 0.671875 0
0.46875 0.78125 0
0.4375 0.75 0
0.5 0.75 0
0.453125 0.765625 0
0.46875 0.75 0
0.484375 0.765625 0
0.46875 0.78125 0
0.4375 0.8125 0
0.4375 0.75 0
0.453125 0.796875 0
0.4375 0.78125 0
0.453125 0.765625 0
0.46875 0.78125 0
0.5 0.75 0
0.5 0.8125 0
0.484375 0.765625 0
0.5 0.78125 0
0.484375 0.796875 0
0.46875 0.78125 0
0.5 0.8125 0
0.4375 0.8125 0
0.484375 0.796875 0
0.46875 0.8125 0
0.453125 0.796875 0
0.40625 0.78125 0
0.375 0.75 0
0.4375 0.75 0
0.390625 0.765625 0
0.40625 0.75 0
0.421875 0.765625 0
0.40625 0.78125 0
0.4375 0.75 0
0.4375 0.8125 0
0.421875 0.765625 0
0.4375 0.78125 0
0.421875 0.796875 0
0.40625 0.78125 0
0.375 0.8125 0
0.375 0.75 0
0.390625 0.796875 0
0.375 0.78125 0
0.390625 0.765625 0
0.40625 0.78125 0
0.4375 0.8125 0
0.375 0.8125 0
0.421875 0.796875 0
0.40625 0.8125 0
0.390625 0.796875 0
0.59375 0.59375 0
0.625 0.625 0
0.5625 0.625 0
0.609375 0.609375 0
0.59375 0.625 0
0.578125 0.609375 0
0.59375 0.59375 0
0.5625 0.625 0
0.5625 0.5625 0
0.578125 0.609375 0
0.5625 0.59375 0
0.578125 0.578125 0
0.59375 0.59375 0
0.625 0.5625 0
0.625 0.625 0
0.609375 0.578125 0
0.625 0.59375 0
0.609375 0.609375 0
0.59375 0.59375 0
0.5625 0.5625 0
0.625 0.5625 0
0.578125 0.578125 0
0.59375 0.5625 0
0.609375 0.578125 0
0.59375 0.65625 0
0.5625 0.625 0
0.625 0.625 0
0.578125 0.640625 0
0.59375 0.625 0
0.609375 0.640625 0
0.59375 0.65625 0
0.5625 0.6875 0
0.5625 0.625 0
0.578125 0.671875 0
0.5625 0.65625 0
0.578125 0.640625 0
0.59375 0.65625 0
0.625 0.625 0
0.625 0.6875 0
0.609375 0.640625 0
0.625 0.65625 0
0.609375 0.671875 0
0.59375 0.65625 0
0.625 0.6875 0
0.5625 0.6875 0
0.609375 0.671875 0
0.59375 0.6875 0
0.578125 0.671875 0
0.65625 0.59375 0
0.625 0.625 0
0.625 0.5625 0
0.640625 0.609375 0
0.625 0.59375 0
0.640625 0.578125 0
0.65625 0.59375 0
0.625 0.5625 0
0.6875 0.5625 0
0.640625 0.578125 0
0.65625 0.5625 0
0.671875 0.578125 0
0.65625 0.59375 0
0.6875 0.625 0
0.625 0.625 0
0.671875 0.609375 0
0.65625 0.625 0
0.640625 0.609375 0
0.65625 0.59375 0
0.6875 0.5625 0
0.6875 0.625 0
0.671875 0.578125 0
0.6875 0.59375 0
0.671875 0.609375 0
0.65625 0.53125 0
0.625 0.5625 0
0.625 0.5 0
0.640625 0.546875 0
0.625 0.53125 0
0.640625 0.515625 0
0.65625 0.53125 0
0.6875 0.5625 0
0.625 0.5625 0
0.671875 0.546875 0
0.65625 0.5625 0
0.640625 0.546875 0
0.65625 0.53125 0
0.625 0.5 0
0.6875 0.5 0
0.640625 0.515625 0
0.65625 0.5 0
0.671875 0.515625 0
0.65625 0.53125 0
0.6875 0.5 0
0.6875 0.5625 0
0.671875 0.515625 0
0.6875 0.53125 0
0.671875 0.546875 0
0.59375 0.71875 0
0.625 0.75 0
0.5625 0.75 0
0.609375 0.734375 0
0.59375 0.75 0
0.578125 0.734375 0
0.59375 0.71875 0
0.5625 0.75 0
0.5625 0.6875 0
0.578125 0.734375 0
0.5625 0.71875 0
0.578125 0.703125 0
0.59375 0.71875 0
0.625 0.6875 0
0.625 0.75 0
0.609375 0.703125 0
0.625 0.71875 0
0.609375 0.734375 0
0.59375 0.71875 0
0.5625 0.6875 0
0.625 0.6875 0
0.578125 0.703125 0
0.59375 0.6875 0
0.609375 0.703125 0
0.53125 0.78125 0
0.5 0.75 0
0.5625 0.75 0
0.515625 0.765625 0
0.53125 0.75 0
0.546875 0.765625 0
0.53125 0.78125 0
0.5625 0.75 0
0.5625 0.8125 0
0.546875 0.765625 0
0.5625 0.78125 0
0.546875 0.796875 0
0.53125 0.78125 0
0.5 0.8125 0
0.5 0.75 0
0.515625 0.796875 0
0.5 0.78125 0
0.515625 0.765625 0
0.53125 0.78125 0
0.5625 0.8125 0
0.5 0.8125 0
0.546875 0.796875 0
0.53125 0.8125 0
0.515625 0.796875 0
0.59375 0.78125 0
0.5625 0.75 0
0.625 0.75 0
0.578125 0.765625 0
0.59375 0.75 0
0.609375 0.765625 0
0.59375 0.78125 0
0.5625 0.8125 0
0.5625 0.75 0
0.578125 0.796875 0
0.5625 0.78125 0
0.578125 0.765625 0
0.59375 0.78125 0
0.625 0.75 0
0.625 0.8125 0
0.609375 0.765625 0
0.625 0.78125 0
0.609375 0.796875 0
0.59375 0.78125 0
0.625 0.8125 0
0.5625 0.8125 0
0.609375 0.796875 0
0.59375 0.8125 0
0.578125 0.796875 0
0.65625 0.65625 0
0.625 0.6875 0
0.625 0.625 0
0.640625 0.671875 0
0.625 0.65625 0
0.640625 0.640625 0
0.65625 0.65625 0
0.6875 0.6875 0
0.625 0.6875 0
0.671875 0.671875 0
0.65625 0.6875 0
0.640625 0.671875 0
0.65625 0.65625 0
0.625 0.625 0
0.6875 0.625 0
0.640625 0.640625 0
0.65625 0.625 0
0.671875 0.640625 0
0.65625 0.65625 0
0.6875 0.625 0
0.6875 0.6875 0
0.671875 0.640625 0
0.6875 0.65625 0
0.671875 0.671875 0
0.65625 0.71875 0
0.625 0.75 0
0.625 0.6875 0
0.640625 0.734375 0
0.625 0.71875 0
0.640625 0.703125 0
0.65625 0.71875 0
0.625 0.6875 0
0.6875 0.6875 0
0.640625 0.703125 0
0.65625 0.6875 0
0.671875 0.703125 0
0.65625 0.71875 0
0.6875 0.75 0
0.625 0.75 0
0.671875 0.734375 0
0.65625 0.75 0
0.640625 0.734375 0
0.65625 0.71875 0
0.6875 0.6875 0
0.6875 0.75 0
0.671875 0.703125 0
0.6875 0.71875 0
0.671875 0.734375 0
0.34375 0.84375 0
0.375 0.8125 0
0.375 0.875 0
0.359375 0.828125 0
0.375 0.84375 0
0.359375 0.859375 0
0.34375 0.84375 0
0.3125 0.8125 0
0.375 0.8125 0
0.328125 0.828125 0
0.34375 0.8125 0
0.359375 0.828125 0
0.34375 0.84375 0
0.375 0.875 0
0.3125 0.875 0
0.359375 0.859375 0
0.34375 0.875 0
0.328125 0.859375 0
0.34375 0.84375 0
0.3125 0.875 0
0.3125 0.8125 0
0.328125 0.859375 0
0.3125 0.84375 0
0.328125 0.828125 0
0.40625 0.84375 0
0.375 0.875 0
0.375 0.8125 0
0.390625 0.859375 0
0.375 0.84375 0
0.390625 0.828125 0
0.40625 0.84375 0
0.375 0.8125 0
0.4375 0.8125 0
0.390625 0.828125 0
0.40625 0.8125 0
0.421875 0.828125 0
0.40625 0.84375 0
0.4375 0.875 0
0.375 0.875 0
0.421875 0.859375 0
0.40625 0.875 0
0.390625 0.859375 0
0.40625 0.84375 0
0.4375 0.8125 0
0.4375 0.875 0
0.421875 0.828125 0
0.4375 0.84375 0
0.421875 0.859375 0
0.28125 0.84375 0
0.25 0.875 0
0.25 0.8125 0
0.265625 0.859375 0
0.25 0.84375 0
0.265625 0.828125 0
0.28125 0.84375 0
0.25 0.8125 0
0.3125 0.8125 0
0.265625 0.828125 0
0.28125 0.8125 0
0.296875 0.828125 0
0.28125 0.84375 0
0.3125 0.875 0
0.25 0.875 0
0.296875 0.859375 0
0.28125 0.875 0
0.265625 0.859375 0
0.28125 0.84375 0
0.3125 0.8125 0
0.3125 0.875 0
0.296875 0.828125 0
0.3125 0.84375 0
0.296875 0.859375 0
0.21875 0.84375 0
0.25 0.8125 0
0.25 0.875 0
0.234375 0.828125 0
0.25 0.84375 0
0.234375 0.859375 0
0.21875 0.84375 0
0.1875 0.8125 0
0.25 0.8125 0
0.203125 0.828125 0
0.21875 0.8125 0
0.234375 0.828125 0
0.21875 0.84375 0
0.25 0.875 0
0.1875 0.875 0
0.234375 0.859375 0
0.21875 0.875 0
0.203125 0.859375 0
0.21875 0.84375 0
0.1875 0.875 0
0.1875 0.8125 0
0.203125 0.859375 0
0.1875 0.84375 0
0.203125 0.828125 0
0.34375 0.90625 0
0.3125 0.875 0
0.375 0.875 0
0.328125 0.890625 0
0.34375 0.875 0
0.359375 0.890625 0
0.34375 0.90625 0
0.3125 0.9375 0
0.3125 0.875 0
0.328125 0.921875 0
0.3125 0.90625 0
0.328125 0.890625 0
0.34375 0.90625 0
0.375 0.875 0
0.375 0.9375 0
0.359375 0.890625 0
0.375 0.90625 0
0.359375 0.921875 0
0.34375 0.90625 0
0.375 0.9375 0
0.3125 0.9375 0
0.359375 0.921875 0
0.34375 0.9375 0
0.328125 0.921875 0
0.28125 0.90625 0
0.25 0.875 0
0.3125 0.875 0
0.265625 0.890625 0
0.28125 0.875 0
0.296875 0.890625 0
0.28125 0.90625 0
0.3125 0.875 0
0.3125 0.9375 0
0.296875 0.890625 0
0.3125 0.90625 0
0.296875 0.921875 0
0.28125 0.90625 0
0.25 0.9375 0
0.25 0.875 0
0.265625 0.921875 0
0.25 0.90625 0
0.265625 0.890625 0
0.28125 0.90625 0
0.3125 0.9375 0
0.25 0.9375 0
0.296875 0.921875 0
0.28125 0.9375 0
0.265625 0.921875 0
0.46875 0.84375 0
0.5 0.8125 0
0.5 0.875 0
0.484375 0.828125 0
0.5 0.84375 0
0.484375 0.859375 0
0.46875 0.84375 0
0.4375 0.8125 0
0.5 0.8125 0
0.453125 0.828125 0
0.46875 0.8125 0
0.484375 0.828125 0
0.46875 0.84375 0
0.5 0.875 0
0.4375 0.875 0
0.484375 0.859375 0
0.46875 0.875 0
0.453125 0.859375 0
0.46875 0.84375 0
0.4375 0.875 0
0.4375 0.8125 0
0.453125 0.859375 0
0.4375 0.84375 0
0.453125 0.828125 0
0.53125 0.84375 0
0.5 0.875 0
0.5 0.8125 0
0.515625 0.859375 0
0.5 0.84375 0
0.515625 0.828125 0
0.53125 0.84375 0
0.5 0.8125 0
0.5625 0.8125 0
0.515625 0.828125 0
0.53125 0.8125 0
0.546875 0.828125 0
0.53125 0.84375 0
0.5625 0.875 0
0.5 0.875 0
0.546875 0.859375 0
0.53125 0.875 0
0.515625 0.859375 0
0.53125 0.84375 0
0.5625 0.8125 0
0.5625 0.875 0
0.546875 0.828125 0
0.5625 0.84375 0
0.546875 0.859375 0
0.40625 0.90625 0
0.375 0.875 0
0.4375 0.875 0
0.390625 0.890625 0
0.40625 0.875 0
0.421875 0.890625 0
0.40625 0.90625 0
0.4375 0.875 0
0.4375 0.9375 0
0.421875 0.890625 0
0.4375 0.90625 0
0.421875 0.921875 0
0.40625 0.90625 0
0.375 0.9375 0
0.375 0.875 0
0.390625 0.921875 0
0.375 0.90625 0
0.390625 0.890625 0
0.40625 0.90625 0
0.4375 0.9375 0
0.375 0.9375 0
0.421875 0.921875 0
0.40625 0.9375 0
0.390625 0.921875 0
0.46875 0.90625 0
0.4375 0.875 0
0.5 0.875 0
0.453125 0.890625 0
0.46875 0.875 0
0.484375 0.890625 0
0.46875 0.90625 0
0.4375 0.9375 0
0.4375 0.875 0
0.453125 0.921875 0
0.4375 0.90625 0
0.453125 0.890625 0
0.46875 0.90625 0
0.5 0.875 0
0.5 0.9375 0
0.484375 0.890625 0
0.5 0.90625 0
0.484375 0.921875 0
0.46875 0.90625 0
0.5 0.9375 0
0.4375 0.9375 0
0.484375 0.921875 0
0.46875 0.9375 0
0.453125 0.921875 0
0.03125 0.71875 0
0 0.75 0
0 0.6875 0
0.015625 0.734375 0
0 0.71875 0
0.015625 0.703125 0
0.03125 0.71875 0
0 0.6875 0
0.0625 0.6875 0
0.015625 0.703125 0
0.03125 0.6875 0
0.046875 0.703125 0
0.03125 0.71875 0
0.0625 0.75 0
0 0.75 0
0.046875 0.734375 0
0.03125 0.75 0
0.015625 0.734375 0
0.03125 0.71875 0
0.0625 0.6875 0
0.0625 0.75 0
0.046875 0.703125 0
0.0625 0.71875 0
0.046875 0.734375 0
0.03125 0.78125 0
0 0.75 0
0.0625 0.75 0
0.015625 0.765625 0
0.03125 0.75 0
0.046875 0.765625 0
0.03125 0.78125 0
0.0625 0.75 0
0.0625 0.8125 0
0.046875 0.765625 0
0.0625 0.78125 0
0.046875 0.796875 0
0.03125 0.78125 0
0 0.8125 0
0 0.75 0
0.015625 0.796875 0
0 0.78125 0
0.015625 0.765625 0
0.03125 0.78125 0
0.0625 0.8125 0
0 0.8125 0
0.046875 0.796875 0
0.03125 0.8125 0
0.015625 0.796875 0
0.09375 0.78125 0
0.0625 0.75 0
0.125 0.75 0
0.078125 0.765625 0
0.09375 0.75 0
0.109375 0.765625 0
0.09375 0.78125 0
0.0625 0.8125 0
0.0625 0.75 0
0.078125 0.796875 0
0.0625 0.78125 0
0.078125 0.765625 0
0.09375 0.78125 0
0.125 0.75 0
0.125 0.8125 0
0.109375 0.765625 0
0.125 0.78125 0
0.109375 0.796875 0
0.09375 0.78125 0
0.125 0.8125 0
0.0625 0.8125 0
0.109375 0.796875 0
0.09375 0.8125 0
0.078125 0.796875 0
0.15625 0.84375 0
0.125 0.875 0
0.125 0.8125 0
0.140625 0.859375 0
0.125 0.84375 0
0.140625 0.828125 0
0.15625 0.84375 0
0.125 0.8125 0
0.1875 0.8125 0
0.140625 0.828125 0
0.15625 0.8125 0
0.171875 0.828125 0
0.15625 0.84375 0
0.1875 0.875 0
0.125 0.875 0
0.171875 0.859375 0
0.15625 0.875 0
0.140625 0.859375 0
0.15625 0.84375 0
0.1875 0.8125 0
0.1875 0.875 0
0.171875 0.828125 0
0.1875 0.84375 0
0.171875 0.859375 0
0.09375 0.84375 0
0.125 0.8125 0
0.125 0.875 0
0.109375 0.828125 0
0.125 0.84375 0
0.109375 0.859375 0
0.09375 0.84375 0
0.0625 0.8125 0
0.125 0.8125 0
0.078125 0.828125 0
0.09375 0.8125 0
0.109375 0.828125 0
0.09375 0.84375 0
0.125 0.875 0
0.0625 0.875 0
0.109375 0.859375 0
0.09375 0.875 0
0.078125 0.859375 0
0.09375 0.84375 0
0.0625 0.875 0
0.0625 0.8125 0
0.078125 0.859375 0
0.0625 0.84375 0
0.078125 0.828125 0
0.15625 0.90625 0
0.125 0.875 0
0.1875 0.875 0
0.140625 0.890625 0
0.15625 0.875 0
0.171875 0.890625 0
0.15625 0.90625 0
0.1875 0.875 0
0.1875 0.9375 0
0.171875 0.890625 0
0.1875 0.90625 0
0.171875 0.921875 0
0.15625 0.90625 0
0.125 0.9375 0
0.125 0.875 0
0.140625 0.921875 0
0.125 0.90625 0
0.140625 0.890625 0
0.15625 0.90625 0
0.1875 0.9375 0
0.125 0.9375 0
0.171875 0.921875 0
0.15625 0.9375 0
0.140625 0.921875 0
0.21875 0.90625 0
0.1875 0.875 0
0.25 0.875 0
0.203125 0.890625 0
0.21875 0.875 0
0.234375 0.890625 0
0.21875 0.90625 0
0.1875 0.9375 0
0.1875 0.875 0
0.203125 0.921875 0
0.1875 0.90625 0
0.203125 0.890625 0
0.21875 0.90625 0
0.25 0.875 0
0.25 0.9375 0
0.234375 0.890625 0
0.25 0.90625 0
0.234375 0.921875 0
0.21875 0.90625 0
0.25 0.9375 0
0.1875 0.9375 0
0.234375 0.921875 0
0.21875 0.9375 0
0.203125 0.921875 0
0.03125 0.84375 0
0 0.875 0
0 0.8125 0
0.015625 0.859375 0
0 0.84375 0
0.015625 0.828125 0
0.03125 0.84375 0
0 0.8125 0
0.0625 0.8125 0
0.015625 0.828125 0
0.03125 0.8125 0
0.046875 0.828125 0
0.03125 0.84375 0
0.0625 0.875 0
0 0.875 0
0.046875 0.859375 0
0.03125 0.875 0
0.015625 0.859375 0
0.03125 0.84375 0
0.0625 0.8125 0
0.0625 0.875 0
0.046875 0.828125 0
0.0625 0.84375 0
0.046875 0.859375 0
0.09375 0.90625 0
0.0625 0.875 0
0.125 0.875 0
0.078125 0.890625 0
0.09375 0.875 0
0.109375 0.890625 0
0.09375 0.90625 0
0.0625 0.9375 0
0.0625 0.875 0
0.078125 0.921875 0
0.0625 0.90625 0
0.078125 0.890625 0
0.09375 0.90625 0
0.125 0.875 0
0.125 0.9375 0
0.109375 0.890625 0
0.125 0.90625 0
0.109375 0.921875 0
0.09375 0.90625 0
0.125 0.9375 0
0.0625 0.9375 0
0.109375 0.921875 0
0.09375 0.9375 0
0.078125 0.921875 0
0.03125 0.90625 0
0 0.875 0
0.0625 0.875 0
0.015625 0.890625 0
0.03125 0.875 0
0.046875 0.890625 0
0.03125 0.90625 0
0.0625 0.875 0
0.0625 0.9375 0
0.046875 0.890625 0
0.0625 0.90625 0
0.046875 0.921875 0
0.03125 0.90625 0
0 0.9375 0
0 0.875 0
0.015625 0.921875 0
0 0.90625 0
0.015625 0.890625 0
0.03125 0.90625 0
0.0625 0.9375 0
0 0.9375 0
0.046875 0.921875 0
0.03125 0.9375 0
0.015625 0.921875 0
0.46875 0.03125 0
0.4375 0 0
0.5 0 0
0.453125 0.015625 0
0.46875 0 0
0.484375 0.015625 0
0.46875 0.03125 0
0.4375 0.0625 0
0.4375 0 0
0.453125 0.046875 0
0.4375 0.03125 0
0.453125 0.015625 0
0.46875 0.03125 0
0.5 0 0
0.5 0.0625 0
0.484375 0.015625 0
0.5 0.03125 0
0.484375 0.046875 0
0.46875 0.03125 0
0.5 0.0625 0
0.4375 0.0625 0
0.484375 0.046875 0
0.46875 0.0625 0
0.453125 0.046875 0
0.53125 0.03125 0
0.5 0.0625 0
0.5 0 0
0.515625 0.046875 0
0.5 0.03125 0
0.515625 0.015625 0
0.53125 0.03125 0
0.5625 0.0625 0
0.5 0.0625 0
0.546875 0.046875 0
0.53125 0.0625 0
0.515625 0.046875 0
0.53125 0.03125 0
0.5 0 0
0.5625 0 0
0.515625 0.015625 0
0.53125 0 0
0.546875 0.015625 0
0.53125 0.03125 0
0.5625 0 0
0.5625 0.0625 0
0.546875 0.015625 0
0.5625 0.03125 0
0.546875 0.046875 0
0.53125 0.09375 0
0.5 0.125 0
0.5 0.0625 0
0.515625 0.109375 0
0.5 0.09375 0
0.515625 0.078125 0
0.53125 0.09375 0
0.5 0.0625 0
0.5625 0.0625 0
0.515625 0.078125 0
0.53125 0.0625 0
0.546875 0.078125 0
0.53125 0.09375 0
0.5625 0.125 0
0.5 0.125 0
0.546875 0.109375 0
0.53125 0.125 0
0.515625 0.109375 0
0.53125 0.09375 0
0.5625 0.0625 0
0.5625 0.125 0
0.546875 0.078125 0
0.5625 0.09375 0
0.546875 0.109375 0
0.59375 0.09375 0
0.625 0.125 0
0.5625 0.125 0
0.609375 0.109375 0
0.59375 0.125 0
0.578125 0.109375 0
0.59375 0.09375 0
0.5625 0.125 0
0.5625 0.0625 0
0.578125 0.109375 0
0.5625 0.09375 0
0.578125 0.078125 0
0.59375 0.09375 0
0.625 0.0625 0
0.625 0.125 0
0.609375 0.078125 0
0.625 0.09375 0
0.609375 0.109375 0
0.59375 0.09375 0
0.5625 0.0625 0
0.625 0.0625 0
0.578125 0.078125 0
0.59375 0.0625 0
0.609375 0.078125 0
0.59375 0.15625 0
0.5625 0.125 0
0.625 0.125 0
0.578125 0.140625 0
0.59375 0.125 0
0.609375 0.140625 0
0.59375 0.15625 0
0.5625 0.1875 0
0.5625 0.125 0
0.578125 0.171875 0
0.5625 0.15625 0
0.578125 0.140625 0
0.59375 0.15625 0
0.625 0.125 0
0.625 0.1875 0
0.609375 0.140625 0
0.625 0.15625 0
0.609375 0.171875 0
0.59375 0.15625 0
0.625 0.1875 0
0.5625 0.1875 0
0.609375 0.171875 0
0.59375 0.1875 0
0.578125 0.171875 0
0.59375 0.03125 0
0.5625 0 0
0.625 0 0
0.578125 0.015625 0
0.59375 0 0
0.609375 0.015625 0
0.59375 0.03125 0
0.5625 0.0625 0
0.5625 0 0
0.578125 0.046875 0
0.5625 0.03125 0
0.578125 0.015625 0
0.59375 0.03125 0
0.625 0 0
0.625 0.0625 0
0.609375 0.015625 0
0.625 0.03125 0
0.609375 0.046875 0
0.59375 0.03125 0
0.625 0.0625 0
0.5625 0.0625 0
0.609375 0.046875 0
0.59375 0.0625 0
0.578125 0.046875 0
0.65625 0.09375 0
0.625 0.125 0
0.625 0.0625 0
0.640625 0.109375 0
0.625 0.09375 0
0.640625 0.078125 0
0.65625 0.09375 0
0.625 0.0625 0
0.6875 0.0625 0
0.640625 0.078125 0
0.65625 0.0625 0
0.671875 0.078125 0
0.65625 0.09375 0
0.6875 0.125 0
0.625 0.125 0
0.671875 0.109375 0
0.65625 0.125 0
0.640625 0.109375 0
0.65625 0.09375 0
0.6875 0.0625 0
0.6875 0.125 0
0.671875 0.078125 0
0.6875 0.09375 0
0.671875 0.109375 0
0.65625 0.03125 0
0.625 0.0625 0
0.625 0 0
0.640625 0.046875 0
0.625 0.03125 0
0.640625 0.015625 0
0.65625 0.03125 0
0.6875 0.0625 0
0.625 0.0625 0
0.671875 0.046875 0
0.65625 0.0625 0
0.640625 0.046875 0
0.65625 0.03125 0
0.625 0 0
0.6875 0 0
0.640625 0.015625 0
0.65625 0 0
0.671875 0.015625 0
0.65625 0.03125 0
0.6875 0 0
0.6875 0.0625 0
0.671875 0.015625 0
0.6875 0.03125 0
0.671875 0.046875 0
0.65625 0.15625 0
0.625 0.1875 0
0.625 0.125 0
0.640625 0.171875 0
0.625 0.15625 0
0.640625 0.140625 0
0.65625 0.15625 0
0.6875 0.1875 0
0.625 0.1875 0
0.671875 0.171875 0
0.65625 0.1875 0
0.640625 0.171875 0
0.65625 0.15625 0
0.625 0.125 0
0.6875 0.125 0
0.640625 0.140625 0
0.65625 0.125 0
0.671875 0.140625 0
0.65625 0.15625 0
0.6875 0.125 0
0.6875 0.1875 0
0.671875 0.140625 0
0.6875 0.15625 0
0.671875 0.171875 0
0.65625 0.21875 0
0.625 0.25 0
0.625 0.1875 0
0.640625 0.234375 0
0.625 0.21875 0
0.640625 0.203125 0
0.65625 0.21875 0
0.625 0.1875 0
0.6875 0.1875 0
0.640625 0.203125 0
0.65625 0.1875 0
0.671875 0.203125 0
0.65625 0.21875 0
0.6875 0.25 0
0.625 0.25 0
0.671875 0.234375 0
0.65625 0.25 0
0.640625 0.234375 0
0.65625 0.21875 0
0.6875 0.1875 0
0.6875 0.25 0
0.671875 0.203125 0
0.6875 0.21875 0
0.671875 0.234375 0
0.71875 0.28125 0
0.6875 0.25 0
0.75 0.25 0
0.703125 0.265625 0
0.71875 0.25 0
0.734375 0.265625 0
0.71875 0.28125 0
0.6875 0.3125 0
0.6875 0.25 0
0.703125 0.296875 0
0.6875 0.28125 0
0.703125 0.265625 0
0.71875 0.28125 0
0.75 0.25 0
0.75 0.3125 0
0.734375 0.265625 0
0.75 0.28125 0
0.734375 0.296875 0
0.71875 0.28125 0
0.75 0.3125 0
0.6875 0.3125 0
0.734375 0.296875 0
0.71875 0.3125 0
0.703125 0.296875 0
0.71875 0.21875 0
0.75 0.25 0
0.6875 0.25 0
0.734375 0.234375 0
0.71875 0.25 0
0.703125 0.234375 0
0.71875 0.21875 0
0.6875 0.25 0
0.6875 0.1875 0
0.703125 0.234375 0
0.6875 0.21875 0
0.703125 0.203125 0
0.71875 0.21875 0
0.75 0.1875 0
0.75 0.25 0
0.734375 0.203125 0
0.75 0.21875 0
0.734375 0.234375 0
0.71875 0.21875 0
0.6875 0.1875 0
0.75 0.1875 0
0.703125 0.203125 0
0.71875 0.1875 0
0.734375 0.203125 0
0.71875 0.34375 0
0.75 0.3125 0
0.75 0.375 0
0.734375 0.328125 0
0.75 0.34375 0
0.734375 0.359375 0
0.71875 0.34375 0
0.6875 0.3125 0
0.75 0.3125 0
0.703125 0.328125 0
0.71875 0.3125 0
0.734375 0.328125 0
0.71875 0.34375 0
0.75 0.375 0
0.6875 0.375 0
0.734375 0.359375 0
0.71875 0.375 0
0.703125 0.359375 0
0.71875 0.34375 0
0.6875 0.375 0
0.6875 0.3125 0
0.703125 0.359375 0
0.6875 0.34375 0
0.703125 0.328125 0
0.78125 0.28125 0
0.75 0.3125 0
0.75 0.25 0
0.765625 0.296875 0
0.75 0.28125 0
0.765625 0.265625 0
0.78125 0.28125 0
0.8125 0.3125 0
0.75 0.3125 0
0.796875 0.296875 0
0.78125 0.3125 0
0.765625 0.296875 0
0.78125 0.28125 0
0.75 0.25 0
0.8125 0.25 0
0.765625 0.265625 0
0.78125 0.25 0
0.796875 0.265625 0
0.78125 0.28125 0
0.8125 0.25 0
0.8125 0.3125 0
0.796875 0.265625 0
0.8125 0.28125 0
0.796875 0.296875 0
0.78125 0.34375 0
0.75 0.375 0
0.75 0.3125 0
0.765625 0.359375 0
0.75 0.34375 0
0.765625 0.328125 0
0.78125 0.34375 0
0.75 0.3125 0
0.8125 0.3125 0
0.765625 0.328125 0
0.78125 0.3125 0
0.796875 0.328125 0
0.78125 0.34375 0
0.8125 0.375 0
0.75 0.375 0
0.796875 0.359375 0
0.78125 0.375 0
0.765625 0.359375 0
0.78125 0.34375 0
0.8125 0.3125 0
0.8125 0.375 0
0.796875 0.328125 0
0.8125 0.34375 0
0.796875 0.359375 0
0.71875 0.40625 0
0.6875 0.375 0
0.75 0.375 0
0.703125 0.390625 0
0.71875 0.375 0
0.734375 0.390625 0
0.71875 0.40625 0
0.6875 0.4375 0
0.6875 0.375 0
0.703125 0.421875 0
0.6875 0.40625 0
0.703125 0.390625 0
0.71875 0.40625 0
0.75 0.375 0
0.75 0.4375 0
0.734375 0.390625 0
0.75 0.40625 0
0.734375 0.421875 0
0.71875 0.40625 0
0.75 0.4375 0
0.6875 0.4375 0
0.734375 0.421875 0
0.71875 0.4375 0
0.703125 0.421875 0
0.71875 0.15625 0
0.75 0.125 0
0.75 0.1875 0
0.734375 0.140625 0
0.75 0.15625 0
0.734375 0.171875 0
0.71875 0.15625 0
0.75 0.1875 0
0.6875 0.1875 0
0.734375 0.171875 0
0.71875 0.1875 0
0.703125 0.171875 0
0.71875 0.15625 0
0.6875 0.125 0
0.75 0.125 0
0.703125 0.140625 0
0.71875 0.125 0
0.734375 0.140625 0
0.71875 0.15625 0
0.6875 0.1875 0
0.6875 0.125 0
0.703125 0.171875 0
0.6875 0.15625 0
0.703125 0.140625 0
0.78125 0.21875 0
0.75 0.25 0
0.75 0.1875 0
0.765625 0.234375 0
0.75 0.21875 0
0.765625 0.203125 0
0.78125 0.21875 0
0.75 0.1875 0
0.8125 0.1875 0
0.765625 0.203125 0
0.78125 0.1875 0
0.796875 0.203125 0
0.78125 0.21875 0
0.8125 0.25 0
0.75 0.25 0
0.796875 0.234375 0
0.78125 0.25 0
0.765625 0.234375 0
0.78125 0.21875 0
0.8125 0.1875 0
0.8125 0.25 0
0.796875 0.203125 0
0.8125 0.21875 0
0.796875 0.234375 0
0.78125 0.15625 0
0.75 0.1875 0
0.75 0.125 0
0.765625 0.171875 0
0.75 0.15625 0
0.765625 0.140625 0
0.78125 0.15625 0
0.8125 0.1875 0
0.75 0.1875 0
0.796875 0.171875 0
0.78125 0.1875 0
0.765625 0.171875 0
0.78125 0.15625 0
0.75 0.125 0
0.8125 0.125 0
0.765625 0.140625 0
0.78125 0.125 0
0.796875 0.140625 0
0.78125 0.15625 0
0.8125 0.125 0
0.8125 0.1875 0
0.796875 0.140625 0
0.8125 0.15625 0
0.796875 0.171875 0
0.71875 0.09375 0
0.75 0.125 0
0.6875 0.125 0
0.734375 0.109375 0
0.71875 0.125 0
0.703125 0.109375 0
0.71875 0.09375 0
0.6875 0.125 0
0.6875 0.0625 0
0.703125 0.109375 0
0.6875 0.09375 0
0.703125 0.078125 0
0.71875 0.09375 0
0.75 0.0625 0
0.75 0.125 0
0.734375 0.078125 0
0.75 0.09375 0
0.734375 0.109375 0
0.71875 0.09375 0
0.6875 0.0625 0
0.75 0.0625 0
0.703125 0.078125 0
0.71875 0.0625 0
0.734375 0.078125 0
0.71875 0.46875 0
0.75 0.5 0
0.6875 0.5 0
0.734375 0.484375 0
0.71875 0.5 0
0.703125 0.484375 0
0.71875 0.46875 0
0.6875 0.5 0
0.6875 0.4375 0
0.703125 0.484375 0
0.6875 0.46875 0
0.703125 0.453125 0
0.71875 0.46875 0
0.75 0.4375 0
0.75 0.5 0
0.734375 0.453125 0
0.75 0.46875 0
0.734375 0.484375 0
0.71875 0.46875 0
0.6875 0.4375 0
0.75 0.4375 0
0.703125 0.453125 0
0.71875 0.4375 0
0.734375 0.453125 0
0.71875 0.53125 0
0.6875 0.5 0
0.75 0.5 0
0.703125 0.515625 0
0.71875 0.5 0
0.734375 0.515625 0
0.71875 0.53125 0
0.6875 0.5625 0
0.6875 0.5 0
0.703125 0.546875 0
0.6875 0.53125 0
0.703125 0.515625 0
0.71875 0.53125 0
0.75 0.5 0
0.75 0.5625 0
0.734375 0.515625 0
0.75 0.53125 0
0.734375 0.546875 0
0.71875 0.53125 0
0.75 0.5625 0
0.6875 0.5625 0
0.734375 0.546875 0
0.71875 0.5625 0
0.703125 0.546875 0
0.78125 0.46875 0
0.75 0.5 0
0.75 0.4375 0
0.765625 0.484375 0
0.75 0.46875 0
0.765625 0.453125 0
0.78125 0.46875 0
0.75 0.4375 0
0.8125 0.4375 0
0.765625 0.453125 0
0.78125 0.4375 0
0.796875 0.453125 0
0.78125 0.46875 0
0.8125 0.5 0
0.75 0.5 0
0.796875 0.484375 0
0.78125 0.5 0
0.765625 0.484375 0
0.78125 0.46875 0
0.8125 0.4375 0
0.8125 0.5 0
0.796875 0.453125 0
0.8125 0.46875 0
0.796875 0.484375 0
0.78125 0.40625 0
0.75 0.4375 0
0.75 0.375 0
0.765625 0.421875 0
0.75 0.40625 0
0.765625 0.390625 0
0.78125 0.40625 0
0.8125 0.4375 0
0.75 0.4375 0
0.796875 0.421875 0
0.78125 0.4375 0
0.765625 0.421875 0
0.78125 0.40625 0
0.75 0.375 0
0.8125 0.375 0
0.765625 0.390625 0
0.78125 0.375 0
0.796875 0.390625 0
0.78125 0.40625 0
0.8125 0.375 0
0.8125 0.4375 0
0.796875 0.390625 0
0.8125 0.40625 0
0.796875 0.421875 0
0.71875 0.59375 0
0.75 0.5625 0
0.75 0.625 0
0.734375 0.578125 0
0.75 0.59375 0
0.734375 0.609375 0
0.71875 0.59375 0
0.6875 0.5625 0
0.75 0.5625 0
0.703125 0.578125 0
0.71875 0.5625 0
0.734375 0.578125 0
0.71875 0.59375 0
0.75 0.625 0
0.6875 0.625 0
0.734375 0.609375 0
0.71875 0.625 0
0.703125 0.609375 0
0.71875 0.59375 0
0.6875 0.625 0
0.6875 0.5625 0
0.703125 0.609375 0
0.6875 0.59375 0
0.703125 0.578125 0
0.78125 0.53125 0
0.75 0.5625 0
0.75 0.5 0
0.765625 0.546875 0
0.75 0.53125 0
0.765625 0.515625 0
0.78125 0.53125 0
0.8125 0.5625 0
0.75 0.5625 0
0.796875 0.546875 0
0.78125 0.5625 0
0.765625 0.546875 0
0.78125 0.53125 0
0.75 0.5 0
0.8125 0.5 0
0.765625 0.515625 0
0.78125 0.5 0
0.796875 0.515625 0
0.78125 0.53125 0
0.8125 0.5 0
0.8125 0.5625 0
0.796875 0.515625 0
0.8125 0.53125 0
0.796875 0.546875 0
0.78125 0.59375 0
0.75 0.625 0
0.75 0.5625 0
0.765625 0.609375 0
0.75 0.59375 0
0.765625 0.578125 0
0.78125 0.59375 0
0.75 0.5625 0
0.8125 0.5625 0
0.765625 0.578125 0
0.78125 0.5625 0
0.796875 0.578125 0
0.78125 0.59375 0
0.8125 0.625 0
0.75 0.625 0
0.796875 0.609375 0
0.78125 0.625 0
0.765625 0.609375 0
0.78125 0.59375 0
0.8125 0.5625 0
0.8125 0.625 0
0.796875 0.578125 0
0.8125 0.59375 0
0.796875 0.609375 0
0.71875 0.65625 0
0.6875 0.625 0
0.75 0.625 0
0.703125 0.640625 0
0.71875 0.625 0
0.734375 0.640625 0
0.71875 0.65625 0
0.6875 0.6875 0
0.6875 0.625 0
0.703125 0.671875 0
0.6875 0.65625 0
0.703125 0.640625 0
0.71875 0.65625 0
0.75 0.625 0
0.75 0.6875 0
0.734375 0.640625 0
0.75 0.65625 0
0.734375 0.671875 0
0.71875 0.65625 0
0.75 0.6875 0
0.6875 0.6875 0
0.734375 0.671875 0
0.71875 0.6875 0
0.703125 0.671875 0
0.84375 0.34375 0
0.875 0.375 0
0.8125 0.375 0
0.859375 0.359375 0
0.84375 0.375 0
0.828125 0.359375 0
0.84375 0.34375 0
0.8125 0.375 0
0.8125 0.3125 0
0.828125 0.359375 0
0.8125 0.34375 0
0.828125 0.328125 0
0.84375 0.34375 0
0.875 0.3125 0
0.875 0.375 0
0.859375 0.328125 0
0.875 0.34375 0
0.859375 0.359375 0
0.84375 0.34375 0
0.8125 0.3125 0
0.875 0.3125 0
0.828125 0.328125 0
0.84375 0.3125 0
0.859375 0.328125 0
0.84375 0.40625 0
0.8125 0.375 0
0.875 0.375 0
0.828125 0.390625 0
0.84375 0.375 0
0.859375 0.390625 0
0.84375 0.40625 0
0.8125 0.4375 0
0.8125 0.375 0
0.828125 0.421875 0
0.8125 0.40625 0
0.828125 0.390625 0
0.84375 0.40625 0
0.875 0.375 0
0.875 0.4375 0
0.859375 0.390625 0
0.875 0.40625 0
0.859375 0.421875 0
0.84375 0.40625 0
0.875 0.4375 0
0.8125 0.4375 0
0.859375 0.421875 0
0.84375 0.4375 0
0.828125 0.421875 0
0.84375 0.28125 0
0.8125 0.25 0
0.875 0.25 0
0.828125 0.265625 0
0.84375 0.25 0
0.859375 0.265625 0
0.84375 0.28125 0
0.8125 0.3125 0
0.8125 0.25 0
0.828125 0.296875 0
0.8125 0.28125 0
0.828125 0.265625 0
0.84375 0.28125 0
0.875 0.25 0
0.875 0.3125 0
0.859375 0.265625 0
0.875 0.28125 0
0.859375 0.296875 0
0.84375 0.28125 0
0.875 0.3125 0
0.8125 0.3125 0
0.859375 0.296875 0
0.84375 0.3125 0
0.828125 0.296875 0
0.84375 0.21875 0
0.875 0.25 0
0.8125 0.25 0
0.859375 0.234375 0
0.84375 0.25 0
0.828125 0.234375 0
0.84375 0.21875 0
0.8125 0.25 0
0.8125 0.1875 0
0.828125 0.234375 0
0.8125 0.21875 0
0.828125 0.203125 0
0.84375 0.21875 0
0.875 0.1875 0
0.875 0.25 0
0.859375 0.203125 0
0.875 0.21875 0
0.859375 0.234375 0
0.84375 0.21875 0
0.8125 0.1875 0
0.875 0.1875 0
0.828125 0.203125 0
0.84375 0.1875 0
0.859375 0.203125 0
0.90625 0.34375 0
0.875 0.375 0
0.875 0.3125 0
0.890625 0.359375 0
0.875 0.34375 0
0.890625 0.328125 0
0.90625 0.34375 0
0.875 0.3125 0
0.9375 0.3125 0
0.890625 0.328125 0
0.90625 0.3125 0
0.921875 0.328125 0
0.90625 0.34375 0
0.9375 0.375 0
0.875 0.375 0
0.921875 0.359375 0
0.90625 0.375 0
0.890625 0.359375 0
0.90625 0.34375 0
0.9375 0.3125 0
0.9375 0.375 0
0.921875 0.328125 0
0.9375 0.34375 0
0.921875 0.359375 0
0.90625 0.28125 0
0.875 0.3125 0
0.875 0.25 0
0.890625 0.296875 0
0.875 0.28125 0
0.890625 0.265625 0
0.90625 0.28125 0
0.9375 0.3125 0
0.875 0.3125 0
0.921875 0.296875 0
0.90625 0.3125 0
0.890625 0.296875 0
0.90625 0.28125 0
0.875 0.25 0
0.9375 0.25 0
0.890625 0.265625 0
0.90625 0.25 0
0.921875 0.265625 0
0.90625 0.28125 0
0.9375 0.25 0
0.9375 0.3125 0
0.921875 0.265625 0
0.9375 0.28125 0
0.921875 0.296875 0
0.84375 0.46875 0
0.875 0.5 0
0.8125 0.5 0
0.859375 0.484375 0
0.84375 0.5 0
0.828125 0.484375 0
0.84375 0.46875 0
0.8125 0.5 0
0.8125 0.4375 0
0.828125 0.484375 0
0.8125 0.46875 0
0.828125 0.453125 0
0.84375 0.46875 0
0.875 0.4375 0
0.875 0.5 0
0.859375 0.453125 0
0.875 0.46875 0
0.859375 0.484375 0
0.84375 0.46875 0
0.8125 0.4375 0
0.875 0.4375 0
0.828125 0.453125 0
0.84375 0.4375 0
0.859375 0.453125 0
0.84375 0.53125 0
0.8125 0.5 0
0.875 0.5 0
0.828125 0.515625 0
0.84375 0.5 0
0.859375 0.515625 0
0.84375 0.53125 0
0.8125 0.5625 0
0.8125 0.5 0
0.828125 0.546875 0
0.8125 0.53125 0
0.828125 0.515625 0
0.84375 0.53125 0
0.875 0.5 0
0.875 0.5625 0
0.859375 0.515625 0
0.875 0.53125 0
0.859375 0.546875 0
0.84375 0.53125 0
0.875 0.5625 0
0.8125 0.5625 0
0.859375 0.546875 0
0.84375 0.5625 0
0.828125 0.546875 0
0.90625 0.40625 0
0.875 0.4375 0
0.875 0.375 0
0.890625 0.421875 0
0.875 0.40625 0
0.890625 0.390625 0
0.90625 0.40625 0
0.9375 0.4375 0
0.875 0.4375 0
0.921875 0.421875 0
0.90625 0.4375 0
0.890625 0.421875 0
0.90625 0.40625 0
0.875 0.375 0
0.9375 0.375 0
0.890625 0.390625 0
0.90625 0.375 0
0.921875 0.390625 0
0.90625 0.40625 0
0.9375 0.375 0
0.9375 0.4375 0
0.921875 0.390625 0
0.9375 0.40625 0
0.921875 0.421875 0
0.90625 0.46875 0
0.875 0.5 0
0.875 0.4375 0
0.890625 0.484375 0
0.875 0.46875 0
0.890625 0.453125 0
0.90625 0.46875 0
0.875 0.4375 0
0.9375 0.4375 0
0.890625 0.453125 0
0.90625 0.4375 0
0.921875 0.453125 0
0.90625 0.46875 0
0.9375 0.5 0
0.875 0.5 0
0.921875 0.484375 0
0.90625 0.5 0
0.890625 0.484375 0
0.90625 0.46875 0
0.9375 0.4375 0
0.9375 0.5 0
0.921875 0.453125 0
0.9375 0.46875 0
0.921875 0.484375 0
0.71875 0.03125 0
0.6875 0 0
0.75 0 0
0.703125 0.015625 0
0.71875 0 0
0.734375 0.015625 0
0.71875 0.03125 0
0.6875 0.0625 0
0.6875 0 0
0.703125 0.046875 0
0.6875 0.03125 0
0.703125 0.015625 0
0.71875 0.03125 0
0.75 0 0
0.75 0.0625 0
0.734375 0.015625 0
0.75 0.03125 0
0.734375 0.046875 0
0.71875 0.03125 0
0.75 0.0625 0
0.6875 0.0625 0
0.734375 0.046875 0
0.71875 0.0625 0
0.703125 0.046875 0
0.78125 0.03125 0
0.75 0.0625 0
0.75 0 0
0.765625 0.046875 0
0.75 0.03125 0
0.765625 0.015625 0
0.78125 0.03125 0
0.8125 0.0625 0
0.75 0.0625 0
0.796875 0.046875 0
0.78125 0.0625 0
0.765625 0.046875 0
0.78125 0.03125 0
0.75 0 0
0.8125 0 0
0.765625 0.015625 0
0.78125 0 0
0.796875 0.015625 0
0.78125 0.03125 0
0.8125 0 0
0.8125 0.0625 0
0.796875 0.015625 0
0.8125 0.03125 0
0.796875 0.046875 0
0.78125 0.09375 0
0.75 0.125 0
0.75 0.0625 0
0.765625 0.109375 0
0.75 0.09375 0
0.765625 0.078125 0
0.78125 0.09375 0
0.75 0.0625 0
0.8125 0.0625 0
0.765625 0.078125 0
0.78125 0.0625 0
0.796875 0.078125 0
0.78125 0.09375 0
0.8125 0.125 0
0.75 0.125 0
0.796875 0.109375 0
0.78125 0.125 0
0.765625 0.109375 0
0.78125 0.09375 0
0.8125 0.0625 0
0.8125 0.125 0
0.796875 0.078125 0
0.8125 0.09375 0
0.796875 0.109375 0
0.84375 0.15625 0
0.8125 0.125 0
0.875 0.125 0
0.828125 0.140625 0
0.84375 0.125 0
0.859375 0.140625 0
0.84375 0.15625 0
0.8125 0.1875 0
0.8125 0.125 0
0.828125 0.171875 0
0.8125 0.15625 0
0.828125 0.140625 0
0.84375 0.15625 0
0.875 0.125 0
0.875 0.1875 0
0.859375 0.140625 0
0.875 0.15625 0
0.859375 0.171875 0
0.84375 0.15625 0
0.875 0.1875 0
0.8125 0.1875 0
0.859375 0.171875 0
0.84375 0.1875 0
0.828125 0.171875 0
0.84375 0.09375 0
0.875 0.125 0
0.8125 0.125 0
0.859375 0.109375 0
0.84375 0.125 0
0.828125 0.109375 0
0.84375 0.09375 0
0.8125 0.125 0
0.8125 0.0625 0
0.828125 0.109375 0
0.8125 0.09375 0
0.828125 0.078125 0
0.84375 0.09375 0
0.875 0.0625 0
0.875 0.125 0
0.859375 0.078125 0
0.875 0.09375 0
0.859375 0.109375 0
0.84375 0.09375 0
0.8125 0.0625 0
0.875 0.0625 0
0.828125 0.078125 0
0.84375 0.0625 0
0.859375 0.078125 0
0.90625 0.15625 0
0.875 0.1875 0
0.875 0.125 0
0.890625 0.171875 0
0.875 0.15625 0
0.890625 0.140625 0
0.90625 0.15625 0
0.9375 0.1875 0
0.875 0.1875 0
0.921875 0.171875 0
0.90625 0.1875 0
0.890625 0.171875 0
0.90625 0.15625 0
0.875 0.125 0
0.9375 0.125 0
0.890625 0.140625 0
0.90625 0.125 0
0.921875 0.140625 0
0.90625 0.15625 0
0.9375 0.125 0
0.9375 0.1875 0
0.921875 0.140625 0
0.9375 0.15625 0
0.921875 0.171875 0
0.90625 0.21875 0
0.875 0.25 0
0.875 0.1875 0
0.890625 0.234375 0
0.875 0.21875 0
0.890625 0.203125 0
0.90625 0.21875 0
0.875 0.1875 0
0.9375 0.1875 0
0.890625 0.203125 0
0.90625 0.1875 0
0.921875 0.203125 0
0.90625 0.21875 0
0.9375 0.25 0
0.875 0.25 0
0.921875 0.234375 0
0.90625 0.25 0
0.890625 0.234375 0
0.90625 0.21875 0
0.9375 0.1875 0
0.9375 0.25 0
0.921875 0.203125 0
0.9375 0.21875 0
0.921875 0.234375 0
0.84375 0.03125 0
0.8125 0 0
0.875 0 0
0.828125 0.015625 0
0.84375 0 0
0.859375 0.015625 0
0.84375 0.03125 0
0.8125 0.0625 0
0.8125 0 0
0.828125 0.046875 0
0.8125 0.03125 0
0.828125 0.015625 0
0.84375 0.03125 0
0.875 0 0
0.875 0.0625 0
0.859375 0.015625 0
0.875 0.03125 0
0.859375 0.046875 0
0.84375 0.03125 0
0.875 0.0625 0
0.8125 0.0625 0
0.859375 0.046875 0
0.84375 0.0625 0
0.828125 0.046875 0
0.90625 0.09375 0
0.875 0.125 0
0.875 0.0625 0
0.890625 0.109375 0
0.875 0.09375 0
0.890625 0.078125 0
0.90625 0.09375 0
0.875 0.0625 0
0.9375 0.0625 0
0.890625 0.078125 0
0.90625 0.0625 0
0.921875 0.078125 0
0.90625 0.09375 0
0.9375 0.125 0
0.875 0.125 0
0.921875 0.109375 0
0.90625 0.125 0
0.890625 0.109375 0
0.90625 0.09375 0
0.9375 0.0625 0
0.9375 0.125 0
0.921875 0.078125 0
0.9375 0.09375 0
0.921875 0.109375 0
0.90625 0.03125 0
0.875 0.0625 0
0.875 0 0
0.890625 0.046875 0
0.875 0.03125 0
0.890625 0.015625 0
0.90625 0.03125 0
0.9375 0.0625 0
0.875 0.0625 0
0.921875 0.046875 0
0.90625 0.0625 0
0.890625 0.046875 0
0.90625 0.03125 0
0.875 0 0
0.9375 0 0
0.890625 0.015625 0
0.90625 0 0
0.921875 0.015625 0
0.90625 0.03125 0
0.9375 0 0
0.9375 0.0625 0
0.921875 0.015625 0
0.9375 0.03125 0
0.921875 0.046875 0
0.03125 0.96875 0
0 1 0
0 0.9375 0
0.015625 0.984375 0
0 0.96875 0
0.015625 0.953125 0
0.03125 0.96875 0
0 0.9375 0
0.0625 0.9375 0
0.015625 0.953125 0
0.03125 0.9375 0
0.046875 0.953125 0
0.03125 0.96875 0
0.0625 1 0
0 1 0
0.046875 0.984375 0
0.03125 1 0
0.015625 0.984375 0
0.03125 0.96875 0
0.0625 0.9375 0
0.0625 1 0
0.046875 0.953125 0
0.0625 0.96875 0
0.046875 0.984375 0
0.09375 0.96875 0
0.125 1 0
0.0625 1 0
0.109375 0.984375 0
0.09375 1 0
0.078125 0.984375 0
0.09375 0.96875 0
0.0625 1 0
0.0625 0.9375 0
0.078125 0.984375 0
0.0625 0.96875 0
0.078125 0.953125 0
0.09375 0.96875 0
0.125 0.9375 0
0.125 1 0
0.109375 0.953125 0
0.125 0.96875 0
0.109375 0.984375 0
0.09375 0.96875 0
0.0625 0.9375 0
0.125 0.9375 0
0.078125 0.953125 0
0.09375 0.9375 0
0.109375 0.953125 0
0.15625 0.96875 0
0.125 1 0
0.125 0.9375 0
0.140625 0.984375 0
0.125 0.96875 0
0.140625 0.953125 0
0.15625 0.96875 0
0.125 0.9375 0
0.1875 0.9375 0
0.140625 0.953125 0
0.15625 0.9375 0
0.171875 0.953125 0
0.15625 0.96875 0
0.1875 1 0
0.125 1 0
0.171875 0.984375 0
0.15625 1 0
0.140625 0.984375 0
0.15625 0.96875 0
0.1875 0.9375 0
0.1875 1 0
0.171875 0.953125 0
0.1875 0.96875 0
0.171875 0.984375 0
0.21875 0.96875 0
0.25 1 0
0.1875 1 0
0.234375 0.984375 0
0.21875 1 0
0.203125 0.984375 0
0.21875 0.96875 0
0.1875 1 0
0.1875 0.9375 0
0.203125 0.984375 0
0.1875 0.96875 0
0.203125 0.953125 0
0.21875 0.96875 0
0.25 0.9375 0
0.25 1 0
0.234375 0.953125 0
0.25 0.96875 0
0.234375 0.984375 0
0.21875 0.96875 0
0.1875 0.9375 0
0.25 0.9375 0
0.203125 0.953125 0
0.21875 0.9375 0
0.234375 0.953125 0
0.28125 0.96875 0
0.25 1 0
0.25 0.9375 0
0.265625 0.984375 0
0.25 0.96875 0
0.265625 0.953125 0
0.28125 0.96875 0
0.25 0.9375 0
0.3125 0.9375 0
0.265625 0.953125 0
0.28125 0.9375 0
0.296875 0.953125 0
0.28125 0.96875 0
0.3125 1 0
0.25 1 0
0.296875 0.984375 0
0.28125 1 0
0.265625 0.984375 0
0.28125 0.96875 0
0.3125 0.9375 0
0.3125 1 0
0.296875 0.953125 0
0.3125 0.96875 0
0.296875 0.984375 0
0.34375 0.96875 0
0.375 1 0
0.3125 1 0
0.359375 0.984375 0
0.34375 1 0
0.328125 0.984375 0
0.34375 0.96875 0
0.3125 1 0
0.3125 0.9375 0
0.328125 0.984375 0
0.3125 0.96875 0
0.328125 0.953125 0
0.34375 0.96875 0
0.375 0.9375 0
0.375 1 0
0.359375 0.953125 0
0.375 0.96875 0
0.359375 0.984375 0
0.34375 0.96875 0
0.3125 0.9375 0
0.375 0.9375 0
0.328125 0.953125 0
0.34375 0.9375 0
0.359375 0.953125 0
0.40625 0.96875 0
0.375 1 0
0.375 0.9375 0
0.390625 0.984375 0
0.375 0.96875 0
0.390625 0.953125 0
0.40625 0.96875 0
0.375 0.9375 0
0.4375 0.9375 0
0.390625 0.953125 0
0.40625 0.9375 0
0.421875 0.953125 0
0.40625 0.96875 0
0.4375 1 0
0.375 1 0
0.421875 0.984375 0
0.40625 1 0
0.390625 0.984375 0
0.40625 0.96875 0
0.4375 0.9375 0
0.4375 1 0
0.421875 0.953125 0
0.4375 0.96875 0
0.421875 0.984375 0
0.46875 0.96875 0
0.5 1 0
0.4375 1 0
0.484375 0.984375 0
0.46875 1 0
0.453125 0.984375 0
0.46875 0.96875 0
0.4375 1 0
0.4375 0.9375 0
0.453125 0.984375 0
0.4375 0.96875 0
0.453125 0.953125 0
0.46875 0.96875 0
0.5 0.9375 0
0.5 1 0
0.484375 0.953125 0
0.5 0.96875 0
0.484375 0.984375 0
0.46875 0.96875 0
0.4375 0.9375 0
0.5 0.9375 0
0.453125 0.953125 0
0.46875 0.9375 0
0.484375 0.953125 0
0.53125 0.96875 0
0.5 1 0
0.5 0.9375 0
0.515625 0.984375 0
0.5 0.96875 0
0.515625 0.953125 0
0.53125 0.96875 0
0.5 0.9375 0
0.5625 0.9375 0
0.515625 0.953125 0
0.53125 0.9375 0
0.546875 0.953125 0
0.53125 0.96875 0
0.5625 1 0
0.5 1 0
0.546875 0.984375 0
0.53125 1 0
0.515625 0.984375 0
0.53125 0.96875 0
0.5625 0.9375 0
0.5625 1 0
0.546875 0.953125 0
0.5625 0.96875 0
0.546875 0.984375 0
0.53125 0.90625 0
0.5 0.9375 0
0.5 0.875 0
0.515625 0.921875 0
0.5 0.90625 0
0.515625 0.890625 0
0.53125 0.90625 0
0.5625 0.9375 0
0.5 0.9375 0
0.546875 0.921875 0
0.53125 0.9375 0
0.515625 0.921875 0
0.53125 0.90625 0
0.5 0.875 0
0.5625 0.875 0
0.515625 0.890625 0
0.53125 0.875 0
0.546875 0.890625 0
0.53125 0.90625 0
0.5625 0.875 0
0.5625 0.9375 0
0.546875 0.890625 0
0.5625 0.90625 0
0.546875 0.921875 0
0.59375 0.90625 0
0.5625 0.875 0
0.625 0.875 0
0.578125 0.890625 0
0.59375 0.875 0
0.609375 0.890625 0
0.59375 0.90625 0
0.5625 0.9375 0
0.5625 0.875 0
0.578125 0.921875 0
0.5625 0.90625 0
0.578125 0.890625 0
0.59375 0.90625 0
0.625 0.875 0
0.625 0.9375 0
0.609375 0.890625 0
0.625 0.90625 0
0.609375 0.921875 0
0.59375 0.90625 0
0.625 0.9375 0
0.5625 0.9375 0
0.609375 0.921875 0
0.59375 0.9375 0
0.578125 0.921875 0
0.59375 0.84375 0
0.625 0.875 0
0.5625 0.875 0
0.609375 0.859375 0
0.59375 0.875 0
0.578125 0.859375 0
0.59375 0.84375 0
0.5625 0.875 0
0.5625 0.8125 0
0.578125 0.859375 0
0.5625 0.84375 0
0.578125 0.828125 0
0.59375 0.84375 0
0.625 0.8125 0
0.625 0.875 0
0.609375 0.828125 0
0.625 0.84375 0
0.609375 0.859375 0
0.59375 0.84375 0
0.5625 0.8125 0
0.625 0.8125 0
0.578125 0.828125 0
0.59375 0.8125 0
0.609375 0.828125 0
0.59375 0.96875 0
0.625 1 0
0.5625 1 0
0.609375 0.984375 0
0.59375 1 0
0.578125 0.984375 0
0.59375 0.96875 0
0.5625 1 0
0.5625 0.9375 0
0.578125 0.984375 0
0.5625 0.96875 0
0.578125 0.953125 0
0.59375 0.96875 0
0.625 0.9375 0
0.625 1 0
0.609375 0.953125 0
0.625 0.96875 0
0.609375 0.984375 0
0.59375 0.96875 0
0.5625 0.9375 0
0.625 0.9375 0
0.578125 0.953125 0
0.59375 0.9375 0
0.609375 0.953125 0
0.65625 0.90625 0
0.625 0.9375 0
0.625 0.875 0
0.640625 0.921875 0
0.625 0.90625 0
0.640625 0.890625 0
0.65625 0.90625 0
0.6875 0.9375 0
0.625 0.9375 0
0.671875 0.921875 0
0.65625 0.9375 0
0.640625 0.921875 0
0.65625 0.90625 0
0.625 0.875 0
0.6875 0.875 0
0.640625 0.890625 0
0.65625 0.875 0
0.671875 0.890625 0
0.65625 0.90625 0
0.6875 0.875 0
0.6875 0.9375 0
0.671875 0.890625 0
0.6875 0.90625 0
0.671875 0.921875 0
0.65625 0.96875 0
0.625 1 0
0.625 0.9375 0
0.640625 0.984375 0
0.625 0.96875 0
0.640625 0.953125 0
0.65625 0.96875 0
0.625 0.9375 0
0.6875 0.9375 0
0.640625 0.953125 0
0.65625 0.9375 0
0.671875 0.953125 0
0.65625 0.96875 0
0.6875 1 0
0.625 1 0
0.671875 0.984375 0
0.65625 1 0
0.640625 0.984375 0
0.65625 0.96875 0
0.6875 0.9375 0
0.6875 1 0
0.671875 0.953125 0
0.6875 0.96875 0
0.671875 0.984375 0
0.65625 0.84375 0
0.625 0.875 0
0.625 0.8125 0
0.640625 0.859375 0
0.625 0.84375 0
0.640625 0.828125 0
0.65625 0.84375 0
0.625 0.8125 0
0.6875 0.8125 0
0.640625 0.828125 0
0.65625 0.8125 0
0.671875 0.828125 0
0.65625 0.84375 0
0.6875 0.875 0
0.625 0.875 0
0.671875 0.859375 0
0.65625 0.875 0
0.640625 0.859375 0
0.65625 0.84375 0
0.6875 0.8125 0
0.6875 0.875 0
0.671875 0.828125 0
0.6875 0.84375 0
0.671875 0.859375 0
0.65625 0.78125 0
0.625 0.8125 0
0.625 0.75 0
0.640625 0.796875 0
0.625 0.78125 0
0.640625 0.765625 0
0.65625 0.78125 0
0.6875 0.8125 0
0.625 0.8125 0
0.671875 0.796875 0
0.65625 0.8125 0
0.640625 0.796875 0
0.65625 0.78125 0
0.625 0.75 0
0.6875 0.75 0
0.640625 0.765625 0
0.65625 0.75 0
0.671875 0.765625 0
0.65625 0.78125 0
0.6875 0.75 0
0.6875 0.8125 0
0.671875 0.765625 0
0.6875 0.78125 0
0.671875 0.796875 0
0.71875 0.71875 0
0.75 0.75 0
0.6875 0.75 0
0.734375 0.734375 0
0.71875 0.75 0
0.703125 0.734375 0
0.71875 0.71875 0
0.6875 0.75 0
0.6875 0.6875 0
0.703125 0.734375 0
0.6875 0.71875 0
0.703125 0.703125 0
0.71875 0.71875 0
0.75 0.6875 0
0.75 0.75 0
0.734375 0.703125 0
0.75 0.71875 0
0.734375 0.734375 0
0.71875 0.71875 0
0.6875 0.6875 0
0.75 0.6875 0
0.703125 0.703125 0
0.71875 0.6875 0
0.734375 0.703125 0
0.71875 0.78125 0
0.6875 0.75 0
0.75 0.75 0
0.703125 0.765625 0
0.71875 0.75 0
0.734375 0.765625 0
0.71875 0.78125 0
0.6875 0.8125 0
0.6875 0.75 0
0.703125 0.796875 0
0.6875 0.78125 0
0.703125 0.765625 0
0.71875 0.78125 0
0.75 0.75 0
0.75 0.8125 0
0.734375 0.765625 0
0.75 0.78125 0
0.734375 0.796875 0
0.71875 0.78125 0
0.75 0.8125 0
0.6875 0.8125 0
0.734375 0.796875 0
0.71875 0.8125 0
0.703125 0.796875 0
0.78125 0.71875 0
0.75 0.75 0
0.75 0.6875 0
0.765625 0.734375 0
0.75 0.71875 0
0.765625 0.703125 0
0.78125 0.71875 0
0.75 0.6875 0
0.8125 0.6875 0
0.765625 0.703125 0
0.78125 0.6875 0
0.796875 0.703125 0
0.78125 0.71875 0
0.8125 0.75 0
0.75 0.75 0
0.796875 0.734375 0
0.78125 0.75 0
0.765625 0.734375 0
0.78125 0.71875 0
0.8125 0.6875 0
0.8125 0.75 0
0.796875 0.703125 0
0.8125 0.71875 0
0.796875 0.734375 0
0.78125 0.65625 0
0.75 0.6875 0
0.75 0.625 0
0.765625 0.671875 0
0.75 0.65625 0
0.765625 0.640625 0
0.78125 0.65625 0
0.8125 0.6875 0
0.75 0.6875 0
0.796875 0.671875 0
0.78125 0.6875 0
0.765625 0.671875 0
0.78125 0.65625 0
0.75 0.625 0
0.8125 0.625 0
0.765625 0.640625 0
0.78125 0.625 0
0.796875 0.640625 0
0.78125 0.65625 0
0.8125 0.625 0
0.8125 0.6875 0
0.796875 0.640625 0
0.8125 0.65625 0
0.796875 0.671875 0
0.71875 0.84375 0
0.75 0.8125 0
0.75 0.875 0
0.734375 0.828125 0
0.75 0.84375 0
0.734375 0.859375 0
0.71875 0.84375 0
0.6875 0.8125 0
0.75 0.8125 0
0.703125 0.828125 0
0.71875 0.8125 0
0.734375 0.828125 0
0.71875 0.84375 0
0.75 0.875 0
0.6875 0.875 0
0.734375 0.859375 0
0.71875 0.875 0
0.703125 0.859375 0
0.71875 0.84375 0
0.6875 0.875 0
0.6875 0.8125 0
0.703125 0.859375 0
0.6875 0.84375 0
0.703125 0.828125 0
0.78125 0.78125 0
0.75 0.8125 0
0.75 0.75 0
0.765625 0.796875 0
0.75 0.78125 0
0.765625 0.765625 0
0.78125 0.78125 0
0.8125 0.8125 0
0.75 0.8125 0
0.796875 0.796875 0
0.78125 0.8125 0
0.765625 0.796875 0
0.78125 0.78125 0
0.75 0.75 0
0.8125 0.75 0
0.765625 0.765625 0
0.78125 0.75 0
0.796875 0.765625 0
0.78125 0.78125 0
0.8125 0.75 0
0.8125 0.8125 0
0.796875 0.765625 0
0.8125 0.78125 0
0.796875 0.796875 0
0.78125 0.84375 0
0.75 0.875 0
0.75 0.8125 0
0.765625 0.859375 0
0.75 0.84375 0
0.765625 0.828125 0
0.78125 0.84375 0
0.75 0.8125 0
0.8125 0.8125 0
0.765625 0.828125 0
0.78125 0.8125 0
0.796875 0.828125 0
0.78125 0.84375 0
0.8125 0.875 0
0.75 0.875 0
0.796875 0.859375 0
0.78125 0.875 0
0.765625 0.859375 0
0.78125 0.84375 0
0.8125 0.8125 0
0.8125 0.875 0
0.796875 0.828125 0
0.8125 0.84375 0
0.796875 0.859375 0
0.71875 0.90625 0
0.6875 0.875 0
0.75 0.875 0
0.703125 0.890625 0
0.71875 0.875 0
0.734375 0.890625 0
0.71875 0.90625 0
0.6875 0.9375 0
0.6875 0.875 0
0.703125 0.921875 0
0.6875 0.90625 0
0.703125 0.890625 0
0.71875 0.90625 0
0.75 0.875 0
0.75 0.9375 0
0.734375 0.890625 0
0.75 0.90625 0
0.734375 0.921875 0
0.71875 0.90625 0
0.75 0.9375 0
0.6875 0.9375 0
0.734375 0.921875 0
0.71875 0.9375 0
0.703125 0.921875 0
0.84375 0.65625 0
0.8125 0.625 0
0.875 0.625 0
0.828125 0.640625 0
0.84375 0.625 0
0.859375 0.640625 0
0.84375 0.65625 0
0.8125 0.6875 0
0.8125 0.625 0
0.828125 0.671875 0
0.8125 0.65625 0
0.828125 0.640625 0
0.84375 0.65625 0
0.875 0.625 0
0.875 0.6875 0
0.859375 0.640625 0
0.875 0.65625 0
0.859375 0.671875 0
0.84375 0.65625 0
0.875 0.6875 0
0.8125 0.6875 0
0.859375 0.671875 0
0.84375 0.6875 0
0.828125 0.671875 0
0.84375 0.59375 0
0.875 0.625 0
0.8125 0.625 0
0.859375 0.609375 0
0.84375 0.625 0
0.828125 0.609375 0
0.84375 0.59375 0
0.8125 0.625 0
0.8125 0.5625 0
0.828125 0.609375 0
0.8125 0.59375 0
0.828125 0.578125 0
0.84375 0.59375 0
0.875 0.5625 0
0.875 0.625 0
0.859375 0.578125 0
0.875 0.59375 0
0.859375 0.609375 0
0.84375 0.59375 0
0.8125 0.5625 0
0.875 0.5625 0
0.828125 0.578125 0
0.84375 0.5625 0
0.859375 0.578125 0
0.84375 0.71875 0
0.875 0.75 0
0.8125 0.75 0
0.859375 0.734375 0
0.84375 0.75 0
0.828125 0.734375 0
0.84375 0.71875 0
0.8125 0.75 0
0.8125 0.6875 0
0.828125 0.734375 0
0.8125 0.71875 0
0.828125 0.703125 0
0.84375 0.71875 0
0.875 0.6875 0
0.875 0.75 0
0.859375 0.703125 0
0.875 0.71875 0
0.859375 0.734375 0
0.84375 0.71875 0
0.8125 0.6875 0
0.875 0.6875 0
0.828125 0.703125 0
0.84375 0.6875 0
0.859375 0.703125 0
0.84375 0.78125 0
0.8125 0.75 0
0.875 0.75 0
0.828125 0.765625 0
0.84375 0.75 0
0.859375 0.765625 0
0.84375 0.78125 0
0.8125 0.8125 0
0.8125 0.75 0
0.828125 0.796875 0
0.8125 0.78125 0
0.828125 0.765625 0
0.84375 0.78125 0
0.875 0.75 0
0.875 0.8125 0
0.859375 0.765625 0
0.875 0.78125 0
0.859375 0.796875 0
0.84375 0.78125 0
0.875 0.8125 0
0.8125 0.8125 0
0.859375 0.796875 0
0.84375 0.8125 0
0.828125 0.796875 0
0.90625 0.65625 0
0.875 0.6875 0
0.875 0.625 0
0.890625 0.671875 0
0.875 0.65625 0
0.890625 0.640625 0
0.90625 0.65625 0
0.9375 0.6875 0
0.875 0.6875 0
0.921875 0.671875 0
0.90625 0.6875 0
0.890625 0.671875 0
0.90625 0.65625 0
0.875 0.625 0
0.9375 0.625 0
0.890625 0.640625 0
0.90625 0.625 0
0.921875 0.640625 0
0.90625 0.65625 0
0.9375 0.625 0
0.9375 0.6875 0
0.921875 0.640625 0
0.9375 0.65625 0
0.921875 0.671875 0
0.90625 0.71875 0
0.875 0.75 0
0.875 0.6875 0
0.890625 0.734375 0
0.875 0.71875 0
0.890625 0.703125 0
0.90625 0.71875 0
0.875 0.6875 0
0.9375 0.6875 0
0.890625 0.703125 0
0.90625 0.6875 0
0.921875 0.703125 0
0.90625 0.71875 0
0.9375 0.75 0
0.875 0.75 0
0.921875 0.734375 0
0.90625 0.75 0
0.890625 0.734375 0
0.90625 0.71875 0
0.9375 0.6875 0
0.9375 0.75 0
0.921875 0.703125 0
0.9375 0.71875 0
0.921875 0.734375 0
0.90625 0.59375 0
0.875 0.625 0
0.875 0.5625 0
0.890625 0.609375 0
0.875 0.59375 0
0.890625 0.578125 0
0.90625 0.59375 0
0.875 0.5625 0
0.9375 0.5625 0
0.890625 0.578125 0
0.90625 0.5625 0
0.921875 0.578125 0
0.90625 0.59375 0
0.9375 0.625 0
0.875 0.625 0
0.921875 0.609375 0
0.90625 0.625 0
0.890625 0.609375 0
0.90625 0.59375 0
0.9375 0.5625 0
0.9375 0.625 0
0.921875 0.578125 0
0.9375 0.59375 0
0.921875 0.609375 0
0.90625 0.53125 0
0.875 0.5625 0
0.875 0.5 0
0.890625 0.546875 0
0.875 0.53125 0
0.890625 0.515625 0
0.90625 0.53125 0
0.9375 0.5625 0
0.875 0.5625 0
0.921875 0.546875 0
0.90625 0.5625 0
0.890625 0.546875 0
0.90625 0.53125 0
0.875 0.5 0
0.9375 0.5 0
0.890625 0.515625 0
0.90625 0.5 0
0.921875 0.515625 0
0.90625 0.53125 0
0.9375 0.5 0
0.9375 0.5625 0
0.921875 0.515625 0
0.9375 0.53125 0
0.921875 0.546875 0
0.71875 0.96875 0
0.75 1 0
0.6875 1 0
0.734375 0.984375 0
0.71875 1 0
0.703125 0.984375 0
0.71875 0.96875 0
0.6875 1 0
0.6875 0.9375 0
0.703125 0.984375 0
0.6875 0.96875 0
0.703125 0.953125 0
0.71875 0.96875 0
0.75 0.9375 0
0.75 1 0
0.734375 0.953125 0
0.75 0.96875 0
0.734375 0.984375 0
0.71875 0.96875 0
0.6875 0.9375 0
0.75 0.9375 0
0.703125 0.953125 0
0.71875 0.9375 0
0.734375 0.953125 0
0.78125 0.96875 0
0.75 1 0
0.75 0.9375 0
0.765625 0.984375 0
0.75 0.96875 0
0.765625 0.953125 0
0.78125 0.96875 0
0.75 0.9375 0
0.8125 0.9375 0
0.765625 0.953125 0
0.78125 0.9375 0
0.796875 0.953125 0
0.78125 0.96875 0
0.8125 1 0
0.75 1 0
0.796875 0.984375 0
0.78125 1 0
0.765625 0.984375 0
0.78125 0.96875 0
0.8125 0.9375 0
0.8125 1 0
0.796875 0.953125 0
0.8125 0.96875 0
0.796875 0.984375 0
0.78125 0.90625 0
0.75 0.9375 0
0.75 0.875 0
0.765625 0.921875 0
0.75 0.90625 0
0.765625 0.890625 0
0.78125 0.90625 0
0.8125 0.9375 0
0.75 0.9375 0
0.796875 0.921875 0
0.78125 0.9375 0
0.765625 0.921875 0
0.78125 0.90625 0
0.75 0.875 0
0.8125 0.875 0
0.765625 0.890625 0
0.78125 0.875 0
0.796875 0.890625 0
0.78125 0.90625 0
0.8125 0.875 0
0.8125 0.9375 0
0.796875 0.890625 0
0.8125 0.90625 0
0.796875 0.921875 0
0.84375 0.84375 0
0.875 0.875 0
0.8125 0.875 0
0.859375 0.859375 0
0.84375 0.875 0
0.828125 0.859375 0
0.84375 0.84375 0
0.8125 0.875 0
0.8125 0.8125 0
0.828125 0.859375 0
0.8125 0.84375 0
0.828125 0.828125 0
0.84375 0.84375 0
0.875 0.8125 0
0.875 0.875 0
0.859375 0.828125 0
0.875 0.84375 0
0.859375 0.859375 0
0.84375 0.84375 0
0.8125 0.8125 0
0.875 0.8125 0
0.828125 0.828125 0
0.84375 0.8125 0
0.859375 0.828125 0
0.84375 0.90625 0
0.8125 0.875 0
0.875 0.875 0
0.828125 0.890625 0
0.84375 0.875 0
0.859375 0.890625 0
0.84375 0.90625 0
0.8125 0.9375 0
0.8125 0.875 0
0.828125 0.921875 0
0.8125 0.90625 0
0.828125 0.890625 0
0.84375 0.90625 0
0.875 0.875 0
0.875 0.9375 0
0.859375 0.890625 0
0.875 0.90625 0
0.859375 0.921875 0
0.84375 0.90625 0
0.875 0.9375 0
0.8125 0.9375 0
0.859375 0.921875 0
0.84375 0.9375 0
0.828125 0.921875 0
0.90625 0.84375 0
0.875 0.875 0
0.875 0.8125 0
0.890625 0.859375 0
0.875 0.84375 0
0.890625 0.828125 0
0.90625 0.84375 0
0.875 0.8125 0
0.9375 0.8125 0
0.890625 0.828125 0
0.90625 0.8125 0
0.921875 0.828125 0
0.90625 0.84375 0
0.9375 0.875 0
0.875 0.875 0
0.921875 0.859375 0
0.90625 0.875 0
0.890625 0.859375 0
0.90625 0.84375 0
0.9375 0.8125 0
0.9375 0.875 0
0.921875 0.828125 0
0.9375 0.84375 0
0.921875 0.859375 0
0.90625 0.78125 0
0.875 0.8125 0
0.875 0.75 0
0.890625 0.796875 0
0.875 0.78125 0
0.890625 0.765625 0
0.90625 0.78125 0
0.9375 0.8125 0
0.875 0.8125 0
0.921875 0.796875 0
0.90625 0.8125 0
0.890625 0.796875 0
0.90625 0.78125 0
0.875 0.75 0
0.9375 0.75 0
0.890625 0.765625 0
0.90625 0.75 0
0.921875 0.765625 0
0.90625 0.78125 0
0.9375 0.75 0
0.9375 0.8125 0
0.921875 0.765625 0
0.9375 0.78125 0
0.921875 0.796875 0
0.84375 0.96875 0
0.875 1 0
0.8125 1 0
0.859375 0.984375 0
0.84375 1 0
0.828125 0.984375 0
0.84375 0.96875 0
0.8125 1 0
0.8125 0.9375 0
0.828125 0.984375 0
0.8125 0.96875 0
0.828125 0.953125 0
0.84375 0.96875 0
0.875 0.9375 0
0.875 1 0
0.859375 0.953125 0
0.875 0.96875 0
0.859375 0.984375 0
0.84375 0.96875 0
0.8125 0.9375 0
0.875 0.9375 0
0.828125 0.953125 0
0.84375 0.9375 0
0.859375 0.953125 0
0.90625 0.90625 0
0.875 0.9375 0
0.875 0.875 0
0.890625 0.921875 0
0.875 0.90625 0
0.890625 0.890625 0
0.90625 0.90625 0
0.9375 0.9375 0
0.875 0.9375 0
0.921875 0.921875 0
0.90625 0.9375 0
0.890625 0.921875 0
0.90625 0.90625 0
0.875 0.875 0
0.9375 0.875 0
0.890625 0.890625 0
0.90625 0.875 0
0.921875 0.890625 0
0.90625 0.90625 0
0.9375 0.875 0
0.9375 0.9375 0
0.921875 0.890625 0
0.9375 0.90625 0
0.921875 0.921875 0
0.90625 0.96875 0
0.875 1 0
0.875 0.9375 0
0.890625 0.984375 0
0.875 0.96875 0
0.890625 0.953125 0
0.90625 0.96875 0
0.875 0.9375 0
0.9375 0.9375 0
0.890625 0.953125 0
0.90625 0.9375 0
0.921875 0.953125 0
0.90625 0.96875 0
0.9375 1 0
0.875 1 0
0.921875 0.984375 0
0.90625 1 0
0.890625 0.984375 0
0.90625 0.96875 0
0.9375 0.9375 0
0.9375 1 0
0.921875 0.953125 0
0.9375 0.96875 0
0.921875 0.984375 0
0.96875 0.96875 0
1 1 0
0.9375 1 0
0.984375 0.984375 0
0.96875 1 0
0.953125 0.984375 0
0.96875 0.96875 0
0.9375 1 0
0.9375 0.9375 0
0.953125 0.984375 0
0.9375 0.96875 0
0.953125 0.953125 0
0.96875 0.96875 0
1 0.9375 0
1 1 0
0.984375 0.953125 0
1 0.96875 0
0.984375 0.984375 0
0.96875 0.96875 0
0.9375 0.9375 0
1 0.9375 0
0.953125 0.953125 0
0.96875 0.9375 0
0.984375 0.953125 0
0.96875 0.90625 0
1 0.875 0
1 0.9375 0
0.984375 0.890625 0
1 0.90625 0
0.984375 0.921875 0
0.96875 0.90625 0
1 0.9375 0
0.9375 0.9375 0
0.984375 0.921875 0
0.96875 0.9375 0
0.953125 0.921875 0
0.96875 0.90625 0
0.9375 0.875 0
1 0.875 0
0.953125 0.890625 0
0.96875 0.875 0
0.984375 0.890625 0
0.96875 0.90625 0
0.9375 0.9375 0
0.9375 0.875 0
0.953125 0.921875 0
0.9375 0.90625 0
0.953125 0.890625 0
0.96875 0.84375 0
1 0.875 0
0.9375 0.875 0
0.984375 0.859375 0
0.96875 0.875 0
0.953125 0.859375 0
0.96875 0.84375 0
0.9375 0.875 0
0.9375 0.8125 0
0.953125 0.859375 0
0.9375 0.84375 0
0.953125 0.828125 0
0.96875 0.84375 0
1 0.8125 0
1 0.875 0
0.984375 0.828125 0
1 0.84375 0
0.984375 0.859375 0
0.96875 0.84375 0
0.9375 0.8125 0
1 0.8125 0
0.953125 0.828125 0
0.96875 0.8125 0
0.984375 0.828125 0
0.96875 0.78125 0
1 0.75 0
1 0.8125 0
0.984375 0.765625 0
1 0.78125 0
0.984375 0.796875 0
0.96875 0.78125 0
1 0.8125 0
0.9375 0.8125 0
0.984375 0.796875 0
0.96875 0.8125 0
0.953125 0.796875 0
0.96875 0.78125 0
0.9375 0.75 0
1 0.75 0
0.953125 0.765625 0
0.96875 0.75 0
0.984375 0.765625 0
0.96875 0.78125 0
0.9375 0.8125 0
0.9375 0.75 0
0.953125 0.796875 0
0.9375 0.78125 0
0.953125 0.765625 0
0.96875 0.71875 0
1 0.75 0
0.9375 0.75 0
0.984375 0.734375 0
0.96875 0.75 0
0.953125 0.734375 0
0.96875 0.71875 0
0.9375 0.75 0
0.9375 0.6875 0
0.953125 0.734375 0
0.9375 0.71875 0
0.953125 0.703125 0
0.96875 0.71875 0
1 0.6875 0
1 0.75 0
0.984375 0.703125 0
1 0.71875 0
0.984375 0.734375 0
0.96875 0.71875 0
0.9375 0.6875 0
1 0.6875 0
0.953125 0.703125 0
0.96875 0.6875 0
0.984375 0.703125 0
0.96875 0.65625 0
1 0.625 0
1 0.6875 0
0.984375 0.640625 0
1 0.65625 0
0.984375 0.671875 0
0.96875 0.65625 0
1 0.6875 0
0.9375 0.6875 0
0.984375 0.671875 0
0.96875 0.6875 0
0.953125 0.671875 0
0.96875 0.65625 0
0.9375 0.625 0
1 0.625 0
0.953125 0.640625 0
0.96875 0.625 0
0.984375 0.640625 0
0.96875 0.65625 0
0.9375 0.6875 0
0.9375 0.625 0
0.953125 0.671875 0
0.9375 0.65625 0
0.953125 0.640625 0
0.96875 0.59375 0
1 0.625 0
0.9375 0.625 0
0.984375 0.609375 0
0.96875 0.625 0
0.953125 0.609375 0
0.96875 0.59375 0
0.9375 0.625 0
0.9375 0.5625 0
0.953125 0.609375 0
0.9375 0.59375 0
0.953125 0.578125 0
0.96875 0.59375 0
1 0.5625 0
1 0.625 0
0.984375 0.578125 0
1 0.59375 0
0.984375 0.609375 0
0.96875 0.59375 0
0.9375 0.5625 0
1 0.5625 0
0.953125 0.578125 0
0.96875 0.5625 0
0.984375 0.578125 0
0.96875 0.53125 0
1 0.5 0
1 0.5625 0
0.984375 0.515625 0
1 0.53125 0
0.984375 0.546875 0
0.96875 0.53125 0
1 0.5625 0
0.9375 0.5625 0
0.984375 0.546875 0
0.96875 0.5625 0
0.953125 0.546875 0
0.96875 0.53125 0
0.9375 0.5 0
1 0.5 0
0.953125 0.515625 0
0.96875 0.5 0
0.984375 0.515625 0
0.96875 0.53125 0
0.9375 0.5625 0
0.9375 0.5 0
0.953125 0.546875 0
0.9375 0.53125 0
0.953125 0.515625 0
0.96875 0.46875 0
1 0.5 0
0.9375 0.5 0
0.984375 0.484375 0
0.96875 0.5 0
0.953125 0.484375 0
0.96875 0.46875 0
0.9375 0.5 0
0.9375 0.4375 0
0.953125 0.484375 0
0.9375 0.46875 0
0.953125 0.453125 0
0.96875 0.46875 0
1 0.4375 0
1 0.5 0
0.984375 0.453125 0
1 0.46875 0
0.984375 0.484375 0
0.96875 0.46875 0
0.9375 0.4375 0
1 0.4375 0
0.953125 0.453125 0
0.96875 0.4375 0
0.984375 0.453125 0
0.96875 0.40625 0
1 0.375 0
1 0.4375 0
0.984375 0.390625 0
1 0.40625 0
0.984375 0.421875 0
0.96875 0.40625 0
1 0.4375 0
0.9375 0.4375 0
0.984375 0.421875 0
0.96875 0.4375 0
0.953125 0.421875 0
0.96875 0.40625 0
0.9375 0.375 0
1 0.375 0
0.953125 0.390625 0
0.96875 0.375 0
0.984375 0.390625 0
0.96875 0.40625 0
0.9375 0.4375 0
0.9375 0.375 0
0.953125 0.421875 0
0.9375 0.40625 0
0.953125 0.390625 0
0.96875 0.34375 0
1 0.375 0
0.9375 0.375 0
0.984375 0.359375 0
0.96875 0.375 0
0.953125 0.359375 0
0.96875 0.34375 0
0.9375 0.375 0
0.9375 0.3125 0
0.953125 0.359375 0
0.9375 0.34375 0
0.953125 0.328125 0
0.96875 0.34375 0
1 0.3125 0
1 0.375 0
0.984375 0.328125 0
1 0.34375 0
0.984375 0.359375 0
0.96875 0.34375 0
0.9375 0.3125 0
1 0.3125 0
0.953125 0.328125 0
0.96875 0.3125 0
0.984375 0.328125 0
0.96875 0.28125 0
1 0.25 0
1 0.3125 0
0.984375 0.265625 0
1 0.28125 0
0.984375 0.296875 0
0.96875 0.28125 0
1 0.3125 0
0.9375 0.3125 0
0.984375 0.296875 0
0.96875 0.3125 0
0.953125 0.296875 0
0.96875 0.28125 0
0.9375 0.25 0
1 0.25 0
0.953125 0.265625 0
0.96875 0.25 0
0.984375 0.265625 0
0.96875 0.28125 0
0.9375 0.3125 0
0.9375 0.25 0
0.953125 0.296875 0
0.9375 0.28125 0
0.953125 0.265625 0
0.96875 0.21875 0
1 0.25 0
0.9375 0.25 0
0.984375 0.234375 0
0.96875 0.25 0
0.953125 0.234375 0
0.96875 0.21875 0
0.9375 0.25 0
0.9375 0.1875 0
0.953125 0.234375 0
0.9375 0.21875 0
0.953125 0.203125 0
0.96875 0.21875 0
1 0.1875 0
1 0.25 0
0.984375 0.203125 0
1 0.21875 0
0.984375 0.234375 0
0.96875 0.21875 0
0.9375 0.1875 0
1 0.1875 0
0.953125 0.203125 0
0.96875 0.1875 0
0.984375 0.203125 0
0.96875 0.15625 0
1 0.125 0
1 0.1875 0
0.984375 0.140625 0
1 0.15625 0
0.984375 0.171875 0
0.96875 0.15625 0
1 0.1875 0
0.9375 0.1875 0
0.984375 0.171875 0
0.96875 0.1875 0
0.953125 0.171875 0
0.96875 0.15625 0
0.9375 0.125 0
1 0.125 0
0.953125 0.140625 0
0.96875 0.125 0
0.984375 0.140625 0
0.96875 0.15625 0
0.9375 0.1875 0
0.9375 0.125 0
0.953125 0.171875 0
0.9375 0.15625 0
0.953125 0.140625 0
0.96875 0.09375 0
1 0.125 0
0.9375 0.125 0
0.984375 0.109375 0
0.96875 0.125 0
0.953125 0.109375 0
0.96875 0.09375 0
0.9375 0.125 0
0.9375 0.0625 0
0.953125 0.109375 0
0.9375 0.09375 0
0.953125 0.078125 0
0.96875 0.09375 0
1 0.0625 0
1 0.125 0
0.984375 0.078125 0
1 0.09375 0
0.984375 0.109375 0
0.96875 0.09375 0
0.9375 0.0625 0
1 0.0625 0
0.953125 0.078125 0
0.96875 0.0625 0
0.984375 0.078125 0
0.96875 0.03125 0
0.9375 0 0
1 0 0
0.953125 0.015625 0
0.96875 0 0
0.984375 0.015625 0
0.96875 0.03125 0
0.9375 0.0625 0
0.9375 0 0
0.953125 0.046875 0
0.9375 0.03125 0
0.953125 0.015625 0
0.96875 0.03125 0
1 0 0
1 0.0625 0
0.984375 0.015625 0
1 0.03125 0
0.984375 0.046875 0
0.96875 0.03125 0
1 0.0625 0
0.9375 0.0625 0
0.984375 0.046875 0
0.96875 0.0625 0
0.953125 0.046875 0

CELLS 1024 7168
6 0 1 2 3 4 5
6 6 7 8 9 10 11
6 12 13 14 15 16 17
6 18 19 20 21 22 23
6 24 25 26 27 28 29
6 30 31 32 33 34 35
6 36 37 38 39 40 41
6 42 43 44 45 46 47
6 48 49 50 51 52 53
6 54 55 56 57 58 59
6 60 61 62 63 64 65
6 66 67 68 69 70 71
6 72 73 74 75 76 77
6 78 79 80 81 82 83
6 84 85 86 87 88 89
6 90 91 92 93 94 95
6 96 97 98 99 100 101
6 102 103 104 105 106 107
6 108 109 110 111 112 113
6 114 115 116 117 118 119
6 120 121 122 123 124 125
6 126 127 128 129 130 131
6 132 133 134 135 136 137
6 138 139 140 141 142 143
6 144 145 146 147 148 149
6 150 151 152 153 154 155
6 156 157 158 159 160 161
6 162 163 164 165 166 167
6 168 169 170 171 172 173
6 174 175 176 177 178 179
6 180 181 182 183 184 185
6 186 187 188 189 190 191
6 192 193 194 195 196 197
6 198 199 200 201 202 203
6 204 205 206 207 208 209
6 210 211 212 213 214 215
6 216 217 218 219 220 221
6 222 223 224 225 226 227
6 228 229 230 231 232 233
6 234 235 236 237 238 239
6 240 241 242 243 244 245
6 246 247 248 249 250 251
6 252 253 254 255 256 257
6 258 259 260 261 262 263
6 264 265 266 267 268 269
6 270 271 272 273 274 275
6 276 277 278 279 280 281
6 282 283 284 285 286 287
6 288 289 290 291 292 293
6 294 295 296 297 298 299
6 300 301 302 303 304 305
6 306 307 308 309 310 311
6 312 313 314 315 316 317
6 318 319 320 321 322 323
6 324 325 326 327 328 329
6 330 331 332 333 334 335
6 336 337 338 339 340 341
6 342 343 344 345 346 347
6 348 349 350 351 352 353
6 354 355 356 357 358 359
6 360 361 362 363 364 365
6 366 367 368 369 370 371
6 372 373 374 375 376 377
6 378 379 380 381 382 383
6 384 385 386 387 388 389
6 390 391 392 393 394 395
6 396 397 398 399 400 401
6 402 403 404 405 406 407
6 408 409 410 411 412 413
6 414 415 416 417 418 419
6 420 421 422 423 424 425
6 426 427 428 429 430 431
6 432 433 434 435 436 437
6 438 439 440 441 442 443
6 444 445 446 447 448 449
6 450 451 452 453 454 455
6 456 457 458 459 460 461
6 462 463 464 465 466 467
6 468 469 470 471 472 473
6 474 475 476 477 478 479
6 480 481 482 483 484 485
6 486 487 488 489 490 491
6 492 493 494 495 496 497
6 498 499 500 501 502 503
6 504 505 506 507 508 509
6 510 511 512 513 514 515
6 516 517 518 519 520 521
6 522 523 524 525 526 527
6 528 529 530 531 532 533
6 534 535 536 537 538 539
6 540 541 542 543 544 545
6 546 547 548 549 550 551
6 552 553 554 555 556 557
6 558 559 560 561 562 563
6 564 565 566 567 568 569
6 570 571 572 573 574 575
6 576 577 578 579 580 581
6 582 583 584 585 586 587
6 588 589 590 591 592 593
6 594 595 596 597 598 599
6 600 601 602 603 604 605
6 606 607 608 609 610 611
6 612 613 614 615 616 617
6 618 619 620 621 622 623
6 624 625 626 627 628 629
6 630 631 632 633 634 635
6 636 637 638 639 640 641
6 642 643 644 645 646 647
6 648 649 650 651 652 653
6 654 655 656 657 658 659
6 660 661 662 663 664 665
6 666 667 668 669 670 671
6 672 673 674 675 676 677
6 678 679 680 681 682 683
6 684 685 686 687 688 689
6 690 691 692 693 694 695
6 696 697 698 699 700 701
6 702 703 704 705 706 707
6 708 709 710 711 712 713
6 714 715 716 717 718 719
6 720 721 722 723 724 725
6 726 727 728 729 730 731
6 732 733 734 735 736 737
6 738 739 740 741 742 743
6 744 745 746 747 748 749
6 750 751 752 753 754 755
6 756 757 758 759 760 761
6 762 763 764 765 766 767
6 768 769 770 771 772 773
6 774 775 776 777 778 779
6 780 781 782 783 784 785
6 786 787 788 789 790 791
6 792 793 794 795 796 797
6 798 799 800 801 802 803
6 804 805 806 807 808 809
6 810 811 812 813 814 815
6 816 817 818 819 820 821
6 822 823 824 825 826 827
6 828 829 830 831 832 833
6 834 835 836 837 838 839
6 840 841 842 843 844 845
6 846 847 848 849 850 851
6 852 853 854 855 856 857
6 858 859 860 861 862 863
6 864 865 866 867 868 869
6 870 871 872 873 874 875
6 876 877 878 879 880 881
6 882 883 884 885 886 887
6 888 889 890 891 892 893
6 894 895 896 897 898 899
6 900 901 902 903 904 905
6 906 907 908 909 910 911
6 912 913 914 915 916 917
6 918 919 920 921 922 923
6 924 925 926 927 928 929
6 930 931 932 933 934 935
6 936 937 938 939 940 941
6 942 943 944 945 946 947
6 948 949 950 951 952 953
6 954 955 956 957 958 959
6 960 961 962 963 964 965
6 966 967 968 969 970 971
6 972 973 974 975 976 977
6 978 979 980 981 982 983
6 984 985 986 987 988 989
6 990 991 992 993 994 995
6 996 997 998 999 1000 1001
6 1002 1003 1004 1005 1006 1007
6 1008 1009 1010 1011 1012 1013
6 1014 1015 1016 1017 1018 1019
6 1020 1021 1022 1023 1024 1025
6 1026 1027 1028 1029 1030 1031
6 1032 1033 1034 1035 1036 1037
6 1038 1039 1040 1041 1042 1043
6 1044 1045 1046 1047 1048 1049
6 1050 1051 1052 1053 1054 1055
6 1056 1057 1058 1059 1060 1061
6 1062 1063 1064 1065 1066 1067
6 1068 1069 1070 1071 1072 1073
6 1074 1075 1076 1077 1078 1079
6 1080 1081 1082 1083 1084 1085
6 1086 1087 1088 1089 1090 1091
6 1092 1093 1094 1095 1096 1097
6 1098 1099 1100 1101 1102 1103
6 1104 1105 1106 1107 1108 1109
6 1110 1111 1112 1113 1114 1115
6 1116 1117 1118 1119 1120 1121
6 1122 1123 1124 1125 1126 1127
6 1128 1129 1130 1131 1132 1133
6 1134 1135 1136 1137 1138 1139
6 1140 1141 1142 1143 1144 1145
6 1146 1147 1148 1149 1150 1151
6 1152 1153 1154 1155 1156 1157
6 1158 1159 1160 1161 1162 1163
6 1164 1165 1166 1167 1168 1169
6 1170 1171 1172 1173 1174 1175
6 1176 1177 1178 1179 1180 1181
6 1182 1183 1184 1185 1186 1187
6 1188 1189 1190 1191 1192 1193
6 1194 1195 1196 1197 1198 1199
6 1200 1201 1202 1203 1204 1205
6 1206 1207 1208 1209 1210 1211
6 1212 1213 1214 1215 1216 1217
6 1218 1219 1220 1221 1222 1223
6 1224 1225 1226 1227 1228 1229
6 1230 1231 1232 1233 1234 1235
6 1236 1237 1238 1239 1240 1241
6 1242 1243 1244 1245 1246 1247
6 1248 1249 1250 1251 1252 1253
6 1254 1255 1256 1257 1258 1259
6 1260 1261 1262 1263 1264 1265
6 1266 1267 1268 1269 1270 1271
6 1272 1273 1274 1275 1276 1277
6 1278 1279 1280 1281 1282 1283
6 1284 1285 1286 1287 1288 1289
6 1290 1291 1292 1293 1294 1295
6 1296 1297 1298 1299 1300 1301
6 1302 1303 1304 1305 1306 1307
6 1308 1309 1310 1311 1312 1313
6 1314 1315 1316 1317 1318 1319
6 1320 1321 1322 1323 1324 1325
6 1326 1327 1328 1329 1330 1331
6 1332 1333 1334 1335 1336 1337
6 1338 1339 1340 1341 1342 1343
6 1344 1345 1346 1347 1348 1349
6 1350 1351 1352 1353 1354 1355
6 1356 1357 1358 1359 1360 1361
6 1362 1363 1364 1365 1366 1367
6 1368 1369 1370 1371 1372 1373
6 1374 1375 1376 1377 1378 1379
6 1380 1381 1382 1383 1384 1385
6 1386 1387 1388 1389 1390 1391
6 1392 1393 1394 1395 1396 1397
6 1398 1399 1400 1401 1402 1403
6 1404 1405 1406 1407 1408 1409
6 1410 1411 1412 1413 1414 1415
6 1416 1417 1418 1419 1420 1421
6 1422 1423 1424 1425 1426 1427
6 1428 1429 1430 1431 1432 1433
6 1434 1435 1436 1437 1438 1439
6 1440 1441 1442 1443 1444 1445
6 1446 1447 1448 1449 1450 1451
6 1452 1453 1454 1455 1456 1457
6 1458 1459 1460 1461 1462 1463
6 1464 1465 1466 1467 1468 1469
6 1470 1471 1472 1473 1474 1475
6 1476 1477 1478 1479 1480 1481
6 1482 1483 1484 1485 1486 1487
6 1488 1489 1490 1491 1492 1493
6 1494 1495 1496 1497 1498 1499
6 1500 1501 1502 1503 1504 1505
6 1506 1507 1508 1509 1510 1511
6 1512 1513 1514 1515 1516 1517
6 1518 1519 1520 1521 1522 1523
6 1524 1525 1526 1527 1528 1529
6 1530 1531 1532 1533 1534 1535
6 1536 1537 1538 1539 1540 1541
6 1542 1543 1544 1545 1546 1547
6 1548 1549 1550 1551 1552 1553
6 1554 1555 1556 1557 1558 1559
6 1560 1561 1562 1563 1564 1565
6 1566 1567 1568 1569 1570 1571
6 1572 1573 1574 1575 1576 1577
6 1578 1579 1580 1581 1582 1583
6 1584 1585 1586 1587 1588 1589
6 1590 1591 1592 1593 1594 1595
6 1596 1597 1598 1599 1600 1601
6 1602 1603 1604 1605 1606 1607
6 1608 1609 1610 1611 1612 1613
6 1614 1615 1616 1617 1618 1619
6 1620 1621 1622 1623 1624 1625
6 1626 1627 1628 1629 1630 1631
6 1632 1633 1634 1635 1636 1637
6 1638 1639 1640 1641 1642 1643
6 1644 1645 1646 1647 1648 1649
6 1650 1651 1652 1653 1654 1655
6 1656 1657 1658 1659 1660 1661
6 1662 1663 1664 1665 1666 1667
6 1668 1669 1670 1671 1672 1673
6 1674 1675 1676 1677 1678 1679
6 1680 1681 1682 1683 1684 1685
6 1686 1687 1688 1689 1690 1691
6 1692 1693 1694 1695 1696 1697
6 1698 1699 1700 1701 1702 1703
6 1704 1705 1706 1707 1708 1709
6 1710 1711 1712 1713 1714 1715
6 1716 1717 1718 1719 1720 1721
6 1722 1723 1724 1725 1726 1727
6 1728 1729 1730 1731 1732 1733
6 1734 1735 1736 1737 1738 1739
6 1740 1741 1742 1743 1744 1745
6 1746 1747 1748 1749 1750 1751
6 1752 1753 1754 1755 1756 1757
6 1758 1759 1760 1761 1762 1763
6 1764 1765 1766 1767 1768 1769
6 1770 1771 1772 1773 1774 1775
6 1776 1777 1778 1779 1780 1781
6 1782 1783 1784 1785 1786 1787
6 1788 1789 1790 1791 1792 1793
6 1794 1795 1796 1797 1798 1799
6 1800 1801 1802 1803 1804 1805
6 1806 1807 1808 1809 1810 1811
6 1812 1813 1814 1815 1816 1817
6 1818 1819 1820 1821 1822 1823
6 1824 1825 1826 1827 1828 1829
6 1830 1831 1832 1833 1834 1835
6 1836 1837 1838 1839 1840 1841
6 1842 1843 1844 1845 1846 1847
6 1848 1849 1850 1851 1852 1853
6 1854 1855 1856 1857 1858 1859
6 1860 1861 1862 1863 1864 1865
6 1866 1867 1868 1869 1870 1871
6 1872 1873 1874 1875 1876 1877
6 1878 1879 1880 1881 1882 1883
6 1884 1885 1886 1887 1888 1889
6 1890 1891 1892 1893 1894 1895
6 1896 1897 1898 1899 1900 1901
6 1902 1903 1904 1905 1906 1907
6 1908 1909 1910 1911 1912 1913
6 1914 1915 1916 1917 1918 1919
6 1920 1921 1922 1923 1924 1925
6 1926 1927 1928 1929 1930 1931
6 1932 1933 1934 1935 1936 1937
6 1938 1939 1940 1941 1942 1943
6 1944 1945 1946 1947 1948 1949
6 1950 1951 1952 1953 1954 1955
6 1956 1957 1958 1959 1960 1961
6 1962 1963 1964 1965 1966 1967
6 1968 1969 1970 1971 1972 1973
6 1974 1975 1976 1977 1978 1979
6 1980 1981 1982 1983 1984 1985
6 1986 1987 1988 1989 1990 1991
6 1992 1993 1994 1995 1996 1997
6 1998 1999 2000 2001 2002 2003
6 2004 2005 2006 2007 2008 2009
6 2010 2011 2012 2013 2014 2015
6 2016 2017 2018 2019 2020 2021
6 2022 2023 2024 2025 2026 2027
6 2028 2029 2030 2031 2032 2033
6 2034 2035 2036 2037 2038 2039
6 2040 2041 2042 2043 2044 2045
6 2046 2047 2048 2049 2050 2051
6 2052 2053 2054 2055 2056 2057
6 2058 2059 2060 2061 2062 2063
6 2064 2065 2066 2067 2068 2069
6 2070 2071 2072 2073 2074 2075
6 2076 2077 2078 2079 2080 2081
6 2082 2083 2084 2085 2086 2087
6 2088 2089 2090 2091 2092 2093
6 2094 2095 2096 2097 2098 2099
6 2100 2101 2102 2103 2104 2105
6 2106 2107 2108 2109 2110 2111
6 2112 2113 2114 2115 2116 2117
6 2118 2119 2120 2121 2122 2123
6 2124 2125 2126 2127 2128 2129
6 2130 2131 2132 2133 2134 2135
6 2136 2137 2138 2139 2140 2141
6 2142 2143 2144 2145 2146 2147
6 2148 2149 2150 2151 2152 2153
6 2154 2155 2156 2157 2158 2159
6 2160 2161 2162 2163 2164 2165
6 2166 2167 2168 2169 2170 2171
6 2172 2173 2174 2175 2176 2177
6 2178 2179 2180 2181 2182 2183
6 2184 2185 2186 2187 2188 2189
6 2190 2191 2192 2193 2194 2195
6 2196 2197 2198 2199 2200 2201
6 2202 2203 2204 2205 2206 2207
6 2208 2209 2210 2211 2212 2213
6 2214 2215 2216 2217 2218 2219
6 2220 2221 2222 2223 2224 2225
6 2226 2227 2228 2229 2230 2231
6 2232 2233 2234 2235 2236 2237
6 2238 2239 2240 2241 2242 2243
6 2244 2245 2246 2247 2248 2249
6 2250 2251 2252 2253 2254 2255
6 2256 2257 2258 2259 2260 2261
6 2262 2263 2264 2265 2266 2267
6 2268 2269 2270 2271 2272 2273
6 2274 2275 2276 2277 2278 2279
6 2280 2281 2282 2283 2284 2285
6 2286 2287 2288 2289 2290 2291
6 2292 2293 2294 2295 2296 2297
6 2298 2299 2300 2301 2302 2303
6 2304 2305 2306 2307 2308 2309
6 2310 2311 2312 2313 2314 2315
6 2316 2317 2318 2319 2320 2321
6 2322 2323 2324 2325 2326 2327
6 2328 2329 2330 2331 2332 2333
6 2334 2335 2336 2337 2338 2339
6 2340 2341 2342 2343 2344 2345
6 2346 2347 2348 2349 2350 2351
6 2352 2353 2354 2355 2356 2357
6 2358 2359 2360 2361 2362 2363
6 2364 2365 2366 2367 2368 2369
6 2370 2371 2372 2373 2374 2375
6 2376 2377 2378 2379 2380 2381
6 2382 2383 2384 2385 2386 2387
6 2388 2389 2390 2391 2392 2393
6 2394 2395 2396 2397 2398 2399
6 2400 2401 2402 2403 2404 2405
6 2406 2407 2408 2409 2410 2411
6 2412 2413 2414 2415 2416 2417
6 2418 2419 2420 2421 2422 2423
6 2424 2425 2426 2427 2428 2429
6 2430 2431 2432 2433 2434 2435
6 2436 2437 2438 2439 2440 2441
6 2442 2443 2444 2445 2446 2447
6 2448 2449 2450 2451 2452 2453
6 2454 2455 2456 2457 2458 2459
6 2460 2461 2462 2463 2464 2465
6 2466 2467 2468 2469 2470 2471
6 2472 2473 2474 2475 2476 2477
6 2478 2479 2480 2481 2482 2483
6 2484 2485 2486 2487 2488 2489
6 2490 2491 2492 2493 2494 2495
6 2496 2497 2498 2499 2500 2501
6 2502 2503 2504 2505 2506 2507
6 2508 2509 2510 2511 2512 2513
6 2514 2515 2516 2517 2518 2519
6 2520 2521 2522 2523 2524 2525
6 2526 2527 2528 2529 2530 2531
6 2532 2533 2534 2535 2536 2537
6 2538 2539 2540 2541 2542 2543
6 2544 2545 2546 2547 2548 2549
6 2550 2551 2552 2553 2554 2555
6 2556 2557 2558 2559 2560 2561
6 2562 2563 2564 2565 2566 2567
6 2568 2569 2570 2571 2572 2573
6 2574 2575 2576 2577 2578 2579
6 2580 2581 2582 2583 2584 2585
6 2586 2587 2588 2589 2590 2591
6 2592 2593 2594 2595 2596 2597
6 2598 2599 2600 2601 2602 2603
6 2604 2605 2606 2607 2608 2609
6 2610 2611 2612 2613 2614 2615
6 2616 2617 2618 2619 2620 2621
6 2622 2623 2624 2625 2626 2627
6 2628 2629 2630 2631 2632 2633
6 2634 2635 2636 2637 2638 2639
6 2640 2641 2642 2643 2644 2645
6 2646 2647 2648 2649 2650 2651
6 2652 2653 2654 2655 2656 2657
6 2658 2659 2660 2661 2662 2663
6 2664 2665 2666 2667 2668 2669
6 2670 2671 2672 2673 2674 2675
6 2676 2677 2678 2679 2680 2681
6 2682 2683 2684 2685 2686 2687
6 2688 2689 2690 2691 2692 2693
6 2694 2695 2696 2697 2698 2699
6 2700 2701 2702 2703 2704 2705
6 2706 2707 2708 2709 2710 2711
6 2712 2713 2714 2715 2716 2717
6 2718 2719 2720 2721 2722 2723
6 2724 2725 2726 2727 2728 2729
6 2730 2731 2732 2733 2734 2735
6 2736 2737 2738 2739 2740 2741
6 2742 2743 2744 2745 2746 2747
6 2748 2749 2750 2751 2752 2753
6 2754 2755 2756 2757 2758 2759
6 2760 2761 2762 2763 2764 2765
6 2766 2767 2768 2769 2770 2771
6 2772 2773 2774 2775 2776 2777
6 2778 2779 2780 2781 2782 2783
6 2784 2785 2786 2787 2788 2789
6 2790 2791 2792 2793 2794 2795
6 2796 2797 2798 2799 2800 2801
6 2802 2803 2804 2805 2806 2807
6 2808 2809 2810 2811 2812 2813
6 2814 2815 2816 2817 2818 2819
6 2820 2821 2822 2823 2824 2825
6 2826 2827 2828 2829 2830 2831
6 2832 2833 2834 2835 2836 2837
6 2838 2839 2840 2841 2842 2843
6 2844 2845 2846 2847 2848 2849
6 2850 2851 2852 2853 2854 2855
6 2856 2857 2858 2859 2860 2861
6 2862 2863 2864 2865 2866 2867
6 2868 2869 2870 2871 2872 2873
6 2874 2875 2876 2877 2878 2879
6 2880 2881 2882 2883 2884 2885
6 2886 2887 2888 2889 2890 2891
6 2892 2893 2894 2895 2896 2897
6 2898 2899 2900 2901 2902 2903
6 2904 2905 2906 2907 2908 2909
6 2910 2911 2912 2913 2914 2915
6 2916 2917 2918 2919 2920 2921
6 2922 2923 2924 2925 2926 2927
6 2928 2929 2930 2931 2932 2933
6 2934 2935 2936 2937 2938 2939
6 2940 2941 2942 2943 2944 2945
6 2946 2947 2948 2949 2950 2951
6 2952 2953 2954 2955 2956 2957
6 2958 2959 2960 2961 2962 2963
6 2964 2965 2966 2967 2968 2969
6 2970 2971 2972 2973 2974 2975
6 2976 2977 2978 2979 2980 2981
6 2982 2983 2984 2985 2986 2987
6 2988 2989 2990 2991 2992 2993
6 2994 2995 2996 2997 2998 2999
6 3000 3001 3002 3003 3004 3005
6 3006 3007 3008 3009 3010 3011
6 3012 3013 3014 3015 3016 3017
6 3018 3019 3020 3021 3022 3023
6 3024 3025 3026 3027 3028 3029
6 3030 3031 3032 3033 3034 3035
6 3036 3037 3038 3039 3040 3041
6 3042 3043 3044 3045 3046 3047
6 3048 3049 3050 3051 3052 3053
6 3054 3055 3056 3057 3058 3059
6 3060 3061 3062 3063 3064 3065
6 3066 3067 3068 3069 3070 3071
6 3072 3073 3074 3075 3076 3077
6 3078 3079 3080 3081 3082 3083
6 3084 3085 3086 3087 3088 3089
6 3090 3091 3092 3093 3094 3095
6 3096 3097 3098 3099 3100 3101
6 3102 3103 3104 3105 3106 3107
6 3108 3109 3110 3111 3112 3113
6 3114 3115 3116 3117 3118 3119
6 3120 3121 3122 3123 3124 3125
6 3126 3127 3128 3129 3130 3131
6 3132 3133 3134 3135 3136 3137
6 3138 3139 3140 3141 3142 3143
6 3144 3145 3146 3147 3148 3149
6 3150 3151 3152 3153 3154 3155
6 3156 3157 3158 3159 3160 3161
6 3162 3163 3164 3165 3166 3167
6 3168 3169 3170 3171 3172 3173
6 3174 3175 3176 3177 3178 3179
6 3180 3181 3182 3183 3184 3185
6 3186 3187 3188 3189 3190 3191
6 3192 3193 3194 3195 3196 3197
6 3198 3199 3200 3201 3202 3203
6 3204 3205 3206 3207 3208 3209
6 3210 3211 3212 3213 3214 3215
6 3216 3217 3218 3219 3220 3221
6 3222 3223 3224 3225 3226 3227
6 3228 3229 3230 3231 3232 3233
6 3234 3235 3236 3237 3238 3239
6 3240 3241 3242 3243 3244 3245
6 3246 3247 3248 3249 3250 3251
6 3252 3253 3254 3255 3256 3257
6 3258 3259 3260 3261 3262 3263
6 3264 3265 3266 3267 3268 3269
6 3270 3271 3272 3273 3274 3275
6 3276 3277 3278 3279 3280 3281
6 3282 3283 3284 3285 3286 3287
6 3288 3289 3290 3291 3292 3293
6 3294 3295 3296 3297 3298 3299
6 3300 3301 3302 3303 3304 3305
6 3306 3307 3308 3309 3310 3311
6 3312 3313 3314 3315 3316 3317
6 3318 3319 3320 3321 3322 3323
6 3324 3325 3326 3327 3328 3329
6 3330 3331 3332 3333 3334 3335
6 3336 3337 3338 3339 3340 3341
6 3342 3343 3344 3345 3346 3347
6 3348 3349 3350 3351 3352 3353
6 3354 3355 3356 3357 3358 3359
6 3360 3361 3362 3363 3364 3365
6 3366 3367 3368 3369 3370 3371
6 3372 3373 3374 3375 3376 3377
6 3378 3379 3380 3381 3382 3383
6 3384 3385 3386 3387 3388 3389
6 3390 3391 3392 3393 3394 3395
6 3396 3397 3398 3399 3400 3401
6 3402 3403 3404 3405 3406 3407
6 3408 3409 3410 3411 3412 3413
6 3414 3415 3416 3417 3418 3419
6 3420 3421 3422 3423 3424 3425
6 3426 3427 3428 3429 3430 3431
6 3432 3433 3434 3435 3436 3437
6 3438 3439 3440 3441 3442 3443
6 3444 3445 3446 3447 3448 3449
6 3450 3451 3452 3453 3454 3455
6 3456 3457 3458 3459 3460 3461
6 3462 3463 3464 3465 3466 3467
6 3468 3469 3470 3471 3472 3473
6 3474 3475 3476 3477 3478 3479
6 3480 3481 3482 3483 3484 3485
6 3486 3487 3488 3489 3490 3491
6 3492 3493 3494 3495 3496 3497
6 3498 3499 3500 3501 3502 3503
6 3504 3505 3506 3507 3508 3509
6 3510 3511 3512 3513 3514 3515
6 3516 3517 3518 3519 3520 3521
6 3522 3523 3524 3525 3526 3527
6 3528 3529 3530 3531 3532 3533
6 3534 3535 3536 3537 3538 3539
6 3540 3541 3542 3543 3544 3545
6 3546 3547 3548 3549 3550 3551
6 3552 3553 3554 3555 3556 3557
6 3558 3559 3560 3561 3562 3563
6 3564 3565 3566 3567 3568 3569
6 3570 3571 3572 3573 3574 3575
6 3576 3577 3578 3579 3580 3581
6 3582 3583 3584 3585 3586 3587
6 3588 3589 3590 3591 3592 3593
6 3594 3595 3596 3597 3598 3599
6 3600 3601 3602 3603 3604 3605
6 3606 3607 3608 3609 3610 3611
6 3612 3613 3614 3615 3616 3617
6 3618 3619 3620 3621 3622 3623
6 3624 3625 3626 3627 3628 3629
6 3630 3631 3632 3633 3634 3635
6 3636 3637 3638 3639 3640 3641
6 3642 3643 3644 3645 3646 3647
6 3648 3649 3650 3651 3652 3653
6 3654 3655 3656 3657 3658 3659
6 3660 3661 3662 3663 3664 3665
6 3666 3667 3668 3669 3670 3671
6 3672 3673 3674 3675 3676 3677
6 3678 3679 3680 3681 3682 3683
6 3684 3685 3686 3687 3688 3689
6 3690 3691 3692 3693 3694 3695
6 3696 3697 3698 3699 3700 3701
6 3702 3703 3704 3705 3706 3707
6 3708 3709 3710 3711 3712 3713
6 3714 3715 3716 3717 3718 3719
6 3720 3721 3722 3723 3724 3725
6 3726 3727 3728 3729 3730 3731
6 3732 3733 3734 3735 3736 3737
6 3738 3739 3740 3741 3742 3743
6 3744 3745 3746 3747 3748 3749
6 3750 3751 3752 3753 3754 3755
6 3756 3757 3758 3759 3760 3761
6 3762 3763 3764 3765 3766 3767
6 3768 3769 3770 3771 3772 3773
6 3774 3775 3776 3777 3778 3779
6 3780 3781 3782 3783 3784 3785
6 3786 3787 3788 3789 3790 3791
6 3792 3793 3794 3795 3796 3797
6 3798 3799 3800 3801 3802 3803
6 3804 3805 3806 3807 3808 3809
6 3810 3811 3812 3813 3814 3815
6 3816 3817 3818 3819 3820 3821
6 3822 3823 3824 3825 3826 3827
6 3828 3829 3830 3831 3832 3833
6 3834 3835 3836 3837 3838 3839
6 3840 3841 3842 3843 3844 3845
6 3846 3847 3848 3849 3850 3851
6 3852 3853 3854 3855 3856 3857
6 3858 3859 3860 3861 3862 3863
6 3864 3865 3866 3867 3868 3869
6 3870 3871 3872 3873 3874 3875
6 3876 3877 3878 3879 3880 3881
6 3882 3883 3884 3885 3886 3887
6 3888 3889 3890 3891 3892 3893
6 3894 3895 3896 3897 3898 3899
6 3900 3901 3902 3903 3904 3905
6 3906 3907 3908 3909 3910 3911
6 3912 3913 3914 3915 3916 3917
6 3918 3919 3920 3921 3922 3923
6 3924 3925 3926 3927 3928 3929
6 3930 3931 3932 3933 3934 3935
6 3936 3937 3938 3939 3940 3941
6 3942 3943 3944 3945 3946 3947
6 3948 3949 3950 3951 3952 3953
6 3954 3955 3956 3957 3958 3959
6 3960 3961 3962 3963 3964 3965
6 3966 3967 3968 3969 3970 3971
6 3972 3973 3974 3975 3976 3977
6 3978 3979 3980 3981 3982 3983
6 3984 3985 3986 3987 3988 3989
6 3990 3991 3992 3993 3994 3995
6 3996 3997 3998 3999 4000 4001
6 4002 4003 4004 4005 4006 4007
6 4008 4009 4010 4011 4012 4013
6 4014 4015 4016 4017 4018 4019
6 4020 4021 4022 4023 4024 4025
6 4026 4027 4028 4029 4030 4031
6 4032 4033 4034 4035 4036 4037
6 4038 4039 4040 4041 4042 4043
6 4044 4045 4046 4047 4048 4049
6 4050 4051 4052 4053 4054 4055
6 4056 4057 4058 4059 4060 4061
6 4062 4063 4064 4065 4066 4067
6 4068 4069 4070 4071 4072 4073
6 4074 4075 4076 4077 4078 4079
6 4080 4081 4082 4083 4084 4085
6 4086 4087 4088 4089 4090 4091
6 4092 4093 4094 4095 4096 4097
6 4098 4099 4100 4101 4102 4103
6 4104 4105 4106 4107 4108 4109
6 4110 4111 4112 4113 4114 4115
6 4116 4117 4118 4119 4120 4121
6 4122 4123 4124 4125 4126 4127
6 4128 4129 4130 4131 4132 4133
6 4134 4135 4136 4137 4138 4139
6 4140 4141 4142 4143 4144 4145
6 4146 4147 4148 4149 4150 4151
6 4152 4153 4154 4155 4156 4157
6 4158 4159 4160 4161 4162 4163
6 4164 4165 4166 4167 4168 4169
6 4170 4171 4172 4173 4174 4175
6 4176 4177 4178 4179 4180 4181
6 4182 4183 4184 4185 4186 4187
6 4188 4189 4190 4191 4192 4193
6 4194 4195 4196 4197 4198 4199
6 4200 4201 4202 4203 4204 4205
6 4206 4207 4208 4209 4210 4211
6 4212 4213 4214 4215 4216 4217
6 4218 4219 4220 4221 4222 4223
6 4224 4225 4226 4227 4228 4229
6 4230 4231 4232 4233 4234 4235
6 4236 4237 4238 4239 4240 4241
6 4242 4243 4244 4245 4246 4247
6 4248 4249 4250 4251 4252 4253
6 4254 4255 4256 4257 4258 4259
6 4260 4261 4262 4263 4264 4265
6 4266 4267 4268 4269 4270 4271
6 4272 4273 4274 4275 4276 4277
6 4278 4279 4280 4281 4282 4283
6 4284 4285 4286 4287 4288 4289
6 4290 4291 4292 4293 4294 4295
6 4296 4297 4298 4299 4300 4301
6 4302 4303 4304 4305 4306 4307
6 4308 4309 4310 4311 4312 4313
6 4314 4315 4316 4317 4318 4319
6 4320 4321 4322 4323 4324 4325
6 4326 4327 4328 4329 4330 4331
6 4332 4333 4334 4335 4336 4337
6 4338 4339 4340 4341 4342 4343
6 4344 4345 4346 4347 4348 4349
6 4350 4351 4352 4353 4354 4355
6 4356 4357 4358 4359 4360 4361
6 4362 4363 4364 4365 4366 4367
6 4368 4369 4370 4371 4372 4373
6 4374 4375 4376 4377 4378 4379
6 4380 4381 4382 4383 4384 4385
6 4386 4387 4388 4389 4390 4391
6 4392 4393 4394 4395 4396 4397
6 4398 4399 4400 4401 4402 4403
6 4404 4405 4406 4407 4408 4409
6 4410 4411 4412 4413 4414 4415
6 4416 4417 4418 4419 4420 4421
6 4422 4423 4424 4425 4426 4427
6 4428 4429 4430 4431 4432 4433
6 4434 4435 4436 4437 4438 4439
6 4440 4441 4442 4443 4444 4445
6 4446 4447 4448 4449 4450 4451
6 4452 4453 4454 4455 4456 4457
6 4458 4459 4460 4461 4462 4463
6 4464 4465 4466 4467 4468 4469
6 4470 4471 4472 4473 4474 4475
6 4476 4477 4478 4479 4480 4481
6 4482 4483 4484 4485 4486 4487
6 4488 4489 4490 4491 4492 4493
6 4494 4495 4496 4497 4498 4499
6 4500 4501 4502 4503 4504 4505
6 4506 4507 4508 4509 4510 4511
6 4512 4513 4514 4515 4516 4517
6 4518 4519 4520 4521 4522 4523
6 4524 4525 4526 4527 4528 4529
6 4530 4531 4532 4533 4534 4535
6 4536 4537 4538 4539 4540 4541
6 4542 4543 4544 4545 4546 4547
6 4548 4549 4550 4551 4552 4553
6 4554 4555 4556 4557 4558 4559
6 4560 4561 4562 4563 4564 4565
6 4566 4567 4568 4569 4570 4571
6 4572 4573 4574 4575 4576 4577
6 4578 4579 4580 4581 4582 4583
6 4584 4585 4586 4587 4588 4589
6 4590 4591 4592 4593 4594 4595
6 4596 4597 4598 4599 4600 4601
6 4602 4603 4604 4605 4606 4607
6 4608 4609 4610 4611 4612 4613
6 4614 4615 4616 4617 4618 4619
6 4620 4621 4622 4623 4624 4625
6 4626 4627 4628 4629 4630 4631
6 4632 4633 4634 4635 4636 4637
6 4638 4639 4640 4641 4642 4643
6 4644 4645 4646 4647 4648 4649
6 4650 4651 4652 4653 4654 4655
6 4656 4657 4658 4659 4660 4661
6 4662 4663 4664 4665 4666 4667
6 4668 4669 4670 4671 4672 4673
6 4674 4675 4676 4677 4678 4679
6 4680 4681 4682 4683 4684 4685
6 4686 4687 4688 4689 4690 4691
6 4692 4693 4694 4695 4696 4697
6 4698 4699 4700 4701 4702 4703
6 4704 4705 4706 4707 4708 4709
6 4710 4711 4712 4713 4714 4715
6 4716 4717 4718 4719 4720 4721
6 4722 4723 4724 4725 4726 4727
6 4728 4729 4730 4731 4732 4733
6 4734 4735 4736 4737 4738 4739
6 4740 4741 4742 4743 4744 4745
6 4746 4747 4748 4749 4750 4751
6 4752 4753 4754 4755 4756 4757
6 4758 4759 4760 4761 4762 4763
6 4764 4765 4766 4767 4768 4769
6 4770 4771 4772 4773 4774 4775
6 4776 4777 4778 4779 4780 4781
6 4782 4783 4784 4785 4786 4787
6 4788 4789 4790 4791 4792 4793
6 4794 4795 4796 4797 4798 4799
6 4800 4801 4802 4803 4804 4805
6 4806 4807 4808 4809 4810 4811
6 4812 4813 4814 4815 4816 4817
6 4818 4819 4820 4821 4822 4823
6 4824 4825 4826 4827 4828 4829
6 4830 4831 4832 4833 4834 4835
6 4836 4837 4838 4839 4840 4841
6 4842 4843 4844 4845 4846 4847
6 4848 4849 4850 4851 4852 4853
6 4854 4855 4856 4857 4858 4859
6 4860 4861 4862 4863 4864 4865
6 4866 4867 4868 4869 4870 4871
6 4872 4873 4874 4875 4876 4877
6 4878 4879 4880 4881 4882 4883
6 4884 4885 4886 4887 4888 4889
6 4890 4891 4892 4893 4894 4895
6 4896 4897 4898 4899 4900 4901
6 4902 4903 4904 4905 4906 4907
6 4908 4909 4910 4911 4912 4913
6 4914 4915 4916 4917 4918 4919
6 4920 4921 4922 4923 4924 4925
6 4926 4927 4928 4929 4930 4931
6 4932 4933 4934 4935 4936 4937
6 4938 4939 4940 4941 4942 4943
6 4944 4945 4946 4947 4948 4949
6 4950 4951 4952 4953 4954 4955
6 4956 4957 4958 4959 4960 4961
6 4962 4963 4964 4965 4966 4967
6 4968 4969 4970 4971 4972 4973
6 4974 4975 4976 4977 4978 4979
6 4980 4981 4982 4983 4984 4985
6 4986 4987 4988 4989 4990 4991
6 4992 4993 4994 4995 4996 4997
6 4998 4999 5000 5001 5002 5003
6 5004 5005 5006 5007 5008 5009
6 5010 5011 5012 5013 5014 5015
6 5016 5017 5018 5019 5020 5021
6 5022 5023 5024 5025 5026 5027
6 5028 5029 5030 5031 5032 5033
6 5034 5035 5036 5037 5038 5039
6 5040 5041 5042 5043 5044 5045
6 5046 5047 5048 5049 5050 5051
6 5052 5053 5054 5055 5056 5057
6 5058 5059 5060 5061 5062 5063
6 5064 5065 5066 5067 5068 5069
6 5070 5071 5072 5073 5074 5075
6 5076 5077 5078 5079 5080 5081
6 5082 5083 5084 5085 5086 5087
6 5088 5089 5090 5091 5092 5093
6 5094 5095 5096 5097 5098 5099
6 5100 5101 5102 5103 5104 5105
6 5106 5107 5108 5109 5110 5111
6 5112 5113 5114 5115 5116 5117
6 5118 5119 5120 5121 5122 5123
6 5124 5125 5126 5127 5128 5129
6 5130 5131 5132 5133 5134 5135
6 5136 5137 5138 5139 5140 5141
6 5142 5143 5144 5145 5146 5147
6 5148 5149 5150 5151 5152 5153
6 5154 5155 5156 5157 5158 5159
6 5160 5161 5162 5163 5164 5165
6 5166 5167 5168 5169 5170 5171
6 5172 5173 5174 5175 5176 5177
6 5178 5179 5180 5181 5182 5183
6 5184 5185 5186 5187 5188 5189
6 5190 5191 5192 5193 5194 5195
6 5196 5197 5198 5199 5200 5201
6 5202 5203 5204 5205 5206 5207
6 5208 5209 5210 5211 5212 5213
6 5214 5215 5216 5217 5218 5219
6 5220 5221 5222 5223 5224 5225
6 5226 5227 5228 5229 5230 5231
6 5232 5233 5234 5235 5236 5237
6 5238 5239 5240 5241 5242 5243
6 5244 5245 5246 5247 5248 5249
6 5250 5251 5252 5253 5254 5255
6 5256 5257 5258 5259 5260 5261
6 5262 5263 5264 5265 5266 5267
6 5268 5269 5270 5271 5272 5273
6 5274 5275 5276 5277 5278 5279
6 5280 5281 5282 5283 5284 5285
6 5286 5287 5288 5289 5290 5291
6 5292 5293 5294 5295 5296 5297
6 5298 5299 5300 5301 5302 5303
6 5304 5305 5306 5307 5308 5309
6 5310 5311 5312 5313 5314 5315
6 5316 5317 5318 5319 5320 5321
6 5322 5323 5324 5325 5326 5327
6 5328 5329 5330 5331 5332 5333
6 5334 5335 5336 5337 5338 5339
6 5340 5341 5342 5343 5344 5345
6 5346 5347 5348 5349 5350 5351
6 5352 5353 5354 5355 5356 5357
6 5358 5359 5360 5361 5362 5363
6 5364 5365 5366 5367 5368 5369
6 5370 5371 5372 5373 5374 5375
6 5376 5377 5378 5379 5380 5381
6 5382 5383 5384 5385 5386 5387
6 5388 5389 5390 5391 5392 5393
6 5394 5395 5396 5397 5398 5399
6 5400 5401 5402 5403 5404 5405
6 5406 5407 5408 5409 5410 5411
6 5412 5413 5414 5415 5416 5417
6 5418 5419 5420 5421 5422 5423
6 5424 5425 5426 5427 5428 5429
6 5430 5431 5432 5433 5434 5435
6 5436 5437 5438 5439 5440 5441
6 5442 5443 5444 5445 5446 5447
6 5448 5449 5450 5451 5452 5453
6 5454 5455 5456 5457 5458 5459
6 5460 5461 5462 5463 5464 5465
6 5466 5467 5468 5469 5470 5471
6 5472 5473 5474 5475 5476 5477
6 5478 5479 5480 5481 5482 5483
6 5484 5485 5486 5487 5488 5489
6 5490 5491 5492 5493 5494 5495
6 5496 5497 5498 5499 5500 5501
6 5502 5503 5504 5505 5506 5507
6 5508 5509 5510 5511 5512 5513
6 5514 5515 5516 5517 5518 5519
6 5520 5521 5522 5523 5524 5525
6 5526 5527 5528 5529 5530 5531
6 5532 5533 5534 5535 5536 5537
6 5538 5539 5540 5541 5542 5543
6 5544 5545 5546 5547 5548 5549
6 5550 5551 5552 5553 5554 5555
6 5556 5557 5558 5559 5560 5561
6 5562 5563 5564 5565 5566 5567
6 5568 5569 5570 5571 5572 5573
6 5574 5575 5576 5577 5578 5579
6 5580 5581 5582 5583 5584 5585
6 5586 5587 5588 5589 5590 5591
6 5592 5593 5594 5595 5596 5597
6 5598 5599 5600 5601 5602 5603
6 5604 5605 5606 5607 5608 5609
6 5610 5611 5612 5613 5614 5615
6 5616 5617 5618 5619 5620 5621
6 5622 5623 5624 5625 5626 5627
6 5628 5629 5630 5631 5632 5633
6 5634 5635 5636 5637 5638 5639
6 5640 5641 5642 5643 5644 5645
6 5646 5647 5648 5649 5650 5651
6 5652 5653 5654 5655 5656 5657
6 5658 5659 5660 5661 5662 5663
6 5664 5665 5666 5667 5668 5669
6 5670 5671 5672 5673 5674 5675
6 5676 5677 5678 5679 5680 5681
6 5682 5683 5684 5685 5686 5687
6 5688 5689 5690 5691 5692 5693
6 5694 5695 5696 5697 5698 5699
6 5700 5701 5702 5703 5704 5705
6 5706 5707 5708 5709 5710 5711
6 5712 5713 5714 5715 5716 5717
6 5718 5719 5720 5721 5722 5723
6 5724 5725 5726 5727 5728 5729
6 5730 5731 5732 5733 5734 5735
6 5736 5737 5738 5739 5740 5741
6 5742 5743 5744 5745 5746 5747
6 5748 5749 5750 5751 5752 5753
6 5754 5755 5756 5757 5758 5759
6 5760 5761 5762 5763 5764 5765
6 5766 5767 5768 5769 5770 5771
6 5772 5773 5774 5775 5776 5777
6 5778 5779 5780 5781 5782 5783
6 5784 5785 5786 5787 5788 5789
6 5790 5791 5792 5793 5794 5795
6 5796 5797 5798 5799 5800 5801
6 5802 5803 5804 5805 5806 5807
6 5808 5809 5810 5811 5812 5813
6 5814 5815 5816 5817 5818 5819
6 5820 5821 5822 5823 5824 5825
6 5826 5827 5828 5829 5830 5831
6 5832 5833 5834 5835 5836 5837
6 5838 5839 5840 5841 5842 5843
6 5844 5845 5846 5847 5848 5849
6 5850 5851 5852 5853 5854 5855
6 5856 5857 5858 5859 5860 5861
6 5862 5863 5864 5865 5866 5867
6 5868 5869 5870 5871 5872 5873
6 5874 5875 5876 5877 5878 5879
6 5880 5881 5882 5883 5884 5885
6 5886 5887 5888 5889 5890 5891
6 5892 5893 5894 5895 5896 5897
6 5898 5899 5900 5901 5902 5903
6 5904 5905 5906 5907 5908 5909
6 5910 5911 5912 5913 5914 5915
6 5916 5917 5918 5919 5920 5921
6 5922 5923 5924 5925 5926 5927
6 5928 5929 5930 5931 5932 5933
6 5934 5935 5936 5937 5938 5939
6 5940 5941 5942 5943 5944 5945
6 5946 5947 5948 5949 5950 5951
6 5952 5953 5954 5955 5956 5957
6 5958 5959 5960 5961 5962 5963
6 5964 5965 5966 5967 5968 5969
6 5970 5971 5972 5973 5974 5975
6 5976 5977 5978 5979 5980 5981
6 5982 5983 5984 5985 5986 5987
6 5988 5989 5990 5991 5992 5993
6 5994 5995 5996 5997 5998 5999
6 6000 6001 6002 6003 6004 6005
6 6006 6007 6008 6009 6010 6011
6 6012 6013 6014 6015 6016 6017
6 6018 6019 6020 6021 6022 6023
6 6024 6025 6026 6027 6028 6029
6 6030 6031 6032 6033 6034 6035
6 6036 6037 6038 6039 6040 6041
6 6042 6043 6044 6045 6046 6047
6 6048 6049 6050 6051 6052 6053
6 6054 6055 6056 6057 6058 6059
6 6060 6061 6062 6063 6064 6065
6 6066 6067 6068 6069 6070 6071
6 6072 6073 6074 6075 6076 6077
6 6078 6079 6080 6081 6082 6083
6 6084 6085 6086 6087 6088 6089
6 6090 6091 6092 6093 6094 6095
6 6096 6097 6098 6099 6100 6101
6 6102 6103 6104 6105 6106 6107
6 6108 6109 6110 6111 6112 6113
6 6114 6115 6116 6117 6118 6119
6 6120 6121 6122 6123 6124 6125
6 6126 6127 6128 6129 6130 6131
6 6132 6133 6134 6135 6136 6137
6 6138 6139 6140 6141 6142 6143

CELL_TYPES 1024
22
22
22
22
22
22
22
22
22
22
22
22
22
22
22
22
22
22
22
22
22
22
22
22
22
22
22
22
22
22
22
22
22
22
22
22
22
22
22
22
22
22
22
22
22
22
22
22
22
22
22
22
22
22
22
22
22
22
22
22
22
22
22
22
22
22
22
22
22
22
22
22
22
22
22
22
22
22
22
22
22
22
22
22
22
22
22
22
22
22
22
22
22
22
22
22
22
22
22
22
22
22
22
22
22
22
22
22
22
22
22
22
22
22
22
22
22
22
22
22
22
22
22
22
22
22
22
22
22
22
22
22
22
22
22
22
22
22
22
22
22
22
22
22
22
22
22
22
22
22
22
22
22
22
22
22
22
22
22
22
22
22
22
22
22
22
22
22
22
22
22
22
22
22
22
22
22
22
22
22
22
22
22
22
22
22
22
22
22
22
22
22
22
22
22
22
22
22
22
22
22
22
22
22
22
22
22
22
22
22
22
22
22
22
22
22
22
22
22
22
22
22
22
22
22
22
22
22
22
22
22
22
22
22
22
22
22
22
22
22
22
22
22
22
22
22
22
22
22
22
22
22
22
22
22
22
22
22
22
22
22
22
22
22
22
22
22
22
22
22
22
22
22
22
22
22
22
22
22
22
22
22
22
22
22
22
22
22
22
22
22
22
22
22
22
22
22
22
22
22
22
22
22
22
22
22
22
22
22
22
22
22
22
22
22
22
22
22
22
22
22
22
22
22
22
22
22
22
22
22
22
22
22
22
22
22
22
22
22
22
22
22
22
22
22
22
22
22
22
22
22
22
22
22
22
22
22
22
22
22
22
22
22
22
22
22
22
22
22
22
22
22
22
22
22
22
22
22
22
22
22
22
22
22
22
22
22
22
22
22
22
22
22
22
22
22
22
22
22
22
22
22
22
22
22
22
22
22
22
22
22
22
22
22
22
22
22
22
22
22
22
22
22
22
22
22
22
22
22
22
22
22
22
22
22
22
22
22
22
22
22
22
22
22
22
22
22
22
22
22
22
22
22
22
22
22
22
22
22
22
22
22
22
22
22
22
22
22
22
22
22
22
22
22
22
22
22
22
22
22
22
22
22
22
22
22
22
22
22
22
22
22
22
22
22
22
22
22
22
22
22
22
22
22
22
22
22
22
22
22
22
22
22
22
22
22
22
22
22
22
22
22
22
22
22
22
22
22
22
22
22
22
22
22
22
22
22
22
22
22
22
22
22
22
22
22
22
22
22
22
22
22
22
22
22
22
22
22
22
22
22
22
22
22
22
22
22
22
22
22
22
22
22
22
22
22
22
22
22
22
22
22
22
22
22
22
22
22
22
22
22
22
22
22
22
22
22
22
22
22
22
22
22
22
22
22
22
22
22
22
22
22
22
22
22
22
22
22
22
22
22
22
22
22
22
22
22
22
22
22
22
22
22
22
22
22
22
22
22
22
22
22
22
22
22
22
22
22
22
22
22
22
22
22
22
22
22
22
22
22
22
22
22
22
22
22
22
22
22
22
22
22
22
22
22
22
22
22
22
22
22
22
22
22
22
22
22
22
22
22
22
22
22
22
22
22
22
22
22
22
22
22
22
22
22
22
22
22
22
22
22
22
22
22
22
22
22
22
22
22
22
22
22
22
22
22
22
22
22
22
22
22
22
22
22
22
22
22
22
22
22
22
22
22
22
22
22
22
22
22
22
22
22
22
22
22
22
22
22
22
22
22
22
22
22
22
22
22
22
22
22
22
22
22
22
22
22
22
22
22
22
22
22
22
22
22
22
22
22
22
22
22
22
22
22
22
22
22
22
22
22
22
22
22
22
22
22
22
22
22
22
22
22
22
22
22
22
22
22
22
22
22
22
22
22
22
22
22
22
22
22
22
22
22
22
22
22
22
22
22
22
22
22
22
22
22
22
22
22
22
22
22
22
22
22
22
22
22
22
22
22
22
22
22
22
22
22
22
22
22
22
22
22
22
22
22
22
22
22
22
22
22
22
22
22
22
22
22
22
22
22
22
22
22
22
22
22
22
22
22
22
22
22
22
22
22
22
22
22
22
22
22
22
22
22
22
22
22
22
22
22
22
22
22
22
22
22
22
22
22
22
22
22
22
22
22
22
22
22
22
22
22
22
22
22
22
22
22
22
22
22
22
22
22
22
22
22
22
22
22
22
22
22
22
22
22
22
22
22
22
22
22
22
22
22
22
22
22
22
22
22
22
22
22
22
22
22
22
22
22
22
22
22
22
22
22
22
22
22
22
22
22
22
22
22
22
22
22
22
22
22
22
22
22
22
22
22
22
22
22
22
22
22
22

POINT_DATA 6144
VECTORS stress_1 float
0.0695372 0.012147 0
0.036684 0.0258704 0
0.10789 0.0203703 0
0.0531106 0.0190087 0
0.0722873 0.0231204 0
0.0887139 0.0162587 0
0.069168 0.0125163 0
0.053505 0.0119641 0
0.0514955 0.0110589 0
0.0613365 0.0122402 0
0.0525003 0.0115115 0
0.0603318 0.0117876 0
0.0689841 0.0115939 0
0.0875201 0 0
0.0643324 0 0
0.0782521 0.00579693 0
0.0759263 0 0
0.0666582 0.00579693 0
0.0686148 0.0119631 0
0.066443 -0.00211056 0
0.0551085 0.0135676 0
0.0675289 0.00492626 0
0.0607758 0.00572854 0
0.0618617 0.0127654 0
0.0463382 0.0122495 0
0.0388905 0.0101949 0
0.0539069 0.0100739 0
0.0426144 0.0112222 0
0.0463987 0.0101344 0
0.0501225 0.0111617 0
0.0463361 0.0122473 0
0.0548918 0.0110589 0
0.0534201 0.0119641 0
0.050614 0.0116531 0
0.054156 0.0115115 0
0.0498781 0.0121057 0
0.0463318 0.0122559 0
0.0410933 0.0118111 0
0.038739 0.0103464 0
0.0437125 0.0120335 0
0.0399162 0.0110788 0
0.0425354 0.0113011 0
0.0463297 0.0122538 0
0.0531455 0.0122387 0
0.0405173 0.0112352 0
0.0497376 0.0122463 0
0.0468314 0.011737 0
0.0434235 0.0117445 0
0.0462991 0.0097992 0
0.0394999 0.0100144 0
0.0412166 0.0113007 0
0.0428995 0.00990679 0
0.0403583 0.0106576 0
0.0437578 0.01055 0
0.0463166 0.00978167 0
0.0405173 0.012 0
0.0531455 0.0109703 0
0.043417 0.0108908 0
0.0468314 0.0114852 0
0.0497311 0.010376 0
0.0462831 0.00978318 0
0.0491522 0.00671704 0
0.0398082 0.0103227 0
0.0477176 0.00825011 0
0.0444802 0.00851987 0
0.0430456 0.0100529 0
0.0463006 0.00976565 0
0.0529503 0.0107751 0
0.0500317 0.0058376 0
0.0496254 0.0102704 0
0.051491 0.00830635 0
0.0481661 0.00780163 0
0.0355807 0.0110565 0
0.0407592 0.0113007 0
0.0399613 0.0100144 0
0.03817 0.0111786 0
0.0403603 0.0106576 0
0.037771 0.0105354 0
0.0355823 0.0110581 0
0.0306974 0.0111514 0
0.0405385 0.01108 0
0.0331398 0.0111047 0
0.0356179 0.0111157 0
0.0380604 0.011069 0
0.0355779 0.0110594 0
0.0396109 0.0103648 0
0.0308032 0.0111064 0
0.0375944 0.0107121 0
0.0352071 0.0107356 0
0.0331905 0.0110829 0
0.0355794 0.0110609 0
0.0309018 0.011205 0
0.0309168 0.0109319 0
0.0332406 0.0111329 0
0.0309093 0.0110684 0
0.0332481 0.0109964 0
0.0350529 0.0106225 0
0.0395792 0.0103464 0
0.0404918 0.0118111 0
0.037316 0.0104844 0
0.0400355 0.0110788 0
0.0377723 0.0112168 0
0.0350644 0.0106109 0
0.0405385 0.0117644 0
0.0306974 0.0106573 0
0.0378014 0.0111877 0
0.0356179 0.0112109 0
0.0328809 0.0106341 0
0.0350408 0.0106104 0
0.0300824 0.00902423 0
0.0391281 0.00989528 0
0.0325616 0.00981732 0
0.0346053 0.00945976 0
0.0370845 0.0102528 0
0.0350523 0.0105989 0
0.0310732 0.0110331 0
0.0300076 0.00909902 0
0.0330628 0.010816 0
0.0305404 0.0100661 0
0.0325299 0.00984895 0
0.0563623 0.00452085 0
0.0637493 0 0
0.0547076 0 0
0.0600558 0.00226043 0
0.0592285 0 0
0.055535 0.00226043 0
0.0563547 0.00451328 0
0.0551085 0.0115357 0
0.066443 0.00269365 0
0.0557316 0.00802447 0
0.0607758 0.00711466 0
0.0613989 0.00360347 0
0.056385 0.00449817 0
0.055443 -0.000735378 0
0.0494958 0.00709583 0
0.055914 0.0018814 0
0.0524694 0.00318022 0
0.0529404 0.005797 0
0.0563774 0.0044906 0
0.0482376 0.0058376 0
0.0558691 0.0107751 0
0.0523075 0.0051641 0
0.0520533 0.00830635 0
0.0561233 0.00763285 0
0.0427553 0.00751051 0
0.0398082 0.0103137 0
0.0491522 0.0068639 0
0.0412818 0.0089121 0
0.0444802 0.0085888 0
0.0459538 0.0071872 0
0.0427524 0.00750756 0
0.0486337 0.00634541 0
0.0445553 0.00459124 0
0.0456931 0.00692648 0
0.0465945 0.00546832 0
0.0436538 0.0060494 0
0.0427543 0.00751155 0
0.0369702 0.00832069 0
0.0401949 0.00992705 0
0.0398623 0.00791612 0
0.0385825 0.00912387 0
0.0414746 0.0087193 0
0.0427513 0.0075086 0
0.0443493 0.00479719 0
0.0373 0.00865052 0
0.0435503 0.0061529 0
0.0408247 0.00672386 0
0.0400257 0.00807956 0
0.0495991 0.0027936 0
0.0494958 0.0062353 0
0.055443 0.00049469 0
0.0495474 0.00451445 0
0.0524694 0.00336499 0
0.0525211 0.00164414 0
0.0496057 0.00278702 0
0.0440231 0.00459124 0
0.0493857 0.00634541 0
0.0468144 0.00368913 0
0.0467044 0.00546832 0
0.0494957 0.00456622 0
0.0496046 0.00279908 0
0.0549483 0 0
0.0493501 0 0
0.0522764 0.00139954 0
0.0521492 0 0
0.0494774 0.00139954 0
0.0496112 0.00279251 0
0.0495779 -0.00022773 0
0.0444243 0.00499243 0
0.0495945 0.00128239 0
0.0470011 0.00238235 0
0.0470177 0.00389247 0
0.026651 0.00983924 0
0.0228237 0.00862739 0
0.0301842 0.00892135 0
0.0247373 0.00923331 0
0.026504 0.00877437 0
0.0284176 0.00938029 0
0.0266537 0.00984195 0
0.0303619 0.00909902 0
0.0308101 0.0110331 0
0.0285078 0.00947049 0
0.030586 0.0100661 0
0.0287319 0.0104375 0
0.0266535 0.00983667 0
0.0232806 0.0105502 0
0.0228043 0.00864684 0
0.024967 0.0101934 0
0.0230424 0.00959852 0
0.0247289 0.00924175 0
0.0266563 0.00983938 0
0.0308217 0.0110216 0
0.0231214 0.010391 0
0.028739 0.0104305 0
0.0269715 0.0107063 0
0.0248888 0.0101152 0
0.0270525 0.011101 0
0.0233434 0.0115207 0
0.0231943 0.0105321 0
0.025198 0.0113109 0
0.0232689 0.0110264 0
0.0251234 0.0108166 0
0.0270511 0.0111024 0
0.0231214 0.0106051 0
0.0308217 0.0107642 0
0.0250862 0.0108537 0
0.0269715 0.0106846 0
0.0289364 0.0109333 0
0.0270544 0.0111029 0
0.0308033 0.0113193 0
0.0232238 0.0114011 0
0.0289288 0.0112111 0
0.0270135 0.0113602 0
0.0251391 0.011252 0
0.027053 0.0111043 0
0.0309894 0.0109319 0
0.0309177 0.011205 0
0.0290212 0.0110181 0
0.0309535 0.0110684 0
0.0289853 0.0111546 0
0.0197244 0.00949402 0
0.0229552 0.00864684 0
0.0231642 0.0105502 0
0.0213398 0.00907043 0
0.0230597 0.00959852 0
0.0214443 0.0100221 0
0.0197253 0.00949309 0
0.0231689 0.0105455 0
0.0166104 0.0102168 0
0.0214471 0.0100193 0
0.0198896 0.0103811 0
0.0181678 0.00985494 0
0.0197234 0.0094931 0
0.0164788 0.00846134 0
0.0228689 0.00856055 0
0.0181011 0.00897722 0
0.0196738 0.00851095 0
0.0212962 0.00902683 0
0.0197244 0.00949217 0
0.0166955 0.0103019 0
0.0164766 0.00846355 0
0.0182099 0.00989702 0
0.016586 0.00938271 0
0.0181005 0.00897786 0
0.0199361 0.0110161 0
0.0232799 0.0105321 0
0.0233006 0.0115207 0
0.021608 0.0107741 0
0.0232903 0.0110264 0
0.0216184 0.0112684 0
0.0199348 0.0110147 0
0.0166104 0.0103309 0
0.0231689 0.0104211 0
0.0182726 0.0106728 0
0.0198896 0.010376 0
0.0215518 0.0107179 0
0.0199372 0.011015 0
0.0232506 0.0115707 0
0.0166703 0.0115242 0
0.0215939 0.0112929 0
0.0199604 0.0115475 0
0.0183037 0.0112696 0
0.0199358 0.0110137 0
0.0167545 0.0116084 0
0.0166384 0.0103029 0
0.0183452 0.011311 0
0.0166964 0.0109556 0
0.0182871 0.0106583 0
0.0345242 0.0101318 0
0.0308032 0.0113868 0
0.0396109 0.010021 0
0.0326637 0.0107593 0
0.0352071 0.0107039 0
0.0370675 0.0100764 0
0.0345209 0.0101351 0
0.0296764 0.0105849 0
0.0310905 0.0110995 0
0.0320986 0.01036 0
0.0303834 0.0108422 0
0.0328057 0.0106173 0
0.0345209 0.0101286 0
0.039517 0.00992705 0
0.0375075 0.00832069 0
0.037019 0.0100278 0
0.0385122 0.00912387 0
0.0360142 0.00922465 0
0.0345176 0.0101319 0
0.0372089 0.00861927 0
0.0297685 0.0106771 0
0.0358633 0.00937558 0
0.0334887 0.00964816 0
0.0321431 0.0104045 0
0.0267287 0.0113137 0
0.0232238 0.0116195 0
0.0308033 0.0110499 0
0.0249763 0.0114666 0
0.0270135 0.0113347 0
0.028766 0.0111818 0
0.0267281 0.0113131 0
0.0308529 0.0110995 0
0.0299111 0.0105849 0
0.0287905 0.0112063 0
0.030382 0.0108422 0
0.0283196 0.010949 0
0.0267278 0.0113147 0
0.0227831 0.0117458 0
0.0233714 0.0114719 0
0.0247554 0.0115303 0
0.0230772 0.0116089 0
0.0250496 0.0113933 0
0.0267271 0.0113141 0
0.0297301 0.0107659 0
0.0227636 0.0117263 0
0.0282286 0.01104 0
0.0262469 0.0112461 0
0.0247454 0.0115202 0
0.0256161 0.0110645 0
0.0216756 0.0116555 0
0.0229167 0.0117146 0
0.0236459 0.01136 0
0.0222962 0.0116851 0
0.0242664 0.0113895 0
0.0256171 0.0110635 0
0.0227636 0.0118677 0
0.0297301 0.0106081 0
0.0241903 0.0114656 0
0.0262469 0.0112379 0
0.0276736 0.0108358 0
0.0256151 0.0110635 0
0.0279409 0.0101272 0
0.0217183 0.0116982 0
0.026778 0.0105954 0
0.0248296 0.0109127 0
0.0236667 0.0113809 0
0.0256161 0.0110625 0
0.029687 0.010565 0
0.0280976 0.00997062 0
0.0276516 0.0108138 0
0.0288923 0.0102678 0
0.0268568 0.0105166 0
0.0192399 0.0121612 0
0.0227727 0.0117146 0
0.0218204 0.0116555 0
0.0210063 0.0119379 0
0.0222965 0.0116851 0
0.0205302 0.0119084 0
0.0192403 0.0121615 0
0.016437 0.0124263 0
0.022764 0.0117059 0
0.0178386 0.0122939 0
0.0196005 0.0120661 0
0.0210021 0.0119337 0
0.0192395 0.0121616 0
0.0217088 0.0117671 0
0.0158265 0.0127109 0
0.0204742 0.0119644 0
0.0187676 0.012239 0
0.017533 0.0124362 0
0.0192398 0.0121619 0
0.0158237 0.0127081 0
0.0165357 0.0123277 0
0.0175318 0.012435 0
0.0161797 0.0125179 0
0.0178877 0.0122448 0
0.0198326 0.0118361 0
0.0233161 0.0114719 0
0.0228616 0.0117458 0
0.0215743 0.011654 0
0.0230889 0.0116089 0
0.0213471 0.011791 0
0.0198326 0.0118361 0
0.022764 0.0118434 0
0.016437 0.0123077 0
0.0212983 0.0118398 0
0.0196005 0.0120756 0
0.0181348 0.0120719 0
0.0198323 0.0118359 0
0.0166703 0.0116626 0
0.0232506 0.0114064 0
0.0182513 0.0117492 0
0.0199604 0.0115345 0
0.0215415 0.0116211 0
0.0198324 0.0118358 0
0.0164795 0.0123501 0
0.0167454 0.0115875 0
0.0181559 0.012093 0
0.0166125 0.0119688 0
0.0182889 0.0117117 0
0.0323797 0.00920468 0
0.0342841 0.00758909 0
0.0279699 0.0100945 0
0.0333319 0.00839689 0
0.031127 0.00884182 0
0.0301748 0.00964961 0
0.0323811 0.00920606 0
0.027846 0.00997062 0
0.0299695 0.010565 0
0.0301135 0.00958834 0
0.0289077 0.0102678 0
0.0311753 0.00988553 0
0.0323807 0.00920368 0
0.0370456 0.00838944 0
0.0344505 0.00742275 0
0.0347132 0.00879656 0
0.0357481 0.00790609 0
0.0334156 0.00831321 0
0.0323821 0.00920506 0
0.0297685 0.0107659 0
0.0372089 0.00855272 0
0.0310753 0.0099855 0
0.0334887 0.00965932 0
0.0347955 0.00887889 0
0.023972 0.0107452 0
0.0217183 0.0117721 0
0.0279409 0.0100568 0
0.0228451 0.0112586 0
0.0248296 0.0109144 0
0.0259565 0.010401 0
0.0239714 0.0107446 0
0.0278666 0.00998247 0
0.0259023 0.00954236 0
0.025919 0.0103635 0
0.0268845 0.00976241 0
0.0249368 0.0101435 0
0.0239715 0.0107458 0
0.0201902 0.0114988 0
0.0218439 0.0116464 0
0.0220808 0.0111223 0
0.0210171 0.0115726 0
0.0229077 0.0111961 0
0.0239708 0.0107451 0
0.025785 0.00965965 0
0.0202539 0.0115624 0
0.0248779 0.0102024 0
0.0230194 0.0106111 0
0.0221124 0.0111538 0
0.0298717 0.00856162 0
0.0279699 0.0101099 0
0.0342841 0.00759931 0
0.0289208 0.00933574 0
0.031127 0.00885459 0
0.0320779 0.00808046 0
0.0298714 0.00856194 0
0.0256963 0.00954236 0
0.0280973 0.00998247 0
0.0277839 0.00905215 0
0.0268968 0.00976241 0
0.0289844 0.0092722 0
0.0298711 0.00856102 0
0.0341485 0.00746366 0
0.0314031 0.00691298 0
0.0320098 0.00801234 0
0.0327758 0.00718832 0
0.0306371 0.007737 0
0.0298708 0.00856134 0
0.0313023 0.0070138 0
0.0258036 0.00964958 0
0.0305865 0.00778757 0
0.0285529 0.00833169 0
0.0278372 0.00910546 0
0.0390566 0.00624063 0
0.0341192 0.00742275 0
0.0374501 0.00838944 0
0.0365879 0.00683169 0
0.0357847 0.00790609 0
0.0382534 0.00731503 0
0.0390564 0.00624084 0
0.0373 0.00853952 0
0.0443493 0.00500293 0
0.0381782 0.00739018 0
0.0408247 0.00677122 0
0.0417028 0.00562188 0
0.039056 0.00623999 0
0.0401955 0.00404153 0
0.0343272 0.00763075 0
0.0396257 0.00514076 0
0.0372613 0.00583614 0
0.0366916 0.00693537 0
0.0390557 0.0062402 0
0.0440592 0.00471285 0
0.0402644 0.00397267 0
0.0415575 0.00547653 0
0.0421618 0.00434276 0
0.0396601 0.00510644 0
0.0136687 0.0120901 0
0.0107804 0.0116702 0
0.0166922 0.0115352 0
0.0122246 0.0118802 0
0.0137363 0.0116027 0
0.0151805 0.0118126 0
0.0136691 0.0120905 0
0.0167445 0.0115875 0
0.0165012 0.0123501 0
0.0152068 0.011839 0
0.0166229 0.0119688 0
0.0150852 0.0122203 0
0.0136689 0.0120899 0
0.0106917 0.0126737 0
0.0108181 0.0116325 0
0.0121803 0.0123818 0
0.0107549 0.0121531 0
0.0122435 0.0118612 0
0.0136693 0.0120903 0
0.0164483 0.0124031 0
0.0106557 0.0126377 0
0.0150588 0.0122467 0
0.013552 0.0125204 0
0.0121625 0.012364 0
0.0137143 0.0109489 0
0.0166922 0.011631 0
0.0107804 0.011587 0
0.0152032 0.0112899 0
0.0137363 0.011609 0
0.0122473 0.0112679 0
0.0137136 0.0109495 0
0.0167026 0.0103029 0
0.0167148 0.0116084 0
0.0152081 0.0106262 0
0.0167087 0.0109556 0
0.0152142 0.011279 0
0.0137135 0.0109481 0
0.010834 0.0116406 0
0.010768 0.0101896 0
0.0122737 0.0112943 0
0.010801 0.0109151 0
0.0122407 0.0105688 0
0.0137128 0.0109487 0
0.0107555 0.0102021 0
0.016636 0.0102363 0
0.0122341 0.0105754 0
0.0136957 0.0102192 0
0.0151744 0.0105925 0
0.013346 0.0128013 0
0.0158293 0.0127809 0
0.0103112 0.0133323 0
0.0145876 0.0127911 0
0.0130703 0.0130566 0
0.0118286 0.0130668 0
0.0133461 0.0128011 0
0.0164685 0.0123277 0
0.015902 0.0127081 0
0.0149073 0.0125644 0
0.0161853 0.0125179 0
0.0146241 0.0127546 0
0.013346 0.0128013 0
0.0103188 0.0133399 0
0.0107155 0.0126594 0
0.0118324 0.0130706 0
0.0105172 0.0129996 0
0.0120308 0.0127303 0
0.0133461 0.0128011 0
0.0106557 0.0127192 0
0.0164483 0.0123075 0
0.0120009 0.0127602 0
0.013552 0.0125133 0
0.0148972 0.0125543 0
0.0182091 0.0122385 0
0.0158265 0.0127937 0
0.0217088 0.0116766 0
0.0170178 0.0125161 0
0.0187676 0.0122351 0
0.019959 0.0119575 0
0.0182087 0.0122389 0
0.0148471 0.0128631 0
0.0159263 0.0126939 0
0.0165279 0.012551 0
0.0153867 0.0127785 0
0.0170675 0.0124664 0
0.0182087 0.0122381 0
0.0216786 0.0116464 0
0.0203477 0.0114988 0
0.0199437 0.0119422 0
0.0210132 0.0115726 0
0.0192782 0.0118684 0
0.0182083 0.0122385 0
0.0202443 0.0116022 0
0.0148792 0.0128952 0
0.0192263 0.0119203 0
0.0175618 0.0122487 0
0.0165438 0.0125668 0
0.0127235 0.0132087 0
0.0103112 0.0133983 0
0.0158293 0.0127047 0
0.0115173 0.0133035 0
0.0130703 0.0130515 0
0.0142764 0.0129567 0
0.0127233 0.0132085 0
0.0158185 0.0126939 0
0.0149583 0.0128631 0
0.0142709 0.0129512 0
0.0153884 0.0127785 0
0.0138408 0.0130358 0
0.0127232 0.0132089 0
0.00972596 0.0137485 0
0.010383 0.0133265 0
0.0112246 0.0134787 0
0.0100545 0.0135375 0
0.0115531 0.0132677 0
0.012723 0.0132088 0
0.0148782 0.0129432 0
0.00974429 0.0137668 0
0.0138006 0.013076 0
0.0123113 0.013355 0
0.0112337 0.0134878 0
0.00800944 0.0122209 0
0.010831 0.0116325 0
0.0106955 0.0126737 0
0.00942024 0.0119267 0
0.0107633 0.0121531 0
0.00935246 0.0124473 0
0.00800959 0.0122207 0
0.0106688 0.0127004 0
0.00523568 0.0128152 0
0.00933918 0.0124606 0
0.00795223 0.0127578 0
0.00662263 0.0125179 0
0.00800917 0.0122206 0
0.00529198 0.0116699 0
0.0107974 0.0115988 0
0.00665057 0.0119453 0
0.0080447 0.0116344 0
0.0094033 0.0119097 0
0.00800932 0.0122205 0
0.00525782 0.0128373 0
0.00530803 0.0116539 0
0.00663357 0.0125289 0
0.00528293 0.0122456 0
0.00665868 0.0119372 0
0.00784428 0.0131594 0
0.0106835 0.0126594 0
0.010364 0.0133399 0
0.00926388 0.0129094 0
0.0105238 0.0129996 0
0.00910415 0.0132496 0
0.0078442 0.0131593 0
0.00523568 0.0128607 0
0.0106688 0.0126447 0
0.00653994 0.01301 0
0.00795223 0.0127527 0
0.00925649 0.012902 0
0.00784424 0.0131594 0
0.0103193 0.0133846 0
0.00507894 0.0136748 0
0.00908179 0.013272 0
0.00769914 0.0135297 0
0.00646159 0.0134171 0
0.00784416 0.0131593 0
0.00508204 0.0136779 0
0.00526884 0.0128276 0
0.0064631 0.0134186 0
0.00517544 0.0132527 0
0.0065565 0.0129934 0
0.0136123 0.00934055 0
0.0107076 0.00840754 0
0.0165071 0.00841753 0
0.01216 0.00887404 0
0.0136074 0.00841253 0
0.0150597 0.00887904 0
0.0136127 0.00934091 0
0.0165532 0.00846355 0
0.0166368 0.0103019 0
0.0150829 0.00890223 0
0.016595 0.00938271 0
0.0151247 0.00982139 0
0.0136127 0.00934018 0
0.0108013 0.0101832 0
0.0107096 0.00840549 0
0.012207 0.00976167 0
0.0107555 0.00929432 0
0.0121612 0.00887283 0
0.0136131 0.00934054 0
0.016636 0.0103026 0
0.0107555 0.0101373 0
0.0151245 0.00982157 0
0.0136957 0.0102199 0
0.0121843 0.00973891 0
0.00803239 0.0109174 0
0.0108112 0.0101896 0
0.0108064 0.0116406 0
0.00942177 0.0105535 0
0.0108088 0.0109151 0
0.00941941 0.011279 0
0.00803198 0.010917 0
0.00528488 0.0101445 0
0.0107726 0.010151 0
0.00665843 0.0105308 0
0.00802874 0.0101478 0
0.00940229 0.010534 0
0.00803273 0.0109171 0
0.0107974 0.0116496 0
0.00529198 0.0116257 0
0.00941507 0.0112834 0
0.0080447 0.0116376 0
0.00666235 0.0112714 0
0.00803232 0.0109167 0
0.00532301 0.0116567 0
0.00528787 0.0101416 0
0.00667766 0.0112867 0
0.00530544 0.0108991 0
0.00666009 0.0105291 0
0.00799135 0.00928136 0
0.0107479 0.00840549 0
0.0107738 0.0101832 0
0.00936962 0.00884342 0
0.0107609 0.00929432 0
0.00938258 0.00973226 0
0.0079915 0.00928121 0
0.0107726 0.0101844 0
0.00528488 0.0101099 0
0.00938205 0.00973279 0
0.00802874 0.0101471 0
0.00663819 0.00969555 0
0.0079912 0.00928121 0
0.0052726 0.00839606 0
0.0107241 0.00838173 0
0.0066319 0.00883864 0
0.00799837 0.0083889 0
0.00935767 0.00883147 0
0.00799135 0.00928106 0
0.00530853 0.0101335 0
0.0052743 0.00839436 0
0.00664994 0.0097073 0
0.00529142 0.00926395 0
0.00663283 0.00883771 0
0.0447769 0.00219165 0
0.0493977 0 0
0.0450144 0 0
0.0470873 0.00109582 0
0.0472061 0 0
0.0448957 0.00109582 0
0.0447754 0.00219009 0
0.0444243 0.00463153 0
0.0495779 0.000180152 0
0.0445998 0.00341081 0
0.0470011 0.00240584 0
0.0471766 0.00118512 0
0.0447785 0.00219005 0
0.0451027 -8.82857e-05 0
0.0402139 0.00415216 0
0.0449406 0.00105088 0
0.0426583 0.00203194 0
0.0424962 0.00317111 0
0.044777 0.0021885 0
0.0400344 0.00397267 0
0.044343 0.00471285 0
0.0424057 0.00308058 0
0.0421887 0.00434276 0
0.04456 0.00345068 0
0.040714 0.00194132 0
0.0402139 0.00398006 0
0.0451027 9.14595e-05 0
0.040464 0.00296069 0
0.0426583 0.00203576 0
0.0429084 0.00101639 0
0.0407147 0.00194068 0
0.0363948 0.00366087 0
0.0401841 0.00400982 0
0.0385547 0.00280078 0
0.0382895 0.00383534 0
0.0404494 0.00297525 0
0.0407148 0.00194208 0
0.0450113 0 0
0.0411271 0 0
0.042863 0.000971038 0
0.0430692 0 0
0.0409209 0.000971038 0
0.0407154 0.00194144 0
0.0411474 -2.0299e-05 0
0.0364985 0.00376458 0
0.0409314 0.000960568 0
0.038823 0.00187214 0
0.038607 0.00285301 0
0.035581 0.00558282 0
0.0343272 0.00753573 0
0.0401955 0.00417511 0
0.0349541 0.00655927 0
0.0372613 0.00585542 0
0.0378883 0.00487896 0
0.035581 0.0055828 0
0.0400302 0.00400982 0
0.0365353 0.00366087 0
0.0378056 0.00479631 0
0.0382828 0.00383534 0
0.0360582 0.00462183 0
0.0355813 0.00558251 0
0.0311876 0.00691298 0
0.0343993 0.00746366 0
0.0333845 0.00624775 0
0.0327935 0.00718832 0
0.0349903 0.00652309 0
0.0355813 0.00558249 0
0.036495 0.00370115 0
0.0313217 0.00704705 0
0.0360382 0.00464182 0
0.0339084 0.0053741 0
0.0334515 0.00631477 0
0.0272505 0.00815683 0
0.0312 0.00693567 0
0.0284362 0.00661421 0
0.0292252 0.00754625 0
0.0298181 0.00677494 0
0.0278434 0.00738552 0
0.0272507 0.00815706 0
0.0258036 0.00964237 0
0.0313023 0.00703795 0
0.0265271 0.00889971 0
0.0285529 0.00834016 0
0.0292765 0.00759751 0
0.0272504 0.00815688 0
0.028366 0.00668446 0
0.0234751 0.00934422 0
0.0278082 0.00742067 0
0.0259206 0.00801434 0
0.0253628 0.00875055 0
0.0272507 0.00815711 0
0.0233898 0.00925887 0
0.0258902 0.00955575 0
0.0253202 0.00870799 0
0.02464 0.00940731 0
0.0265704 0.00885643 0
0.0323068 0.0052315 0
0.0282833 0.00661421 0
0.0313702 0.00693567 0
0.030295 0.00592285 0
0.0298268 0.00677494 0
0.0318385 0.00608358 0
0.0323066 0.0052317 0
0.0313217 0.00698416 0
0.036495 0.00378054 0
0.0318141 0.00610793 0
0.0339084 0.00538235 0
0.0344008 0.00450612 0
0.0323068 0.00523156 0
0.0330545 0.00352404 0
0.0283761 0.00670705 0
0.0326807 0.0043778 0
0.0307153 0.00511554 0
0.0303415 0.00596931 0
0.0323066 0.00523177 0
0.036389 0.00367451 0
0.0330893 0.00348931 0
0.0343478 0.00445314 0
0.0347391 0.00358191 0
0.032698 0.00436054 0
0.0220352 0.010486 0
0.0184635 0.0113617 0
0.0203529 0.0114997 0
0.0202494 0.0109239 0
0.0194082 0.0114307 0
0.0211941 0.0109929 0
0.0220355 0.0104858 0
0.0202539 0.0115988 0
0.025785 0.00963081 0
0.0211447 0.0110423 0
0.0230194 0.0106148 0
0.0239102 0.0100583 0
0.0220349 0.0104857 0
0.0234636 0.00934891 0
0.0185284 0.0114266 0
0.0227492 0.0099173 0
0.020996 0.0103878 0
0.0202816 0.0109562 0
0.0220351 0.0104854 0
0.0257099 0.00955575 0
0.0235537 0.00925887 0
0.0238725 0.0100206 0
0.0246318 0.00940731 0
0.0227944 0.00987215 0
0.0168614 0.0122227 0
0.0201961 0.0114997 0
0.0186121 0.0113617 0
0.0185287 0.0118612 0
0.0194041 0.0114307 0
0.0177368 0.0117922 0
0.0168617 0.012223 0
0.0148792 0.0129481 0
0.0202443 0.011548 0
0.0158705 0.0125856 0
0.0175618 0.0122481 0
0.018553 0.0118855 0
0.0168611 0.012223 0
0.018521 0.0114528 0
0.0136791 0.0129749 0
0.0176911 0.0118379 0
0.0161001 0.0122139 0
0.0152701 0.012599 0
0.0168614 0.0122232 0
0.0136328 0.0129286 0
0.0149711 0.0128563 0
0.0152471 0.0125759 0
0.0143019 0.0128924 0
0.0159163 0.0125398 0
0.024605 0.00789763 0
0.0234751 0.00933512 0
0.028366 0.00670403 0
0.0240401 0.00861638 0
0.0259206 0.00801958 0
0.0264855 0.00730083 0
0.024605 0.0078976 0
0.0210029 0.00906449 0
0.0235412 0.00926904 0
0.022804 0.00848105 0
0.0222721 0.00916677 0
0.0240731 0.00858332 0
0.0246049 0.00789756 0
0.0282888 0.00662691 0
0.025536 0.00641536 0
0.0264469 0.00726223 0
0.0269124 0.00652114 0
0.0250705 0.00715646 0
0.024605 0.00789752 0
0.0254803 0.00647107 0
0.0210696 0.00913115 0
0.0250426 0.00718429 0
0.0232749 0.00780111 0
0.0228373 0.00851434 0
0.0199404 0.0102975 0
0.0185284 0.0114466 0
0.0234636 0.00933544 0
0.0192344 0.0108721 0
0.020996 0.010391 0
0.021702 0.00981647 0
0.0199402 0.0102973 0
0.0233972 0.00926904 0
0.0211361 0.00906449 0
0.0216687 0.00978318 0
0.0222667 0.00916677 0
0.0205382 0.00968091 0
0.0199403 0.0102976 0
0.0165813 0.0112588 0
0.01861 0.0113651 0
0.0182608 0.0107782 0
0.0175956 0.0113119 0
0.0192751 0.0108313 0
0.0199402 0.0102974 0
0.0210615 0.00913904 0
0.0166402 0.0113176 0
0.0205009 0.00971823 0
0.0188509 0.0102283 0
0.0182902 0.0108075 0
0.0370183 0.00182213 0
0.0410802 0 0
0.0374359 0 0
0.0390492 0.000911066 0
0.039258 0 0
0.0372271 0.000911066 0
0.037018 0.00182181 0
0.0364985 0.00367724 0
0.0411474 6.72324e-05 0
0.0367582 0.00274953 0
0.038823 0.00187224 0
0.0390827 0.000944521 0
0.0370185 0.00182189 0
0.0374263 9.5765e-06 0
0.0330558 0.00356452 0
0.0372224 0.000915732 0
0.0352411 0.00178705 0
0.0350372 0.0026932 0
0.0370182 0.00182157 0
0.0329806 0.00348931 0
0.0365013 0.00367451 0
0.0349994 0.00265544 0
0.0347409 0.00358191 0
0.0367597 0.00274804 0
0.0291679 0.00502252 0
0.0283761 0.00666713 0
0.0330545 0.0035722 0
0.028772 0.00584482 0
0.0307153 0.00511966 0
0.0311112 0.00429736 0
0.0291679 0.00502257 0
0.032978 0.00349562 0
0.0298017 0.00337323 0
0.0310729 0.00425909 0
0.0313898 0.00343443 0
0.0294848 0.0041979 0
0.029168 0.00502239 0
0.0254189 0.00641536 0
0.0284164 0.00662691 0
0.0272934 0.00571888 0
0.0269176 0.00652114 0
0.0287922 0.00582465 0
0.0291681 0.00502244 0
0.0297693 0.00340557 0
0.0254879 0.00648441 0
0.0294687 0.00421401 0
0.0276286 0.00494499 0
0.027328 0.00575342 0
0.0335146 0.00175216 0
0.0330558 0.00351343 0
0.0374263 6.04408e-05 0
0.0332852 0.0026328 0
0.0352411 0.00178694 0
0.0354705 0.0009063 0
0.0335146 0.00175208 0
0.0297089 0.00337323 0
0.0330736 0.00349562 0
0.0316118 0.00256266 0
0.0313912 0.00343443 0
0.0332941 0.00262385 0
0.0335147 0.00175227 0
0.0373659 0 0
0.0338614 0 0
0.0354403 0.000876134 0
0.0356136 0 0
0.033688 0.000876134 0
0.0335148 0.00175219 0
0.0338409 2.04877e-05 0
0.0297724 0.00343672 0
0.0336778 0.000886338 0
0.0318066 0.00172861 0
0.0316436 0.00259446 0
0.00263553 0.00926283 0
-4.78989e-06 0.0083919 0
0.00528382 0.00838394 0
0.00131537 0.00882736 0
0.00263951 0.00838792 0
0.00395968 0.00882338 0
0.00263557 0.00926287 0
0.00529424 0.00839436 0
0.0052964 0.0101335 0
0.00396491 0.00882862 0
0.00529532 0.00926395 0
0.00396599 0.00969821 0
0.00263557 0.00926279 0
3.70494e-06 0.0101204 0
-7.19175e-06 0.0083943 0
0.00131964 0.00969159 0
-1.7434e-06 0.00925734 0
0.00131419 0.00882854 0
0.00263561 0.00926283 0
0.00529869 0.0101313 0
-6.44225e-06 0.0101102 0
0.00396715 0.00969704 0
0.00264612 0.0101207 0
0.00131459 0.00968653 0
0.00264611 0.010906 0
7.82083e-06 0.0116621 0
-1.32815e-05 0.0101288 0
0.00132697 0.0112841 0
-2.73034e-06 0.0108955 0
0.00131641 0.0105174 0
0.00264602 0.0109061 0
-6.44225e-06 0.0101219 0
0.00529869 0.0101217 0
0.00131979 0.010514 0
0.00264612 0.0101218 0
0.00397235 0.0105139 0
0.00264625 0.0109061 0
0.00530642 0.0116546 0
-6.82716e-06 0.0116475 0
0.00397634 0.0112804 0
0.0026498 0.011651 0
0.00131971 0.0112768 0
0.00264616 0.0109062 0
0.00531852 0.0101416 0
0.00530431 0.0116567 0
0.00398234 0.0105239 0
0.00531141 0.0108991 0
0.00397523 0.0112815 0
-0.00263557 0.00926279 0
7.19175e-06 0.0083943 0
-3.70494e-06 0.0101204 0
-0.00131419 0.00882854 0
1.7434e-06 0.00925734 0
-0.00131964 0.00969159 0
-0.00263561 0.00926283 0
6.44225e-06 0.0101102 0
-0.00529869 0.0101313 0
-0.00131459 0.00968653 0
-0.00264612 0.0101207 0
-0.00396715 0.00969704 0
-0.00263553 0.00926283 0
-0.00528382 0.00838394 0
4.78989e-06 0.0083919 0
-0.00395968 0.00882338 0
-0.00263951 0.00838792 0
-0.00131537 0.00882736 0
-0.00263557 0.00926287 0
-0.0052964 0.0101335 0
-0.00529424 0.00839436 0
-0.00396599 0.00969821 0
-0.00529532 0.00926395 0
-0.00396491 0.00882862 0
-0.00264611 0.010906 0
1.32815e-05 0.0101288 0
-7.82083e-06 0.0116621 0
-0.00131641 0.0105174 0
2.73034e-06 0.0108955 0
-0.00132697 0.0112841 0
-0.00264602 0.0109061 0
-0.00529869 0.0101217 0
6.44225e-06 0.0101219 0
-0.00397235 0.0105139 0
-0.00264612 0.0101218 0
-0.00131979 0.010514 0
-0.00264625 0.0109061 0
6.82716e-06 0.0116475 0
-0.00530642 0.0116546 0
-0.00131971 0.0112768 0
-0.0026498 0.011651 0
-0.00397634 0.0112804 0
-0.00264616 0.0109062 0
-0.00530431 0.0116567 0
-0.00531852 0.0101416 0
-0.00397523 0.0112815 0
-0.00531141 0.0108991 0
-0.00398234 0.0105239 0
0.00263842 0.0122783 0
-6.82716e-06 0.0116603 0
0.00530642 0.0116376 0
0.0013158 0.0119693 0
0.0026498 0.0116489 0
0.00397242 0.0119579 0
0.00263854 0.0122784 0
0.00532271 0.0116539 0
0.0052571 0.0128373 0
0.00398062 0.0119661 0
0.00528991 0.0122456 0
0.00394782 0.0125578 0
0.00263845 0.0122782 0
6.94876e-07 0.0128878 0
-7.25427e-06 0.0116607 0
0.00131957 0.012583 0
-3.2797e-06 0.0122743 0
0.0013156 0.0119695 0
0.00263856 0.0122784 0
0.0052486 0.0128458 0
-6.37179e-06 0.0128807 0
0.00394358 0.0125621 0
0.00262111 0.0128633 0
0.0013161 0.0125795 0
0.0025872 0.0133216 0
-1.36214e-05 0.0137845 0
7.12585e-06 0.0128795 0
0.00128679 0.013553 0
-3.2478e-06 0.013332 0
0.00129716 0.0131005 0
0.00258724 0.0133216 0
-6.37179e-06 0.012893 0
0.0052486 0.0128252 0
0.00129043 0.0131073 0
0.00262111 0.0128591 0
0.00391792 0.0130734 0
0.00258727 0.0133217 0
0.00508899 0.013702 0
-5.26016e-06 0.0137928 0
0.00383813 0.0135118 0
0.00254187 0.0137474 0
0.00129101 0.0135572 0
0.00258731 0.0133216 0
0.00525092 0.0128276 0
0.00511311 0.0136779 0
0.00391912 0.0130746 0
0.00518201 0.0132527 0
0.00385021 0.0134998 0
-0.0025872 0.0133216 0
-7.12585e-06 0.0128795 0
1.36214e-05 0.0137845 0
-0.00129716 0.0131005 0
3.2478e-06 0.013332 0
-0.00128679 0.013553 0
-0.00258724 0.0133216 0
-0.0052486 0.0128252 0
6.37179e-06 0.012893 0
-0.00391792 0.0130734 0
-0.00262111 0.0128591 0
-0.00129043 0.0131073 0
-0.00258727 0.0133217 0
5.26016e-06 0.0137928 0
-0.00508899 0.013702 0
-0.00129101 0.0135572 0
-0.00254187 0.0137474 0
-0.00383813 0.0135118 0
-0.00258731 0.0133216 0
-0.00511311 0.0136779 0
-0.00525092 0.0128276 0
-0.00385021 0.0134998 0
-0.00518201 0.0132527 0
-0.00391912 0.0130746 0
-0.00263845 0.0122782 0
7.25427e-06 0.0116607 0
-6.94875e-07 0.0128878 0
-0.0013156 0.0119695 0
3.2797e-06 0.0122743 0
-0.00131957 0.012583 0
-0.00263856 0.0122784 0
6.37179e-06 0.0128807 0
-0.0052486 0.0128458 0
-0.0013161 0.0125795 0
-0.00262111 0.0128633 0
-0.00394358 0.0125621 0
-0.00263842 0.0122783 0
-0.00530642 0.0116376 0
6.82716e-06 0.0116603 0
-0.00397242 0.0119579 0
-0.0026498 0.0116489 0
-0.0013158 0.0119693 0
-0.00263854 0.0122784 0
-0.0052571 0.0128373 0
-0.00532271 0.0116539 0
-0.00394782 0.0125578 0
-0.00528991 0.0122456 0
-0.00398062 0.0119661 0
0.00248142 0.0140618 0
-5.26016e-06 0.0138032 0
0.00508899 0.0136823 0
0.00123808 0.0139325 0
0.00254187 0.0137427 0
0.00378521 0.013872 0
0.00248145 0.0140618 0
0.00507284 0.0136661 0
0.00486037 0.014245 0
0.00377715 0.013864 0
0.00496661 0.0139556 0
0.00367091 0.0141534 0
0.00248135 0.0140619 0
-3.01131e-05 0.014405 0
2.45349e-05 0.0137734 0
0.00122562 0.0142334 0
-2.78907e-06 0.0140892 0
0.00125294 0.0139176 0
0.00248138 0.0140619 0
0.00482054 0.0142849 0
-4.00983e-06 0.0144311 0
0.00365096 0.0141734 0
0.00240826 0.014358 0
0.00123868 0.0142465 0
0.00750946 0.0137895 0
0.00507894 0.0137144 0
0.0103193 0.013335 0
0.0062942 0.0137519 0
0.00769914 0.0135247 0
0.0089144 0.0135623 0
0.00750933 0.0137896 0
0.00479535 0.014245 0
0.00512721 0.0136661 0
0.00615234 0.0140173 0
0.00496128 0.0139556 0
0.00631827 0.0137279 0
0.00750943 0.0137895 0
0.0103108 0.0133265 0
0.0098068 0.0137485 0
0.00891011 0.013558 0
0.0100588 0.0135375 0
0.00865812 0.013769 0
0.0075093 0.0137896 0
0.00974877 0.0138065 0
0.00481332 0.014263 0
0.00862903 0.0137981 0
0.00728104 0.0140348 0
0.00616131 0.0140263 0
-0.00803273 0.0109171 0
-0.00529198 0.0116257 0
-0.0107974 0.0116496 0
-0.00666235 0.0112714 0
-0.0080447 0.0116376 0
-0.00941507 0.0112834 0
-0.00803232 0.0109167 0
-0.00528787 0.0101416 0
-0.00532301 0.0116567 0
-0.00666009 0.0105291 0
-0.00530544 0.0108991 0
-0.00667766 0.0112867 0
-0.00803239 0.0109174 0
-0.0108064 0.0116406 0
-0.0108112 0.0101896 0
-0.00941941 0.011279 0
-0.0108088 0.0109151 0
-0.00942177 0.0105535 0
-0.00803198 0.010917 0
-0.0107726 0.010151 0
-0.00528488 0.0101445 0
-0.00940229 0.010534 0
-0.00802874 0.0101478 0
-0.00665843 0.0105308 0
-0.00800917 0.0122206 0
-0.0107974 0.0115988 0
-0.00529198 0.0116699 0
-0.0094033 0.0119097 0
-0.0080447 0.0116344 0
-0.00665057 0.0119453 0
-0.00800932 0.0122205 0
-0.00530803 0.0116539 0
-0.00525782 0.0128373 0
-0.00665868 0.0119372 0
-0.00528293 0.0122456 0
-0.00663357 0.0125289 0
-0.00800944 0.0122209 0
-0.0106955 0.0126737 0
-0.010831 0.0116325 0
-0.00935246 0.0124473 0
-0.0107633 0.0121531 0
-0.00942024 0.0119267 0
-0.00800959 0.0122207 0
-0.00523568 0.0128152 0
-0.0106688 0.0127004 0
-0.00662263 0.0125179 0
-0.00795223 0.0127578 0
-0.00933918 0.0124606 0
-0.0079912 0.00928121 0
-0.0107241 0.00838173 0
-0.0052726 0.00839606 0
-0.00935767 0.00883147 0
-0.00799837 0.0083889 0
-0.0066319 0.00883864 0
-0.00799135 0.00928106 0
-0.0052743 0.00839436 0
-0.00530853 0.0101335 0
-0.00663283 0.00883771 0
-0.00529142 0.00926395 0
-0.00664994 0.0097073 0
-0.00799135 0.00928136 0
-0.0107738 0.0101832 0
-0.0107479 0.00840549 0
-0.00938258 0.00973226 0
-0.0107609 0.00929432 0
-0.00936962 0.00884342 0
-0.0079915 0.00928121 0
-0.00528488 0.0101099 0
-0.0107726 0.0101844 0
-0.00663819 0.00969555 0
-0.00802874 0.0101471 0
-0.00938205 0.00973279 0
-0.0137135 0.0109481 0
-0.010768 0.0101896 0
-0.010834 0.0116406 0
-0.0122407 0.0105688 0
-0.010801 0.0109151 0
-0.0122737 0.0112943 0
-0.0137128 0.0109487 0
-0.016636 0.0102363 0
-0.0107555 0.0102021 0
-0.0151744 0.0105925 0
-0.0136957 0.0102192 0
-0.0122341 0.0105754 0
-0.0137143 0.0109489 0
-0.0107804 0.011587 0
-0.0166922 0.011631 0
-0.0122473 0.0112679 0
-0.0137363 0.011609 0
-0.0152032 0.0112899 0
-0.0137136 0.0109495 0
-0.0167148 0.0116084 0
-0.0167026 0.0103029 0
-0.0152142 0.011279 0
-0.0167087 0.0109556 0
-0.0152081 0.0106262 0
-0.0136127 0.00934018 0
-0.0107096 0.00840549 0
-0.0108013 0.0101832 0
-0.0121612 0.00887283 0
-0.0107555 0.00929432 0
-0.012207 0.00976167 0
-0.0136131 0.00934054 0
-0.0107555 0.0101373 0
-0.016636 0.0103026 0
-0.0121843 0.00973891 0
-0.0136957 0.0102199 0
-0.0151245 0.00982157 0
-0.0136123 0.00934055 0
-0.0165071 0.00841753 0
-0.0107076 0.00840754 0
-0.0150597 0.00887904 0
-0.0136074 0.00841253 0
-0.01216 0.00887404 0
-0.0136127 0.00934091 0
-0.0166368 0.0103019 0
-0.0165532 0.00846355 0
-0.0151247 0.00982139 0
-0.016595 0.00938271 0
-0.0150829 0.00890223 0
-0.00784424 0.0131594 0
-0.00507894 0.0136748 0
-0.0103193 0.0133846 0
-0.00646159 0.0134171 0
-0.00769914 0.0135297 0
-0.00908179 0.013272 0
-0.00784416 0.0131593 0
-0.00526884 0.0128276 0
-0.00508204 0.0136779 0
-0.0065565 0.0129934 0
-0.00517544 0.0132527 0
-0.0064631 0.0134186 0
-0.00784428 0.0131594 0
-0.010364 0.0133399 0
-0.0106835 0.0126594 0
-0.00910415 0.0132496 0
-0.0105238 0.0129996 0
-0.00926388 0.0129094 0
-0.0078442 0.0131593 0
-0.0106688 0.0126447 0
-0.00523568 0.0128607 0
-0.00925649 0.012902 0
-0.00795223 0.0127527 0
-0.00653994 0.01301 0
-0.00248142 0.0140618 0
-0.00508899 0.0136823 0
5.26016e-06 0.0138032 0
-0.00378521 0.013872 0
-0.00254187 0.0137427 0
-0.00123808 0.0139325 0
-0.00248145 0.0140618 0
-0.00486037 0.014245 0
-0.00507284 0.0136661 0
-0.00367091 0.0141534 0
-0.00496661 0.0139556 0
-0.00377715 0.013864 0
-0.00248135 0.0140619 0
-2.45349e-05 0.0137734 0
3.01131e-05 0.014405 0
-0.00125294 0.0139176 0
2.78907e-06 0.0140892 0
-0.00122562 0.0142334 0
-0.00248138 0.0140619 0
4.00983e-06 0.0144311 0
-0.00482054 0.0142849 0
-0.00123868 0.0142465 0
-0.00240826 0.014358 0
-0.00365096 0.0141734 0
-0.00750946 0.0137895 0
-0.0103193 0.013335 0
-0.00507894 0.0137144 0
-0.0089144 0.0135623 0
-0.00769914 0.0135247 0
-0.0062942 0.0137519 0
-0.00750933 0.0137896 0
-0.00512721 0.0136661 0
-0.00479535 0.014245 0
-0.00631827 0.0137279 0
-0.00496128 0.0139556 0
-0.00615234 0.0140173 0
-0.00750943 0.0137895 0
-0.0098068 0.0137485 0
-0.0103108 0.0133265 0
-0.00865812 0.013769 0
-0.0100588 0.0135375 0
-0.00891011 0.013558 0
-0.0075093 0.0137896 0
-0.00481332 0.014263 0
-0.00974877 0.0138065 0
-0.00616131 0.0140263 0
-0.00728104 0.0140348 0
-0.00862903 0.0137981 0
-0.0136689 0.0120899 0
-0.0108181 0.0116325 0
-0.0106917 0.0126737 0
-0.0122435 0.0118612 0
-0.0107549 0.0121531 0
-0.0121803 0.0123818 0
-0.0136693 0.0120903 0
-0.0106557 0.0126377 0
-0.0164483 0.0124031 0
-0.0121625 0.012364 0
-0.013552 0.0125204 0
-0.0150588 0.0122467 0
-0.0136687 0.0120901 0
-0.0166922 0.0115352 0
-0.0107804 0.0116702 0
-0.0151805 0.0118126 0
-0.0137363 0.0116027 0
-0.0122246 0.0118802 0
-0.0136691 0.0120905 0
-0.0165012 0.0123501 0
-0.0167445 0.0115875 0
-0.0150852 0.0122203 0
-0.0166229 0.0119688 0
-0.0152068 0.011839 0
-0.013346 0.0128013 0
-0.0107155 0.0126594 0
-0.0103188 0.0133399 0
-0.0120308 0.0127303 0
-0.0105172 0.0129996 0
-0.0118324 0.0130706 0
-0.0133461 0.0128011 0
-0.0164483 0.0123075 0
-0.0106557 0.0127192 0
-0.0148972 0.0125543 0
-0.013552 0.0125133 0
-0.0120009 0.0127602 0
-0.013346 0.0128013 0
-0.0103112 0.0133323 0
-0.0158293 0.0127809 0
-0.0118286 0.0130668 0
-0.0130703 0.0130566 0
-0.0145876 0.0127911 0
-0.0133461 0.0128011 0
-0.015902 0.0127081 0
-0.0164685 0.0123277 0
-0.0146241 0.0127546 0
-0.0161853 0.0125179 0
-0.0149073 0.0125644 0
0.0118481 0.0134364 0
0.00895384 0.014001 0
0.00982064 0.0137386 0
0.010401 0.0137187 0
0.00938724 0.0138698 0
0.0108344 0.0135875 0
0.0118483 0.0134362 0
0.00974429 0.013815 0
0.0148782 0.0128891 0
0.0107963 0.0136256 0
0.0123113 0.013352 0
0.0133633 0.0131626 0
0.0118479 0.0134362 0
0.0136773 0.0130095 0
0.00899046 0.0140376 0
0.0127626 0.0132229 0
0.0113339 0.0135236 0
0.0104192 0.0137369 0
0.0118481 0.013436 0
0.0148454 0.0128563 0
0.0137583 0.0129286 0
0.0133468 0.0131461 0
0.0143019 0.0128924 0
0.0128032 0.0131823 0
0.00701782 0.0141996 0
0.00971974 0.0137386 0
0.00906 0.014001 0
0.00836878 0.0139691 0
0.00938987 0.0138698 0
0.00803891 0.0141003 0
0.00701789 0.0141997 0
0.00481332 0.0142939 0
0.00974877 0.0137676 0
0.0059156 0.0142468 0
0.00728104 0.0140308 0
0.00838333 0.0139837 0
0.00701767 0.0141998 0
0.00899309 0.0140679 0
0.00445041 0.0146597 0
0.00800538 0.0141338 0
0.00672175 0.0143638 0
0.00573404 0.0144297 0
0.00701774 0.0141999 0
0.00441448 0.0146238 0
0.00487289 0.0142344 0
0.00571611 0.0144118 0
0.00464368 0.0144291 0
0.00594532 0.0142171 0
0.0107834 0.0135711 0
0.00899046 0.0140724 0
0.0136773 0.0129714 0
0.00988693 0.0138218 0
0.0113339 0.0135219 0
0.0122304 0.0132713 0
0.0107833 0.013571 0
0.0136317 0.0129258 0
0.0123791 0.0129637 0
0.0122075 0.0132484 0
0.0130054 0.0129447 0
0.0115812 0.0132673 0
0.0107832 0.0135713 0
0.00804493 0.0141718 0
0.00906852 0.0139943 0
0.00941409 0.0138716 0
0.00855673 0.0140831 0
0.00992588 0.0137828 0
0.0107831 0.0135712 0
0.0122983 0.0130444 0
0.0080927 0.0142196 0
0.0115407 0.0133078 0
0.0101955 0.013632 0
0.00943791 0.0138954 0
0.0153045 0.012187 0
0.0136791 0.01301 0
0.018521 0.0114188 0
0.0144918 0.0125985 0
0.0161001 0.0122144 0
0.0169128 0.0118029 0
0.0153043 0.0121871 0
0.0122482 0.0129637 0
0.0137634 0.0129258 0
0.0137763 0.0125754 0
0.0130058 0.0129447 0
0.0145339 0.0125564 0
0.0153043 0.0121868 0
0.0184673 0.0113651 0
0.0167175 0.0112588 0
0.0168858 0.0117759 0
0.0175924 0.0113119 0
0.0160109 0.0117228 0
0.0153042 0.012187 0
0.016635 0.0113412 0
0.0122995 0.013015 0
0.0159696 0.0117641 0
0.0144673 0.0121781 0
0.0138018 0.012601 0
0.00232284 0.014568 0
-4.52489e-05 0.0148278 0
4.08277e-05 0.0143942 0
0.00113879 0.0146979 0
-2.21059e-06 0.014611 0
0.00118183 0.0144811 0
0.00232291 0.0145679 0
-4.00983e-06 0.0144391 0
0.00482054 0.0142684 0
0.00115945 0.0145035 0
0.00240826 0.0143537 0
0.00357172 0.0144181 0
0.00232285 0.014568 0
0.00445566 0.0146769 0
-3.0462e-06 0.01487 0
0.00338925 0.0146225 0
0.00222631 0.0147735 0
0.0011599 0.014719 0
0.00232292 0.0145679 0
0.00478654 0.0142344 0
0.00450884 0.0146238 0
0.00355473 0.0144012 0
0.00464769 0.0144291 0
0.00341588 0.0145958 0
-0.00232284 0.014568 0
-4.08277e-05 0.0143942 0
4.52489e-05 0.0148278 0
-0.00118183 0.0144811 0
2.21059e-06 0.014611 0
-0.00113879 0.0146979 0
-0.00232291 0.0145679 0
-0.00482054 0.0142684 0
4.00983e-06 0.0144391 0
-0.00357172 0.0144181 0
-0.00240826 0.0143537 0
-0.00115945 0.0145035 0
-0.00232285 0.014568 0
3.0462e-06 0.01487 0
-0.00445566 0.0146769 0
-0.0011599 0.014719 0
-0.00222631 0.0147735 0
-0.00338925 0.0146225 0
-0.00232292 0.0145679 0
-0.00450884 0.0146238 0
-0.00478654 0.0142344 0
-0.00341588 0.0145958 0
-0.00464769 0.0144291 0
-0.00355473 0.0144012 0
0.00639943 0.0144735 0
0.00445041 0.0146832 0
0.00899309 0.0140386 0
0.00542492 0.0145784 0
0.00672175 0.0143609 0
0.00769626 0.014256 0
0.00639931 0.0144736 0
0.00395978 0.0148904 0
0.00451823 0.0146154 0
0.00517955 0.014682 0
0.00423901 0.0147529 0
0.00545877 0.0145445 0
0.00639937 0.0144735 0
0.00894888 0.0139943 0
0.00816812 0.0141718 0
0.00767412 0.0142339 0
0.0085585 0.0140831 0
0.00728374 0.0143226 0
0.00639925 0.0144736 0
0.00809491 0.014245 0
0.00400902 0.0149396 0
0.00724708 0.0143593 0
0.00605197 0.0145923 0
0.00520414 0.0147066 0
0.00212026 0.0149178 0
-3.0462e-06 0.0148761 0
0.00445566 0.014664 0
0.00105861 0.014897 0
0.00222631 0.0147701 0
0.00328796 0.0147909 0
0.00212026 0.0149178 0
0.00440704 0.0146154 0
0.00407711 0.0148904 0
0.00326365 0.0147666 0
0.00424207 0.0147529 0
0.00309869 0.0149041 0
0.00212019 0.0149179 0
-5.76022e-05 0.0151286 0
5.41175e-05 0.0148189 0
0.0010313 0.0150232 0
-1.74236e-06 0.0149738 0
0.00108716 0.0148684 0
0.0021202 0.0149179 0
0.00401339 0.0149541 0
-2.54442e-06 0.0151836 0
0.00306679 0.014936 0
0.00200542 0.0150688 0
0.00105883 0.0150508 0
0.00188296 0.0151782 0
-6.70712e-05 0.0153656 0
6.4143e-05 0.015122 0
0.000907942 0.0152719 0
-1.46412e-06 0.0152438 0
0.000973549 0.0151501 0
0.00188301 0.0151781 0
-2.54442e-06 0.0151887 0
0.00401339 0.0149438 0
0.000940232 0.0151834 0
0.00200542 0.0150663 0
0.0029482 0.015061 0
0.00188296 0.0151782 0
0.00351133 0.0151731 0
-2.47516e-06 0.0154302 0
0.00269714 0.0151757 0
0.00175443 0.0153017 0
0.000940241 0.0153042 0
0.00188301 0.0151781 0
0.00395383 0.0148843 0
0.00358315 0.0151013 0
0.00291842 0.0150312 0
0.00376849 0.0149928 0
0.00273308 0.0151397 0
-0.00188296 0.0151782 0
-6.4143e-05 0.015122 0
6.70712e-05 0.0153656 0
-0.000973549 0.0151501 0
1.46412e-06 0.0152438 0
-0.000907942 0.0152719 0
-0.00188301 0.0151781 0
-0.00401339 0.0149438 0
2.54442e-06 0.0151887 0
-0.0029482 0.015061 0
-0.00200542 0.0150663 0
-0.000940232 0.0151834 0
-0.00188296 0.0151782 0
2.47516e-06 0.0154302 0
-0.00351133 0.0151731 0
-0.000940241 0.0153042 0
-0.00175443 0.0153017 0
-0.00269714 0.0151757 0
-0.00188301 0.0151781 0
-0.00358315 0.0151013 0
-0.00395383 0.0148843 0
-0.00273308 0.0151397 0
-0.00376849 0.0149928 0
-0.00291842 0.0150312 0
-0.00212019 0.0149179 0
-5.41175e-05 0.0148189 0
5.76022e-05 0.0151286 0
-0.00108716 0.0148684 0
1.74236e-06 0.0149738 0
-0.0010313 0.0150232 0
-0.0021202 0.0149179 0
2.54442e-06 0.0151836 0
-0.00401339 0.0149541 0
-0.00105883 0.0150508 0
-0.00200542 0.0150688 0
-0.00306679 0.014936 0
-0.00212026 0.0149178 0
-0.00445566 0.014664 0
3.0462e-06 0.0148761 0
-0.00328796 0.0147909 0
-0.00222631 0.0147701 0
-0.00105861 0.014897 0
-0.00212026 0.0149178 0
-0.00407711 0.0148904 0
-0.00440704 0.0146154 0
-0.00309869 0.0149041 0
-0.00424207 0.0147529 0
-0.00326365 0.0147666 0
0.0056835 0.0146754 0
0.00708861 0.0143882 0
0.00350692 0.0151597 0
0.00638605 0.0145318 0
0.00529776 0.014774 0
0.00459521 0.0149175 0
0.00568355 0.0146754 0
0.00344851 0.0151013 0
0.00408328 0.0148843 0
0.00456603 0.0148884 0
0.00376589 0.0149928 0
0.00488342 0.0147798 0
0.00568359 0.0146753 0
0.00804043 0.0141674 0
0.00716707 0.0143098 0
0.00686201 0.0144213 0
0.00760375 0.0142386 0
0.00642533 0.0144925 0
0.00568364 0.0146753 0
0.00400902 0.0149585 0
0.00809491 0.0142219 0
0.00484633 0.0148169 0
0.00605197 0.0145902 0
0.00688927 0.0144486 0
0.00161923 0.0153948 0
-2.47516e-06 0.015435 0
0.00351133 0.0151646 0
0.000808377 0.0154149 0
0.00175443 0.0152998 0
0.00256528 0.0152797 0
0.00161922 0.0153948 0
0.00344409 0.0150974 0
0.0030416 0.0152897 0
0.00253165 0.0152461 0
0.00324284 0.0151935 0
0.00233041 0.0153422 0
0.00161918 0.0153948 0
-7.38252e-05 0.0155733 0
7.11563e-05 0.0153614 0
0.000772678 0.0154841 0
-1.33443e-06 0.0154673 0
0.000845169 0.0153781 0
0.00161918 0.0153948 0
0.00296398 0.0153673 0
-2.68729e-06 0.0156444 0
0.00229158 0.0153811 0
0.00148064 0.0155059 0
0.000808245 0.0155196 0
0.00489335 0.0148474 0
0.00350692 0.0151768 0
0.00708861 0.014368 0
0.00420013 0.0150121 0
0.00529776 0.0147724 0
0.00599098 0.0146077 0
0.00489326 0.0148475 0
0.00289435 0.0152897 0
0.0035864 0.0150974 0
0.00389381 0.0150686 0
0.00324038 0.0151935 0
0.00423983 0.0149724 0
0.0048933 0.0148474 0
0.00702736 0.0143068 0
0.0060822 0.0144428 0
0.00596033 0.0145771 0
0.00655478 0.0143748 0
0.00548775 0.0146451 0
0.00489321 0.0148475 0
0.00599915 0.0145259 0
0.00295891 0.0153543 0
0.00544618 0.0146867 0
0.00447903 0.0149401 0
0.00392606 0.0151009 0
0.00957909 0.0136682 0
0.00703178 0.0143098 0
0.00817256 0.0141674 0
0.00830544 0.013989 0
0.00760217 0.0142386 0
0.00887583 0.0139178 0
0.00957919 0.0136681 0
0.0080927 0.0142473 0
0.0122983 0.0130146 0
0.00883594 0.0139577 0
0.0101955 0.0136309 0
0.0109388 0.0133414 0
0.00957901 0.0136681 0
0.0107882 0.0130799 0
0.00708582 0.0143638 0
0.0101836 0.013374 0
0.00893703 0.0137218 0
0.00833242 0.014016 0
0.00957911 0.013668 0
0.012246 0.0129623 0
0.0108702 0.0129979 0
0.0109126 0.0133152 0
0.0115581 0.0129801 0
0.0102247 0.013333 0
-0.00639943 0.0144735 0
-0.00899309 0.0140386 0
-0.00445041 0.0146832 0
-0.00769626 0.014256 0
-0.00672175 0.0143609 0
-0.00542492 0.0145784 0
-0.00639931 0.0144736 0
-0.00451823 0.0146154 0
-0.00395978 0.0148904 0
-0.00545877 0.0145445 0
-0.00423901 0.0147529 0
-0.00517955 0.014682 0
-0.00639937 0.0144735 0
-0.00816812 0.0141718 0
-0.00894888 0.0139943 0
-0.00728374 0.0143226 0
-0.0085585 0.0140831 0
-0.00767412 0.0142339 0
-0.00639925 0.0144736 0
-0.00400902 0.0149396 0
-0.00809491 0.014245 0
-0.00520414 0.0147066 0
-0.00605197 0.0145923 0
-0.00724708 0.0143593 0
-0.00701767 0.0141998 0
-0.00445041 0.0146597 0
-0.00899309 0.0140679 0
-0.00573404 0.0144297 0
-0.00672175 0.0143638 0
-0.00800538 0.0141338 0
-0.00701774 0.0141999 0
-0.00487289 0.0142344 0
-0.00441448 0.0146238 0
-0.00594532 0.0142171 0
-0.00464368 0.0144291 0
-0.00571611 0.0144118 0
-0.00701782 0.0141996 0
-0.00906 0.014001 0
-0.00971974 0.0137386 0
-0.00803891 0.0141003 0
-0.00938987 0.0138698 0
-0.00836878 0.0139691 0
-0.00701789 0.0141997 0
-0.00974877 0.0137676 0
-0.00481332 0.0142939 0
-0.00838333 0.0139837 0
-0.00728104 0.0140308 0
-0.0059156 0.0142468 0
-0.0056835 0.0146754 0
-0.00350692 0.0151597 0
-0.00708861 0.0143882 0
-0.00459521 0.0149175 0
-0.00529776 0.014774 0
-0.00638605 0.0145318 0
-0.00568355 0.0146754 0
-0.00408328 0.0148843 0
-0.00344851 0.0151013 0
-0.00488342 0.0147798 0
-0.00376589 0.0149928 0
-0.00456603 0.0148884 0
-0.00568359 0.0146753 0
-0.00716707 0.0143098 0
-0.00804043 0.0141674 0
-0.00642533 0.0144925 0
-0.00760375 0.0142386 0
-0.00686201 0.0144213 0
-0.00568364 0.0146753 0
-0.00809491 0.0142219 0
-0.00400902 0.0149585 0
-0.00688927 0.0144486 0
-0.00605197 0.0145902 0
-0.00484633 0.0148169 0
-0.00161923 0.0153948 0
-0.00351133 0.0151646 0
2.47516e-06 0.015435 0
-0.00256528 0.0152797 0
-0.00175443 0.0152998 0
-0.000808377 0.0154149 0
-0.00161922 0.0153948 0
-0.0030416 0.0152897 0
-0.00344409 0.0150974 0
-0.00233041 0.0153422 0
-0.00324284 0.0151935 0
-0.00253165 0.0152461 0
-0.00161918 0.0153948 0
-7.11563e-05 0.0153614 0
7.38252e-05 0.0155733 0
-0.000845169 0.0153781 0
1.33443e-06 0.0154673 0
-0.000772678 0.0154841 0
-0.00161918 0.0153948 0
2.68729e-06 0.0156444 0
-0.00296398 0.0153673 0
-0.000808245 0.0155196 0
-0.00148064 0.0155059 0
-0.00229158 0.0153811 0
-0.00489335 0.0148474 0
-0.00708861 0.014368 0
-0.00350692 0.0151768 0
-0.00599098 0.0146077 0
-0.00529776 0.0147724 0
-0.00420013 0.0150121 0
-0.00489326 0.0148475 0
-0.0035864 0.0150974 0
-0.00289435 0.0152897 0
-0.00423983 0.0149724 0
-0.00324038 0.0151935 0
-0.00389381 0.0150686 0
-0.0048933 0.0148474 0
-0.0060822 0.0144428 0
-0.00702736 0.0143068 0
-0.00548775 0.0146451 0
-0.00655478 0.0143748 0
-0.00596033 0.0145771 0
-0.00489321 0.0148475 0
-0.00295891 0.0153543 0
-0.00599915 0.0145259 0
-0.00392606 0.0151009 0
-0.00447903 0.0149401 0
-0.00544618 0.0146867 0
-0.0107832 0.0135713 0
-0.00906852 0.0139943 0
-0.00804493 0.0141718 0
-0.00992588 0.0137828 0
-0.00855673 0.0140831 0
-0.00941409 0.0138716 0
-0.0107831 0.0135712 0
-0.0080927 0.0142196 0
-0.0122983 0.0130444 0
-0.00943791 0.0138954 0
-0.0101955 0.013632 0
-0.0115407 0.0133078 0
-0.0107834 0.0135711 0
-0.0136773 0.0129714 0
-0.00899046 0.0140724 0
-0.0122304 0.0132713 0
-0.0113339 0.0135219 0
-0.00988693 0.0138218 0
-0.0107833 0.013571 0
-0.0123791 0.0129637 0
-0.0136317 0.0129258 0
-0.0115812 0.0132673 0
-0.0130054 0.0129447 0
-0.0122075 0.0132484 0
-0.00957909 0.0136682 0
-0.00817256 0.0141674 0
-0.00703178 0.0143098 0
-0.00887583 0.0139178 0
-0.00760217 0.0142386 0
-0.00830544 0.013989 0
-0.00957919 0.0136681 0
-0.0122983 0.0130146 0
-0.0080927 0.0142473 0
-0.0109388 0.0133414 0
-0.0101955 0.0136309 0
-0.00883594 0.0139577 0
-0.00957901 0.0136681 0
-0.00708582 0.0143638 0
-0.0107882 0.0130799 0
-0.00833242 0.014016 0
-0.00893703 0.0137218 0
-0.0101836 0.013374 0
-0.00957911 0.013668 0
-0.0108702 0.0129979 0
-0.012246 0.0129623 0
-0.0102247 0.013333 0
-0.0115581 0.0129801 0
-0.0109126 0.0133152 0
-0.0118481 0.0134364 0
-0.00982064 0.0137386 0
-0.00895384 0.014001 0
-0.0108344 0.0135875 0
-0.00938724 0.0138698 0
-0.010401 0.0137187 0
-0.0118483 0.0134362 0
-0.0148782 0.0128891 0
-0.00974429 0.013815 0
-0.0133633 0.0131626 0
-0.0123113 0.013352 0
-0.0107963 0.0136256 0
-0.0118479 0.0134362 0
-0.00899046 0.0140376 0
-0.0136773 0.0130095 0
-0.0104192 0.0137369 0
-0.0113339 0.0135236 0
-0.0127626 0.0132229 0
-0.0118481 0.013436 0
-0.0137583 0.0129286 0
-0.0148454 0.0128563 0
-0.0128032 0.0131823 0
-0.0143019 0.0128924 0
-0.0133468 0.0131461 0
-0.0127232 0.0132089 0
-0.010383 0.0133265 0
-0.00972596 0.0137485 0
-0.0115531 0.0132677 0
-0.0100545 0.0135375 0
-0.0112246 0.0134787 0
-0.012723 0.0132088 0
-0.00974429 0.0137668 0
-0.0148782 0.0129432 0
-0.0112337 0.0134878 0
-0.0123113 0.013355 0
-0.0138006 0.013076 0
-0.0127235 0.0132087 0
-0.0158293 0.0127047 0
-0.0103112 0.0133983 0
-0.0142764 0.0129567 0
-0.0130703 0.0130515 0
-0.0115173 0.0133035 0
-0.0127233 0.0132085 0
-0.0149583 0.0128631 0
-0.0158185 0.0126939 0
-0.0138408 0.0130358 0
-0.0153884 0.0127785 0
-0.0142709 0.0129512 0
0.0136032 0.0121583 0
0.0146337 0.0112649 0
0.0107881 0.0130495 0
0.0141184 0.0117116 0
0.0127109 0.0121572 0
0.0121957 0.0126039 0
0.0136033 0.0121584 0
0.0107365 0.0129979 0
0.0123799 0.0129623 0
0.0121699 0.0125782 0
0.0115582 0.0129801 0
0.0129916 0.0125604 0
0.0136033 0.0121583 0
0.016582 0.0112617 0
0.0147128 0.0111858 0
0.0150926 0.01171 0
0.0156474 0.0112237 0
0.014158 0.011672 0
0.0136033 0.0121584 0
0.0122995 0.0130426 0
0.016635 0.0113147 0
0.0129514 0.0126005 0
0.0144673 0.0121787 0
0.0151192 0.0117365 0
0.011791 0.0121484 0
0.0107881 0.0130773 0
0.0146337 0.0112375 0
0.0112896 0.0126129 0
0.0127109 0.0121574 0
0.0132123 0.011693 0
0.011791 0.0121485 0
0.00912136 0.0130477 0
0.0108688 0.0129966 0
0.0104562 0.0125981 0
0.00999506 0.0130222 0
0.0113299 0.0125726 0
0.011791 0.0121484 0
0.0145834 0.0111872 0
0.0126141 0.0111403 0
0.0131872 0.0116678 0
0.0135988 0.0111637 0
0.0122025 0.0116443 0
0.0117909 0.0121484 0
0.0125332 0.0112212 0
0.00917169 0.0130981 0
0.0121621 0.0116848 0
0.0108525 0.0121596 0
0.0104813 0.0126232 0
0.00826843 0.0137591 0
0.00708582 0.0143895 0
0.0107882 0.0130524 0
0.00767713 0.0140743 0
0.00893703 0.0137209 0
0.00952833 0.0134057 0
0.00826837 0.013759 0
0.0107325 0.0129966 0
0.00925892 0.0130477 0
0.00950044 0.0133778 0
0.00999572 0.0130222 0
0.00876364 0.0134034 0
0.00826834 0.0137591 0
0.00593728 0.0144428 0
0.00716861 0.0143068 0
0.00710281 0.014101 0
0.00655295 0.0143748 0
0.00771848 0.0140329 0
0.00826828 0.0137591 0
0.00917372 0.0131329 0
0.00599509 0.0145007 0
0.008721 0.013446 0
0.00758441 0.0138168 0
0.00713168 0.0141299 0
0.0177473 0.0101605 0
0.0145864 0.0111858 0
0.0167128 0.0112617 0
0.0161669 0.0106731 0
0.0156496 0.0112237 0
0.0172301 0.0107111 0
0.0177473 0.0101605 0
0.0166402 0.0113342 0
0.0210615 0.0091272 0
0.0171938 0.0107474 0
0.0188509 0.0102307 0
0.0194044 0.00964386 0
0.0177473 0.0101605 0
0.0186041 0.00898301 0
0.014637 0.0112364 0
0.0181757 0.00957174 0
0.0166206 0.0101097 0
0.0161922 0.0106984 0
0.0177473 0.0101605 0
0.0210058 0.00907145 0
0.0186717 0.00891541 0
0.0193765 0.00961596 0
0.0198388 0.00899343 0
0.0182095 0.00953794 0
0.00404684 0.0150093 0
0.0059333 0.0144411 0
0.00493523 0.0145795 0
0.00499007 0.0147252 0
0.00543427 0.0145103 0
0.00449103 0.0147944 0
0.00404692 0.0150094 0
0.00295891 0.0153711 0
0.00599915 0.0145069 0
0.00350291 0.0151903 0
0.00447903 0.014939 0
0.00502303 0.0147582 0
0.00404673 0.0150094 0
0.00484924 0.0146655 0
0.00237977 0.0155299 0
0.00444799 0.0148374 0
0.00361451 0.0150977 0
0.00321325 0.0152697 0
0.00404681 0.0150095 0
0.00231133 0.0154615 0
0.00304191 0.0152881 0
0.00317907 0.0152355 0
0.00267662 0.0153748 0
0.00354436 0.0151488 0
0.00687275 0.0138609 0
0.00478255 0.0145795 0
0.0060814 0.0144411 0
0.00582765 0.0142202 0
0.00543198 0.0145103 0
0.00647707 0.014151 0
0.00687288 0.0138607 0
0.00599509 0.0145274 0
0.00917372 0.0131043 0
0.00643398 0.0141941 0
0.00758441 0.0138159 0
0.0080233 0.0134825 0
0.00687264 0.0138608 0
0.00747417 0.0132128 0
0.00484349 0.0146404 0
0.00717341 0.0135368 0
0.00615883 0.0139266 0
0.00585807 0.0142506 0
0.00687278 0.0138606 0
0.00911542 0.013046 0
0.00756359 0.0131234 0
0.0079941 0.0134533 0
0.0083395 0.0130847 0
0.00721818 0.013492 0
0.0013359 0.0155878 0
-7.75067e-05 0.0157564 0
7.50341e-05 0.0155718 0
0.000629194 0.0156721 0
-1.23631e-06 0.0156641 0
0.000705465 0.0155798 0
0.00133595 0.0155878 0
-2.68729e-06 0.0156495 0
0.00296398 0.0153601 0
0.000666629 0.0156186 0
0.00148064 0.0155048 0
0.00214996 0.0154739 0
0.00133587 0.0155878 0
0.00238568 0.0155419 0
-2.95563e-06 0.0158309 0
0.00186078 0.0155648 0
0.00119136 0.0156864 0
0.000666459 0.0157093 0
0.00133592 0.0155877 0
0.002892 0.0152881 0
0.00246612 0.0154615 0
0.00211396 0.0154379 0
0.00267906 0.0153748 0
0.00190102 0.0155246 0
-0.0013359 0.0155878 0
-7.50341e-05 0.0155718 0
7.75067e-05 0.0157564 0
-0.000705465 0.0155798 0
1.23631e-06 0.0156641 0
-0.000629194 0.0156721 0
-0.00133595 0.0155878 0
-0.00296398 0.0153601 0
2.68729e-06 0.0156495 0
-0.00214996 0.0154739 0
-0.00148064 0.0155048 0
-0.000666629 0.0156186 0
-0.00133587 0.0155878 0
2.95563e-06 0.0158309 0
-0.00238568 0.0155419 0
-0.000666459 0.0157093 0
-0.00119136 0.0156864 0
-0.00186078 0.0155648 0
-0.00133592 0.0155877 0
-0.00246612 0.0154615 0
-0.002892 0.0152881 0
-0.00190102 0.0155246 0
-0.00267906 0.0153748 0
-0.00211396 0.0154379 0
0.00316566 0.0151532 0
0.00237977 0.0155462 0
0.00484924 0.0146485 0
0.00277271 0.0153497 0
0.00361451 0.0150974 0
0.00400745 0.0149008 0
0.00316549 0.0151533 0
0.00171987 0.0155864 0
0.0024628 0.0154632 0
0.00244268 0.0153699 0
0.00209134 0.0155248 0
0.00281415 0.0153083 0
0.0031655 0.015153 0
0.00478044 0.0145797 0
0.00375621 0.0147021 0
0.00397297 0.0148664 0
0.00426833 0.0146409 0
0.00346086 0.0149276 0
0.00316534 0.0151532 0
0.00367141 0.0147869 0
0.00178981 0.0156564 0
0.00341837 0.0149701 0
0.00273061 0.0152216 0
0.00247757 0.0154048 0
0.00104143 0.0157437 0
-2.95563e-06 0.0158363 0
0.00238568 0.0155365 0
0.000519237 0.01579 0
0.00119136 0.0156864 0
0.00171356 0.0156401 0
0.00104138 0.0157437 0
0.0023124 0.0154632 0
0.00187468 0.0155864 0
0.00167689 0.0156034 0
0.00209354 0.0155248 0
0.00145803 0.0156651 0
0.00104137 0.0157438 0
-7.68194e-05 0.0158806 0
7.47846e-05 0.0157586 0
0.000482275 0.0158122 0
-1.01738e-06 0.0158196 0
0.000558077 0.0157512 0
0.00104132 0.0157437 0
0.0017962 0.0156649 0
-3.01693e-06 0.0159544 0
0.00141876 0.0157043 0
0.000896591 0.0158096 0
0.000519149 0.015849 0
0.00988087 0.012166 0
0.0124852 0.0111395 0
0.0104229 0.0111302 0
0.011183 0.0116528 0
0.011454 0.0111349 0
0.0101519 0.0116481 0
0.00988094 0.0121661 0
0.00917169 0.0131306 0
0.0125332 0.0111876 0
0.00952631 0.0126483 0
0.0108525 0.0121591 0
0.0112071 0.0116768 0
0.00988078 0.0121661 0
0.0103359 0.0112172 0
0.00746937 0.0131735 0
0.0101083 0.0116917 0
0.00890262 0.0121954 0
0.00867508 0.0126698 0
0.00988085 0.0121662 0
0.00741921 0.0131234 0
0.00925628 0.013046 0
0.00865003 0.0126448 0
0.00833774 0.0130847 0
0.00956857 0.0126061 0
0.0154744 0.0100563 0
0.0124925 0.0111403 0
0.0147073 0.0111872 0
0.0139834 0.0105983 0
0.0135999 0.0111637 0
0.0150908 0.0106218 0
0.0154744 0.0100563 0
0.0160865 0.00885487 0
0.0125346 0.0111824 0
0.0157804 0.00945559 0
0.0143106 0.0100186 0
0.0140045 0.0106194 0
0.0154743 0.0100563 0
0.014637 0.0112575 0
0.0186041 0.00896496 0
0.0150557 0.0106569 0
0.0166206 0.0101112 0
0.0170392 0.00951065 0
0.0154743 0.0100563 0
0.018559 0.00891988 0
0.0161538 0.00878759 0
0.0170167 0.00948811 0
0.0173564 0.00885373 0
0.0158141 0.00942196 0
0.0131163 0.00998002 0
0.0102989 0.0111302 0
0.0126085 0.0111395 0
0.0117076 0.0105551 0
0.0114537 0.0111349 0
0.0128624 0.0105598 0
0.0131163 0.00998004 0
0.0125346 0.0112135 0
0.0160865 0.00882485 0
0.0128254 0.0105968 0
0.0143106 0.0100192 0
0.0146014 0.00940244 0
0.0131163 0.00998003 0
0.0134871 0.00875405 0
0.0103341 0.0111654 0
0.0133017 0.00936704 0
0.0119106 0.00995974 0
0.0117252 0.0105727 0
0.0131163 0.00998005 0
0.0160512 0.00878945 0
0.0135608 0.00868032 0
0.0145837 0.00938475 0
0.014806 0.00873489 0
0.0133386 0.00933018 0
0.00541649 0.0139745 0
0.00484349 0.0146681 0
0.00747417 0.0131834 0
0.00512999 0.0143213 0
0.00615883 0.0139257 0
0.00644533 0.0135789 0
0.00541628 0.0139743 0
0.00741223 0.0131214 0
0.0058119 0.0132268 0
0.00641425 0.0135479 0
0.00661207 0.0131741 0
0.00561409 0.0136005 0
0.00541625 0.0139747 0
0.00359947 0.0147021 0
0.00493187 0.0145797 0
0.00450786 0.0143384 0
0.00426567 0.0146409 0
0.00517406 0.0142772 0
0.00541604 0.0139745 0
0.00572003 0.0133186 0
0.00366402 0.0147667 0
0.00556804 0.0136466 0
0.00469203 0.0140426 0
0.00454003 0.0143706 0
0.00788453 0.0122228 0
0.00746937 0.0132121 0
0.0103359 0.0111759 0
0.00767695 0.0127174 0
0.00890262 0.012194 0
0.0091102 0.0116993 0
0.00788429 0.012223 0
0.00565783 0.0132268 0
0.00756005 0.0131214 0
0.00677106 0.0127249 0
0.00660894 0.0131741 0
0.00772217 0.0126722 0
0.00788434 0.0122226 0
0.0102865 0.0111266 0
0.00814582 0.0111779 0
0.00908542 0.0116746 0
0.00921616 0.0111522 0
0.00801508 0.0117002 0
0.00788411 0.0122228 0
0.00804989 0.0112738 0
0.00571161 0.0132806 0
0.007967 0.0117483 0
0.00688075 0.0122772 0
0.00679786 0.0127517 0
0.0219523 0.00771076 0
0.0226276 0.00630008 0
0.0186109 0.00896618 0
0.0222899 0.00700542 0
0.0206192 0.00763313 0
0.0202816 0.00833847 0
0.0219523 0.00771076 0
0.0185601 0.00891541 0
0.0211254 0.00907145 0
0.0202562 0.00831309 0
0.0198428 0.00899343 0
0.0215389 0.00839111 0
0.0219522 0.00771083 0
0.025422 0.00642356 0
0.0226758 0.00625191 0
0.0236871 0.00706719 0
0.0240489 0.00633774 0
0.022314 0.00698137 0
0.0219522 0.00771084 0
0.0210696 0.00912733 0
0.0254803 0.0064819 0
0.0215109 0.00841908 0
0.0232749 0.00780461 0
0.0237163 0.00709637 0
0.0192838 0.00755138 0
0.0186109 0.00897123 0
0.0226276 0.00630041 0
0.0189473 0.0082613 0
0.0206192 0.00763582 0
0.0209557 0.0069259 0
0.0192839 0.00755128 0
0.0160573 0.00878759 0
0.0186622 0.00891988 0
0.0176706 0.00816943 0
0.0173597 0.00885373 0
0.0189731 0.00823558 0
0.0192839 0.00755142 0
0.0225856 0.00625838 0
0.0198287 0.00608754 0
0.0209347 0.0069049 0
0.0212071 0.00617296 0
0.0195563 0.00681948 0
0.019284 0.00755131 0
0.0197841 0.00613213 0
0.0160928 0.00882314 0
0.019534 0.00684172 0
0.0179385 0.00747763 0
0.0176884 0.00818723 0
0.0261181 0.00486825 0
0.0225839 0.00625191 0
0.0255228 0.00642356 0
0.024351 0.00556008 0
0.0240534 0.00633774 0
0.0258205 0.00564591 0
0.026118 0.00486834 0
0.0254879 0.00645848 0
0.0297693 0.00343729 0
0.025803 0.00566341 0
0.0276286 0.00494788 0
0.0279437 0.00415282 0
0.0261181 0.00486827 0
0.0265905 0.00329461 0
0.0226362 0.00630422 0
0.0263543 0.00408144 0
0.0246133 0.00479942 0
0.0243772 0.00558625 0
0.0261181 0.00486836 0
0.02971 0.00337799 0
0.0266182 0.0032669 0
0.027914 0.00412317 0
0.0281641 0.00332244 0
0.0263681 0.00406763 0
-0.0182091 0.0122385 0
-0.0217088 0.0116766 0
-0.0158265 0.0127937 0
-0.019959 0.0119575 0
-0.0187676 0.0122351 0
-0.0170178 0.0125161 0
-0.0182087 0.0122389 0
-0.0159263 0.0126939 0
-0.0148471 0.0128631 0
-0.0170675 0.0124664 0
-0.0153867 0.0127785 0
-0.0165279 0.012551 0
-0.0182087 0.0122381 0
-0.0203477 0.0114988 0
-0.0216786 0.0116464 0
-0.0192782 0.0118684 0
-0.0210132 0.0115726 0
-0.0199437 0.0119422 0
-0.0182083 0.0122385 0
-0.0148792 0.0128952 0
-0.0202443 0.0116022 0
-0.0165438 0.0125668 0
-0.0175618 0.0122487 0
-0.0192263 0.0119203 0
-0.0192395 0.0121616 0
-0.0158265 0.0127109 0
-0.0217088 0.0117671 0
-0.017533 0.0124362 0
-0.0187676 0.012239 0
-0.0204742 0.0119644 0
-0.0192398 0.0121619 0
-0.0165357 0.0123277 0
-0.0158237 0.0127081 0
-0.0178877 0.0122448 0
-0.0161797 0.0125179 0
-0.0175318 0.012435 0
-0.0192399 0.0121612 0
-0.0218204 0.0116555 0
-0.0227727 0.0117146 0
-0.0205302 0.0119084 0
-0.0222965 0.0116851 0
-0.0210063 0.0119379 0
-0.0192403 0.0121615 0
-0.022764 0.0117059 0
-0.016437 0.0124263 0
-0.0210021 0.0119337 0
-0.0196005 0.0120661 0
-0.0178386 0.0122939 0
-0.0168614 0.0122227 0
-0.0186121 0.0113617 0
-0.0201961 0.0114997 0
-0.0177368 0.0117922 0
-0.0194041 0.0114307 0
-0.0185287 0.0118612 0
-0.0168617 0.012223 0
-0.0202443 0.011548 0
-0.0148792 0.0129481 0
-0.018553 0.0118855 0
-0.0175618 0.0122481 0
-0.0158705 0.0125856 0
-0.0168611 0.012223 0
-0.0136791 0.0129749 0
-0.018521 0.0114528 0
-0.0152701 0.012599 0
-0.0161001 0.0122139 0
-0.0176911 0.0118379 0
-0.0168614 0.0122232 0
-0.0149711 0.0128563 0
-0.0136328 0.0129286 0
-0.0159163 0.0125398 0
-0.0143019 0.0128924 0
-0.0152471 0.0125759 0
-0.0239715 0.0107458 0
-0.0218439 0.0116464 0
-0.0201902 0.0114988 0
-0.0229077 0.0111961 0
-0.0210171 0.0115726 0
-0.0220808 0.0111223 0
-0.0239708 0.0107451 0
-0.0202539 0.0115624 0
-0.025785 0.00965965 0
-0.0221124 0.0111538 0
-0.0230194 0.0106111 0
-0.0248779 0.0102024 0
-0.023972 0.0107452 0
-0.0279409 0.0100568 0
-0.0217183 0.0117721 0
-0.0259565 0.010401 0
-0.0248296 0.0109144 0
-0.0228451 0.0112586 0
-0.0239714 0.0107446 0
-0.0259023 0.00954236 0
-0.0278666 0.00998247 0
-0.0249368 0.0101435 0
-0.0268845 0.00976241 0
-0.025919 0.0103635 0
-0.0220352 0.010486 0
-0.0203529 0.0114997 0
-0.0184635 0.0113617 0
-0.0211941 0.0109929 0
-0.0194082 0.0114307 0
-0.0202494 0.0109239 0
-0.0220355 0.0104858 0
-0.025785 0.00963081 0
-0.0202539 0.0115988 0
-0.0239102 0.0100583 0
-0.0230194 0.0106148 0
-0.0211447 0.0110423 0
-0.0220349 0.0104857 0
-0.0185284 0.0114266 0
-0.0234636 0.00934891 0
-0.0202816 0.0109562 0
-0.020996 0.0103878 0
-0.0227492 0.0099173 0
-0.0220351 0.0104854 0
-0.0235537 0.00925887 0
-0.0257099 0.00955575 0
-0.0227944 0.00987215 0
-0.0246318 0.00940731 0
-0.0238725 0.0100206 0
-0.0153045 0.012187 0
-0.018521 0.0114188 0
-0.0136791 0.01301 0
-0.0169128 0.0118029 0
-0.0161001 0.0122144 0
-0.0144918 0.0125985 0
-0.0153043 0.0121871 0
-0.0137634 0.0129258 0
-0.0122482 0.0129637 0
-0.0145339 0.0125564 0
-0.0130058 0.0129447 0
-0.0137763 0.0125754 0
-0.0153043 0.0121868 0
-0.0167175 0.0112588 0
-0.0184673 0.0113651 0
-0.0160109 0.0117228 0
-0.0175924 0.0113119 0
-0.0168858 0.0117759 0
-0.0153042 0.012187 0
-0.0122995 0.013015 0
-0.016635 0.0113412 0
-0.0138018 0.012601 0
-0.0144673 0.0121781 0
-0.0159696 0.0117641 0
-0.0198326 0.0118361 0
-0.0228616 0.0117458 0
-0.0233161 0.0114719 0
-0.0213471 0.011791 0
-0.0230889 0.0116089 0
-0.0215743 0.011654 0
-0.0198326 0.0118361 0
-0.016437 0.0123077 0
-0.022764 0.0118434 0
-0.0181348 0.0120719 0
-0.0196005 0.0120756 0
-0.0212983 0.0118398 0
-0.0198323 0.0118359 0
-0.0232506 0.0114064 0
-0.0166703 0.0116626 0
-0.0215415 0.0116211 0
-0.0199604 0.0115345 0
-0.0182513 0.0117492 0
-0.0198324 0.0118358 0
-0.0167454 0.0115875 0
-0.0164795 0.0123501 0
-0.0182889 0.0117117 0
-0.0166125 0.0119688 0
-0.0181559 0.012093 0
-0.0256161 0.0110645 0
-0.0229167 0.0117146 0
-0.0216756 0.0116555 0
-0.0242664 0.0113895 0
-0.0222962 0.0116851 0
-0.0236459 0.01136 0
-0.0256171 0.0110635 0
-0.0297301 0.0106081 0
-0.0227636 0.0118677 0
-0.0276736 0.0108358 0
-0.0262469 0.0112379 0
-0.0241903 0.0114656 0
-0.0256151 0.0110635 0
-0.0217183 0.0116982 0
-0.0279409 0.0101272 0
-0.0236667 0.0113809 0
-0.0248296 0.0109127 0
-0.026778 0.0105954 0
-0.0256161 0.0110625 0
-0.0280976 0.00997062 0
-0.029687 0.010565 0
-0.0268568 0.0105166 0
-0.0288923 0.0102678 0
-0.0276516 0.0108138 0
-0.0267278 0.0113147 0
-0.0233714 0.0114719 0
-0.0227831 0.0117458 0
-0.0250496 0.0113933 0
-0.0230772 0.0116089 0
-0.0247554 0.0115303 0
-0.0267271 0.0113141 0
-0.0227636 0.0117263 0
-0.0297301 0.0107659 0
-0.0247454 0.0115202 0
-0.0262469 0.0112461 0
-0.0282286 0.01104 0
-0.0267287 0.0113137 0
-0.0308033 0.0110499 0
-0.0232238 0.0116195 0
-0.028766 0.0111818 0
-0.0270135 0.0113347 0
-0.0249763 0.0114666 0
-0.0267281 0.0113131 0
-0.0299111 0.0105849 0
-0.0308529 0.0110995 0
-0.0283196 0.010949 0
-0.030382 0.0108422 0
-0.0287905 0.0112063 0
-0.0199372 0.011015 0
-0.0166703 0.0115242 0
-0.0232506 0.0115707 0
-0.0183037 0.0112696 0
-0.0199604 0.0115475 0
-0.0215939 0.0112929 0
-0.0199358 0.0110137 0
-0.0166384 0.0103029 0
-0.0167545 0.0116084 0
-0.0182871 0.0106583 0
-0.0166964 0.0109556 0
-0.0183452 0.011311 0
-0.0199361 0.0110161 0
-0.0233006 0.0115207 0
-0.0232799 0.0105321 0
-0.0216184 0.0112684 0
-0.0232903 0.0110264 0
-0.021608 0.0107741 0
-0.0199348 0.0110147 0
-0.0231689 0.0104211 0
-0.0166104 0.0103309 0
-0.0215518 0.0107179 0
-0.0198896 0.010376 0
-0.0182726 0.0106728 0
-0.0136032 0.0121583 0
-0.0107881 0.0130495 0
-0.0146337 0.0112649 0
-0.0121957 0.0126039 0
-0.0127109 0.0121572 0
-0.0141184 0.0117116 0
-0.0136033 0.0121584 0
-0.0123799 0.0129623 0
-0.0107365 0.0129979 0
-0.0129916 0.0125604 0
-0.0115582 0.0129801 0
-0.0121699 0.0125782 0
-0.0136033 0.0121583 0
-0.0147128 0.0111858 0
-0.016582 0.0112617 0
-0.014158 0.011672 0
-0.0156474 0.0112237 0
-0.0150926 0.01171 0
-0.0136033 0.0121584 0
-0.016635 0.0113147 0
-0.0122995 0.0130426 0
-0.0151192 0.0117365 0
-0.0144673 0.0121787 0
-0.0129514 0.0126005 0
-0.011791 0.0121484 0
-0.0146337 0.0112375 0
-0.0107881 0.0130773 0
-0.0132123 0.011693 0
-0.0127109 0.0121574 0
-0.0112896 0.0126129 0
-0.011791 0.0121485 0
-0.0108688 0.0129966 0
-0.00912136 0.0130477 0
-0.0113299 0.0125726 0
-0.00999506 0.0130222 0
-0.0104562 0.0125981 0
-0.011791 0.0121484 0
-0.0126141 0.0111403 0
-0.0145834 0.0111872 0
-0.0122025 0.0116443 0
-0.0135988 0.0111637 0
-0.0131872 0.0116678 0
-0.0117909 0.0121484 0
-0.00917169 0.0130981 0
-0.0125332 0.0112212 0
-0.0104813 0.0126232 0
-0.0108525 0.0121596 0
-0.0121621 0.0116848 0
-0.00826843 0.0137591 0
-0.0107882 0.0130524 0
-0.00708582 0.0143895 0
-0.00952833 0.0134057 0
-0.00893703 0.0137209 0
-0.00767713 0.0140743 0
-0.00826837 0.013759 0
-0.00925892 0.0130477 0
-0.0107325 0.0129966 0
-0.00876364 0.0134034 0
-0.00999572 0.0130222 0
-0.00950044 0.0133778 0
-0.00826834 0.0137591 0
-0.00716861 0.0143068 0
-0.00593728 0.0144428 0
-0.00771848 0.0140329 0
-0.00655295 0.0143748 0
-0.00710281 0.014101 0
-0.00826828 0.0137591 0
-0.00599509 0.0145007 0
-0.00917372 0.0131329 0
-0.00713168 0.0141299 0
-0.00758441 0.0138168 0
-0.008721 0.013446 0
-0.0177473 0.0101605 0
-0.0167128 0.0112617 0
-0.0145864 0.0111858 0
-0.0172301 0.0107111 0
-0.0156496 0.0112237 0
-0.0161669 0.0106731 0
-0.0177473 0.0101605 0
-0.0210615 0.0091272 0
-0.0166402 0.0113342 0
-0.0194044 0.00964386 0
-0.0188509 0.0102307 0
-0.0171938 0.0107474 0
-0.0177473 0.0101605 0
-0.014637 0.0112364 0
-0.0186041 0.00898301 0
-0.0161922 0.0106984 0
-0.0166206 0.0101097 0
-0.0181757 0.00957174 0
-0.0177473 0.0101605 0
-0.0186717 0.00891541 0
-0.0210058 0.00907145 0
-0.0182095 0.00953794 0
-0.0198388 0.00899343 0
-0.0193765 0.00961596 0
-0.0199403 0.0102976 0
-0.01861 0.0113651 0
-0.0165813 0.0112588 0
-0.0192751 0.0108313 0
-0.0175956 0.0113119 0
-0.0182608 0.0107782 0
-0.0199402 0.0102974 0
-0.0166402 0.0113176 0
-0.0210615 0.00913904 0
-0.0182902 0.0108075 0
-0.0188509 0.0102283 0
-0.0205009 0.00971823 0
-0.0199404 0.0102975 0
-0.0234636 0.00933544 0
-0.0185284 0.0114466 0
-0.021702 0.00981647 0
-0.020996 0.010391 0
-0.0192344 0.0108721 0
-0.0199402 0.0102973 0
-0.0211361 0.00906449 0
-0.0233972 0.00926904 0
-0.0205382 0.00968091 0
-0.0222667 0.00916677 0
-0.0216687 0.00978318 0
-0.00404684 0.0150093 0
-0.00493523 0.0145795 0
-0.0059333 0.0144411 0
-0.00449103 0.0147944 0
-0.00543427 0.0145103 0
-0.00499007 0.0147252 0
-0.00404692 0.0150094 0
-0.00599915 0.0145069 0
-0.00295891 0.0153711 0
-0.00502303 0.0147582 0
-0.00447903 0.014939 0
-0.00350291 0.0151903 0
-0.00404673 0.0150094 0
-0.00237977 0.0155299 0
-0.00484924 0.0146655 0
-0.00321325 0.0152697 0
-0.00361451 0.0150977 0
-0.00444799 0.0148374 0
-0.00404681 0.0150095 0
-0.00304191 0.0152881 0
-0.00231133 0.0154615 0
-0.00354436 0.0151488 0
-0.00267662 0.0153748 0
-0.00317907 0.0152355 0
-0.00687275 0.0138609 0
-0.0060814 0.0144411 0
-0.00478255 0.0145795 0
-0.00647707 0.014151 0
-0.00543198 0.0145103 0
-0.00582765 0.0142202 0
-0.00687288 0.0138607 0
-0.00917372 0.0131043 0
-0.00599509 0.0145274 0
-0.0080233 0.0134825 0
-0.00758441 0.0138159 0
-0.00643398 0.0141941 0
-0.00687264 0.0138608 0
-0.00484349 0.0146404 0
-0.00747417 0.0132128 0
-0.00585807 0.0142506 0
-0.00615883 0.0139266 0
-0.00717341 0.0135368 0
-0.00687278 0.0138606 0
-0.00756359 0.0131234 0
-0.00911542 0.013046 0
-0.00721818 0.013492 0
-0.0083395 0.0130847 0
-0.0079941 0.0134533 0
-0.00316566 0.0151532 0
-0.00484924 0.0146485 0
-0.00237977 0.0155462 0
-0.00400745 0.0149008 0
-0.00361451 0.0150974 0
-0.00277271 0.0153497 0
-0.00316549 0.0151533 0
-0.0024628 0.0154632 0
-0.00171987 0.0155864 0
-0.00281415 0.0153083 0
-0.00209134 0.0155248 0
-0.00244268 0.0153699 0
-0.0031655 0.015153 0
-0.00375621 0.0147021 0
-0.00478044 0.0145797 0
-0.00346086 0.0149276 0
-0.00426833 0.0146409 0
-0.00397297 0.0148664 0
-0.00316534 0.0151532 0
-0.00178981 0.0156564 0
-0.00367141 0.0147869 0
-0.00247757 0.0154048 0
-0.00273061 0.0152216 0
-0.00341837 0.0149701 0
-0.00104143 0.0157437 0
-0.00238568 0.0155365 0
2.95563e-06 0.0158363 0
-0.00171356 0.0156401 0
-0.00119136 0.0156864 0
-0.000519237 0.01579 0
-0.00104138 0.0157437 0
-0.00187468 0.0155864 0
-0.0023124 0.0154632 0
-0.00145803 0.0156651 0
-0.00209354 0.0155248 0
-0.00167689 0.0156034 0
-0.00104137 0.0157438 0
-7.47846e-05 0.0157586 0
7.68194e-05 0.0158806 0
-0.000558077 0.0157512 0
1.01738e-06 0.0158196 0
-0.000482275 0.0158122 0
-0.00104132 0.0157437 0
3.01693e-06 0.0159544 0
-0.0017962 0.0156649 0
-0.000519149 0.015849 0
-0.000896591 0.0158096 0
-0.00141876 0.0157043 0
-0.00988087 0.012166 0
-0.0104229 0.0111302 0
-0.0124852 0.0111395 0
-0.0101519 0.0116481 0
-0.011454 0.0111349 0
-0.011183 0.0116528 0
-0.00988094 0.0121661 0
-0.0125332 0.0111876 0
-0.00917169 0.0131306 0
-0.0112071 0.0116768 0
-0.0108525 0.0121591 0
-0.00952631 0.0126483 0
-0.00988078 0.0121661 0
-0.00746937 0.0131735 0
-0.0103359 0.0112172 0
-0.00867508 0.0126698 0
-0.00890262 0.0121954 0
-0.0101083 0.0116917 0
-0.00988085 0.0121662 0
-0.00925628 0.013046 0
-0.00741921 0.0131234 0
-0.00956857 0.0126061 0
-0.00833774 0.0130847 0
-0.00865003 0.0126448 0
-0.0154744 0.0100563 0
-0.0147073 0.0111872 0
-0.0124925 0.0111403 0
-0.0150908 0.0106218 0
-0.0135999 0.0111637 0
-0.0139834 0.0105983 0
-0.0154744 0.0100563 0
-0.0125346 0.0111824 0
-0.0160865 0.00885487 0
-0.0140045 0.0106194 0
-0.0143106 0.0100186 0
-0.0157804 0.00945559 0
-0.0154743 0.0100563 0
-0.0186041 0.00896496 0
-0.014637 0.0112575 0
-0.0170392 0.00951065 0
-0.0166206 0.0101112 0
-0.0150557 0.0106569 0
-0.0154743 0.0100563 0
-0.0161538 0.00878759 0
-0.018559 0.00891988 0
-0.0158141 0.00942196 0
-0.0173564 0.00885373 0
-0.0170167 0.00948811 0
-0.0131163 0.00998002 0
-0.0126085 0.0111395 0
-0.0102989 0.0111302 0
-0.0128624 0.0105598 0
-0.0114537 0.0111349 0
-0.0117076 0.0105551 0
-0.0131163 0.00998004 0
-0.0160865 0.00882485 0
-0.0125346 0.0112135 0
-0.0146014 0.00940244 0
-0.0143106 0.0100192 0
-0.0128254 0.0105968 0
-0.0131163 0.00998003 0
-0.0103341 0.0111654 0
-0.0134871 0.00875405 0
-0.0117252 0.0105727 0
-0.0119106 0.00995974 0
-0.0133017 0.00936704 0
-0.0131163 0.00998005 0
-0.0135608 0.00868032 0
-0.0160512 0.00878945 0
-0.0133386 0.00933018 0
-0.014806 0.00873489 0
-0.0145837 0.00938475 0
-0.00541649 0.0139745 0
-0.00747417 0.0131834 0
-0.00484349 0.0146681 0
-0.00644533 0.0135789 0
-0.00615883 0.0139257 0
-0.00512999 0.0143213 0
-0.00541628 0.0139743 0
-0.0058119 0.0132268 0
-0.00741223 0.0131214 0
-0.00561409 0.0136005 0
-0.00661207 0.0131741 0
-0.00641425 0.0135479 0
-0.00541625 0.0139747 0
-0.00493187 0.0145797 0
-0.00359947 0.0147021 0
-0.00517406 0.0142772 0
-0.00426567 0.0146409 0
-0.00450786 0.0143384 0
-0.00541604 0.0139745 0
-0.00366402 0.0147667 0
-0.00572003 0.0133186 0
-0.00454003 0.0143706 0
-0.00469203 0.0140426 0
-0.00556804 0.0136466 0
-0.00788453 0.0122228 0
-0.0103359 0.0111759 0
-0.00746937 0.0132121 0
-0.0091102 0.0116993 0
-0.00890262 0.012194 0
-0.00767695 0.0127174 0
-0.00788429 0.012223 0
-0.00756005 0.0131214 0
-0.00565783 0.0132268 0
-0.00772217 0.0126722 0
-0.00660894 0.0131741 0
-0.00677106 0.0127249 0
-0.00788434 0.0122226 0
-0.00814582 0.0111779 0
-0.0102865 0.0111266 0
-0.00801508 0.0117002 0
-0.00921616 0.0111522 0
-0.00908542 0.0116746 0
-0.00788411 0.0122228 0
-0.00571161 0.0132806 0
-0.00804989 0.0112738 0
-0.00679786 0.0127517 0
-0.00688075 0.0122772 0
-0.007967 0.0117483 0
-0.0272504 0.00815688 0
-0.0234751 0.00934422 0
-0.028366 0.00668446 0
-0.0253628 0.00875055 0
-0.0259206 0.00801434 0
-0.0278082 0.00742067 0
-0.0272507 0.00815711 0
-0.0258902 0.00955575 0
-0.0233898 0.00925887 0
-0.0265704 0.00885643 0
-0.02464 0.00940731 0
-0.0253202 0.00870799 0
-0.0272505 0.00815683 0
-0.0284362 0.00661421 0
-0.0312 0.00693567 0
-0.0278434 0.00738552 0
-0.0298181 0.00677494 0
-0.0292252 0.00754625 0
-0.0272507 0.00815706 0
-0.0313023 0.00703795 0
-0.0258036 0.00964237 0
-0.0292765 0.00759751 0
-0.0285529 0.00834016 0
-0.0265271 0.00889971 0
-0.024605 0.00789763 0
-0.028366 0.00670403 0
-0.0234751 0.00933512 0
-0.0264855 0.00730083 0
-0.0259206 0.00801958 0
-0.0240401 0.00861638 0
-0.024605 0.0078976 0
-0.0235412 0.00926904 0
-0.0210029 0.00906449 0
-0.0240731 0.00858332 0
-0.0222721 0.00916677 0
-0.022804 0.00848105 0
-0.0246049 0.00789756 0
-0.025536 0.00641536 0
-0.0282888 0.00662691 0
-0.0250705 0.00715646 0
-0.0269124 0.00652114 0
-0.0264469 0.00726223 0
-0.024605 0.00789752 0
-0.0210696 0.00913115 0
-0.0254803 0.00647107 0
-0.0228373 0.00851434 0
-0.0232749 0.00780111 0
-0.0250426 0.00718429 0
-0.0298717 0.00856162 0
-0.0342841 0.00759931 0
-0.0279699 0.0101099 0
-0.0320779 0.00808046 0
-0.031127 0.00885459 0
-0.0289208 0.00933574 0
-0.0298714 0.00856194 0
-0.0280973 0.00998247 0
-0.0256963 0.00954236 0
-0.0289844 0.0092722 0
-0.0268968 0.00976241 0
-0.0277839 0.00905215 0
-0.0298711 0.00856102 0
-0.0314031 0.00691298 0
-0.0341485 0.00746366 0
-0.0306371 0.007737 0
-0.0327758 0.00718832 0
-0.0320098 0.00801234 0
-0.0298708 0.00856134 0
-0.0258036 0.00964958 0
-0.0313023 0.0070138 0
-0.0278372 0.00910546 0
-0.0285529 0.00833169 0
-0.0305865 0.00778757 0
-0.0323797 0.00920468 0
-0.0279699 0.0100945 0
-0.0342841 0.00758909 0
-0.0301748 0.00964961 0
-0.031127 0.00884182 0
-0.0333319 0.00839689 0
-0.0323811 0.00920606 0
-0.0299695 0.010565 0
-0.027846 0.00997062 0
-0.0311753 0.00988553 0
-0.0289077 0.0102678 0
-0.0301135 0.00958834 0
-0.0323807 0.00920368 0
-0.0344505 0.00742275 0
-0.0370456 0.00838944 0
-0.0334156 0.00831321 0
-0.0357481 0.00790609 0
-0.0347132 0.00879656 0
-0.0323821 0.00920506 0
-0.0372089 0.00855272 0
-0.0297685 0.0107659 0
-0.0347955 0.00887889 0
-0.0334887 0.00965932 0
-0.0310753 0.0099855 0
-0.0323068 0.0052315 0
-0.0313702 0.00693567 0
-0.0282833 0.00661421 0
-0.0318385 0.00608358 0
-0.0298268 0.00677494 0
-0.030295 0.00592285 0
-0.0323066 0.0052317 0
-0.036495 0.00378054 0
-0.0313217 0.00698416 0
-0.0344008 0.00450612 0
-0.0339084 0.00538235 0
-0.0318141 0.00610793 0
-0.0323068 0.00523156 0
-0.0283761 0.00670705 0
-0.0330545 0.00352404 0
-0.0303415 0.00596931 0
-0.0307153 0.00511554 0
-0.0326807 0.0043778 0
-0.0323066 0.00523177 0
-0.0330893 0.00348931 0
-0.036389 0.00367451 0
-0.032698 0.00436054 0
-0.0347391 0.00358191 0
-0.0343478 0.00445314 0
-0.0355813 0.00558251 0
-0.0343993 0.00746366 0
-0.0311876 0.00691298 0
-0.0349903 0.00652309 0
-0.0327935 0.00718832 0
-0.0333845 0.00624775 0
-0.0355813 0.00558249 0
-0.0313217 0.00704705 0
-0.036495 0.00370115 0
-0.0334515 0.00631477 0
-0.0339084 0.0053741 0
-0.0360382 0.00464182 0
-0.035581 0.00558282 0
-0.0401955 0.00417511 0
-0.0343272 0.00753573 0
-0.0378883 0.00487896 0
-0.0372613 0.00585542 0
-0.0349541 0.00655927 0
-0.035581 0.0055828 0
-0.0365353 0.00366087 0
-0.0400302 0.00400982 0
-0.0360582 0.00462183 0
-0.0382828 0.00383534 0
-0.0378056 0.00479631 0
-0.0219523 0.00771076 0
-0.0186109 0.00896618 0
-0.0226276 0.00630008 0
-0.0202816 0.00833847 0
-0.0206192 0.00763313 0
-0.0222899 0.00700542 0
-0.0219523 0.00771076 0
-0.0211254 0.00907145 0
-0.0185601 0.00891541 0
-0.0215389 0.00839111 0
-0.0198428 0.00899343 0
-0.0202562 0.00831309 0
-0.0219522 0.00771083 0
-0.0226758 0.00625191 0
-0.025422 0.00642356 0
-0.022314 0.00698137 0
-0.0240489 0.00633774 0
-0.0236871 0.00706719 0
-0.0219522 0.00771084 0
-0.0254803 0.0064819 0
-0.0210696 0.00912733 0
-0.0237163 0.00709637 0
-0.0232749 0.00780461 0
-0.0215109 0.00841908 0
-0.0192838 0.00755138 0
-0.0226276 0.00630041 0
-0.0186109 0.00897123 0
-0.0209557 0.0069259 0
-0.0206192 0.00763582 0
-0.0189473 0.0082613 0
-0.0192839 0.00755128 0
-0.0186622 0.00891988 0
-0.0160573 0.00878759 0
-0.0189731 0.00823558 0
-0.0173597 0.00885373 0
-0.0176706 0.00816943 0
-0.0192839 0.00755142 0
-0.0198287 0.00608754 0
-0.0225856 0.00625838 0
-0.0195563 0.00681948 0
-0.0212071 0.00617296 0
-0.0209347 0.0069049 0
-0.019284 0.00755131 0
-0.0160928 0.00882314 0
-0.0197841 0.00613213 0
-0.0176884 0.00818723 0
-0.0179385 0.00747763 0
-0.019534 0.00684172 0
-0.029168 0.00502239 0
-0.0284164 0.00662691 0
-0.0254189 0.00641536 0
-0.0287922 0.00582465 0
-0.0269176 0.00652114 0
-0.0272934 0.00571888 0
-0.0291681 0.00502244 0
-0.0254879 0.00648441 0
-0.0297693 0.00340557 0
-0.027328 0.00575342 0
-0.0276286 0.00494499 0
-0.0294687 0.00421401 0
-0.0291679 0.00502252 0
-0.0330545 0.0035722 0
-0.0283761 0.00666713 0
-0.0311112 0.00429736 0
-0.0307153 0.00511966 0
-0.028772 0.00584482 0
-0.0291679 0.00502257 0
-0.0298017 0.00337323 0
-0.032978 0.00349562 0
-0.0294848 0.0041979 0
-0.0313898 0.00343443 0
-0.0310729 0.00425909 0
-0.0261181 0.00486825 0
-0.0255228 0.00642356 0
-0.0225839 0.00625191 0
-0.0258205 0.00564591 0
-0.0240534 0.00633774 0
-0.024351 0.00556008 0
-0.026118 0.00486834 0
-0.0297693 0.00343729 0
-0.0254879 0.00645848 0
-0.0279437 0.00415282 0
-0.0276286 0.00494788 0
-0.025803 0.00566341 0
-0.0261181 0.00486827 0
-0.0226362 0.00630422 0
-0.0265905 0.00329461 0
-0.0243772 0.00558625 0
-0.0246133 0.00479942 0
-0.0263543 0.00408144 0
-0.0261181 0.00486836 0
-0.0266182 0.0032669 0
-0.02971 0.00337799 0
-0.0263681 0.00406763 0
-0.0281641 0.00332244 0
-0.027914 0.00412317 0
-0.0197234 0.0094931 0
-0.0228689 0.00856055 0
-0.0164788 0.00846134 0
-0.0212962 0.00902683 0
-0.0196738 0.00851095 0
-0.0181011 0.00897722 0
-0.0197244 0.00949217 0
-0.0164766 0.00846355 0
-0.0166955 0.0103019 0
-0.0181005 0.00897786 0
-0.016586 0.00938271 0
-0.0182099 0.00989702 0
-0.0197244 0.00949402 0
-0.0231642 0.0105502 0
-0.0229552 0.00864684 0
-0.0214443 0.0100221 0
-0.0230597 0.00959852 0
-0.0213398 0.00907043 0
-0.0197253 0.00949309 0
-0.0166104 0.0102168 0
-0.0231689 0.0105455 0
-0.0181678 0.00985494 0
-0.0198896 0.0103811 0
-0.0214471 0.0100193 0
-0.0266535 0.00983667 0
-0.0228043 0.00864684 0
-0.0232806 0.0105502 0
-0.0247289 0.00924175 0
-0.0230424 0.00959852 0
-0.024967 0.0101934 0
-0.0266563 0.00983938 0
-0.0231214 0.010391 0
-0.0308217 0.0110216 0
-0.0248888 0.0101152 0
-0.0269715 0.0107063 0
-0.028739 0.0104305 0
-0.026651 0.00983924 0
-0.0301842 0.00892135 0
-0.0228237 0.00862739 0
-0.0284176 0.00938029 0
-0.026504 0.00877437 0
-0.0247373 0.00923331 0
-0.0266537 0.00984195 0
-0.0308101 0.0110331 0
-0.0303619 0.00909902 0
-0.0287319 0.0104375 0
-0.030586 0.0100661 0
-0.0285078 0.00947049 0
-0.0270525 0.011101 0
-0.0231943 0.0105321 0
-0.0233434 0.0115207 0
-0.0251234 0.0108166 0
-0.0232689 0.0110264 0
-0.025198 0.0113109 0
-0.0270511 0.0111024 0
-0.0308217 0.0107642 0
-0.0231214 0.0106051 0
-0.0289364 0.0109333 0
-0.0269715 0.0106846 0
-0.0250862 0.0108537 0
-0.0270544 0.0111029 0
-0.0232238 0.0114011 0
-0.0308033 0.0113193 0
-0.0251391 0.011252 0
-0.0270135 0.0113602 0
-0.0289288 0.0112111 0
-0.027053 0.0111043 0
-0.0309177 0.011205 0
-0.0309894 0.0109319 0
-0.0289853 0.0111546 0
-0.0309535 0.0110684 0
-0.0290212 0.0110181 0
-0.0345242 0.0101318 0
-0.0396109 0.010021 0
-0.0308032 0.0113868 0
-0.0370675 0.0100764 0
-0.0352071 0.0107039 0
-0.0326637 0.0107593 0
-0.0345209 0.0101351 0
-0.0310905 0.0110995 0
-0.0296764 0.0105849 0
-0.0328057 0.0106173 0
-0.0303834 0.0108422 0
-0.0320986 0.01036 0
-0.0345209 0.0101286 0
-0.0375075 0.00832069 0
-0.039517 0.00992705 0
-0.0360142 0.00922465 0
-0.0385122 0.00912387 0
-0.037019 0.0100278 0
-0.0345176 0.0101319 0
-0.0297685 0.0106771 0
-0.0372089 0.00861927 0
-0.0321431 0.0104045 0
-0.0334887 0.00964816 0
-0.0358633 0.00937558 0
-0.0355779 0.0110594 0
-0.0308032 0.0111064 0
-0.0396109 0.0103648 0
-0.0331905 0.0110829 0
-0.0352071 0.0107356 0
-0.0375944 0.0107121 0
-0.0355794 0.0110609 0
-0.0309168 0.0109319 0
-0.0309018 0.011205 0
-0.0332481 0.0109964 0
-0.0309093 0.0110684 0
-0.0332406 0.0111329 0
-0.0355807 0.0110565 0
-0.0399613 0.0100144 0
-0.0407592 0.0113007 0
-0.037771 0.0105354 0
-0.0403603 0.0106576 0
-0.03817 0.0111786 0
-0.0355823 0.0110581 0
-0.0405385 0.01108 0
-0.0306974 0.0111514 0
-0.0380604 0.011069 0
-0.0356179 0.0111157 0
-0.0331398 0.0111047 0
-0.0427543 0.00751155 0
-0.0401949 0.00992705 0
-0.0369702 0.00832069 0
-0.0414746 0.0087193 0
-0.0385825 0.00912387 0
-0.0398623 0.00791612 0
-0.0427513 0.0075086 0
-0.0373 0.00865052 0
-0.0443493 0.00479719 0
-0.0400257 0.00807956 0
-0.0408247 0.00672386 0
-0.0435503 0.0061529 0
-0.0427553 0.00751051 0
-0.0491522 0.0068639 0
-0.0398082 0.0103137 0
-0.0459538 0.0071872 0
-0.0444802 0.0085888 0
-0.0412818 0.0089121 0
-0.0427524 0.00750756 0
-0.0445553 0.00459124 0
-0.0486337 0.00634541 0
-0.0436538 0.0060494 0
-0.0465945 0.00546832 0
-0.0456931 0.00692648 0
-0.0390566 0.00624063 0
-0.0374501 0.00838944 0
-0.0341192 0.00742275 0
-0.0382534 0.00731503 0
-0.0357847 0.00790609 0
-0.0365879 0.00683169 0
-0.0390564 0.00624084 0
-0.0443493 0.00500293 0
-0.0373 0.00853952 0
-0.0417028 0.00562188 0
-0.0408247 0.00677122 0
-0.0381782 0.00739018 0
-0.039056 0.00623999 0
-0.0343272 0.00763075 0
-0.0401955 0.00404153 0
-0.0366916 0.00693537 0
-0.0372613 0.00583614 0
-0.0396257 0.00514076 0
-0.0390557 0.0062402 0
-0.0402644 0.00397267 0
-0.0440592 0.00471285 0
-0.0396601 0.00510644 0
-0.0421618 0.00434276 0
-0.0415575 0.00547653 0
-0.0350408 0.0106104 0
-0.0391281 0.00989528 0
-0.0300824 0.00902423 0
-0.0370845 0.0102528 0
-0.0346053 0.00945976 0
-0.0325616 0.00981732 0
-0.0350523 0.0105989 0
-0.0300076 0.00909902 0
-0.0310732 0.0110331 0
-0.0325299 0.00984895 0
-0.0305404 0.0100661 0
-0.0330628 0.010816 0
-0.0350529 0.0106225 0
-0.0404918 0.0118111 0
-0.0395792 0.0103464 0
-0.0377723 0.0112168 0
-0.0400355 0.0110788 0
-0.037316 0.0104844 0
-0.0350644 0.0106109 0
-0.0306974 0.0106573 0
-0.0405385 0.0117644 0
-0.0328809 0.0106341 0
-0.0356179 0.0112109 0
-0.0378014 0.0111877 0
-0.0462991 0.0097992 0
-0.0412166 0.0113007 0
-0.0394999 0.0100144 0
-0.0437578 0.01055 0
-0.0403583 0.0106576 0
-0.0428995 0.00990679 0
-0.0463166 0.00978167 0
-0.0531455 0.0109703 0
-0.0405173 0.012 0
-0.0497311 0.010376 0
-0.0468314 0.0114852 0
-0.043417 0.0108908 0
-0.0462831 0.00978318 0
-0.0398082 0.0103227 0
-0.0491522 0.00671704 0
-0.0430456 0.0100529 0
-0.0444802 0.00851987 0
-0.0477176 0.00825011 0
-0.0463006 0.00976565 0
-0.0500317 0.0058376 0
-0.0529503 0.0107751 0
-0.0481661 0.00780163 0
-0.051491 0.00830635 0
-0.0496254 0.0102704 0
-0.0463318 0.0122559 0
-0.038739 0.0103464 0
-0.0410933 0.0118111 0
-0.0425354 0.0113011 0
-0.0399162 0.0110788 0
-0.0437125 0.0120335 0
-0.0463297 0.0122538 0
-0.0405173 0.0112352 0
-0.0531455 0.0122387 0
-0.0434235 0.0117445 0
-0.0468314 0.011737 0
-0.0497376 0.0122463 0
-0.0463382 0.0122495 0
-0.0539069 0.0100739 0
-0.0388905 0.0101949 0
-0.0501225 0.0111617 0
-0.0463987 0.0101344 0
-0.0426144 0.0112222 0
-0.0463361 0.0122473 0
-0.0534201 0.0119641 0
-0.0548918 0.0110589 0
-0.0498781 0.0121057 0
-0.054156 0.0115115 0
-0.050614 0.0116531 0
0.0301369 0.00169621 0
0.0337814 0 0
0.030389 0 0
0.0319592 0.000848105 0
0.0320852 0 0
0.0302629 0.000848105 0
0.030137 0.00169624 0
0.0297724 0.00339884 0
0.0338409 5.95041e-05 0
0.0299547 0.00254754 0
0.0318066 0.00172917 0
0.0319889 0.00087787 0
0.0301369 0.00169621 0
0.0303706 1.83689e-05 0
0.0265978 0.00332387 0
0.0302538 0.00085729 0
0.0284842 0.00167112 0
0.0283674 0.00251004 0
0.030137 0.00169624 0
0.0265408 0.0032669 0
0.0297932 0.00337799 0
0.0283389 0.00248157 0
0.028167 0.00332244 0
0.0299651 0.00253711 0
0.0268705 0.0016336 0
0.0265978 0.00328656 0
0.0303706 5.92422e-05 0
0.0267342 0.00246008 0
0.0284842 0.0016729 0
0.0286206 0.00084642 0
0.0268705 0.00163363 0
0.0234644 0.00314198 0
0.0266117 0.00327262 0
0.0251674 0.00238781 0
0.0250381 0.0032073 0
0.0267411 0.00245312 0
0.0268704 0.00163347 0
0.0303113 0 0
0.0270444 0 0
0.0285909 0.000816734 0
0.0286779 0 0
0.0269574 0.000816734 0
0.0268704 0.0016335 0
0.02704 4.45048e-06 0
0.0235138 0.00319142 0
0.0269552 0.000818974 0
0.0252769 0.00159793 0
0.0251921 0.00241246 0
0.0231286 0.00472045 0
0.0226362 0.00628719 0
0.0265905 0.00331767 0
0.0228824 0.00550382 0
0.0246133 0.00480243 0
0.0248595 0.00401906 0
0.0231286 0.00472044 0
0.0265454 0.00327262 0
0.0235191 0.00314198 0
0.024837 0.00399653 0
0.0250323 0.0032073 0
0.0233239 0.00393121 0
0.0231287 0.00472035 0
0.0197598 0.00608754 0
0.022665 0.00625838 0
0.0214442 0.00540394 0
0.0212124 0.00617296 0
0.0228968 0.00548937 0
0.0231287 0.00472035 0
0.0234996 0.0031615 0
0.0197957 0.00612349 0
0.0233142 0.00394093 0
0.0216477 0.0046425 0
0.0214622 0.00542192 0
0.0201794 0.00455183 0
0.0169185 0.00590913 0
0.0198173 0.00609328 0
0.018549 0.00523048 0
0.0183679 0.0060012 0
0.0199983 0.00532256 0
0.0201793 0.00455198 0
0.0197957 0.00611481 0
0.0234996 0.00317797 0
0.0199875 0.00533339 0
0.0216477 0.00464639 0
0.0218394 0.00386497 0
0.0201794 0.00455184 0
0.0204905 0.0029888 0
0.0169333 0.00592387 0
0.020335 0.00377032 0
0.0187119 0.00445634 0
0.0185563 0.00523786 0
0.0201793 0.00455199 0
0.023472 0.00315033 0
0.0204988 0.00298049 0
0.0218256 0.00385116 0
0.0219854 0.00306541 0
0.020339 0.00376624 0
0.0165771 0.00739904 0
0.0197589 0.00609328 0
0.0169633 0.00590913 0
0.018168 0.00674616 0
0.0183611 0.0060012 0
0.0167702 0.00665408 0
0.0165771 0.00739896 0
0.0160928 0.00884121 0
0.0197841 0.00611843 0
0.016335 0.00812009 0
0.0179385 0.00747982 0
0.0181806 0.0067587 0
0.0165773 0.00739891 0
0.0169173 0.00595503 0
0.0134922 0.00870002 0
0.0167473 0.00667697 0
0.0152048 0.00732753 0
0.0150347 0.00804946 0
0.0165772 0.00739883 0
0.0134725 0.00868032 0
0.0161446 0.00878945 0
0.0150248 0.00803958 0
0.0148086 0.00873489 0
0.0163609 0.00809414 0
0.0237308 0.00154996 0
0.0269842 0 0
0.0238843 0 0
0.0253575 0.000774978 0
0.0254342 0 0
0.0238075 0.000774978 0
0.023731 0.00155018 0
0.0235138 0.00314748 0
0.02704 5.57622e-05 0
0.0236224 0.00234883 0
0.0252769 0.00160162 0
0.0253855 0.000802971 0
0.0237308 0.00154997 0
0.0239075 -2.3172e-05 0
0.0205155 0.00301546 0
0.0238191 0.000763398 0
0.0222115 0.00149614 0
0.0221232 0.00228271 0
0.023731 0.00155019 0
0.0204805 0.00298049 0
0.023511 0.00315033 0
0.0221058 0.00226534 0
0.0219958 0.00306541 0
0.023621 0.00235026 0
0.0172443 0.00435596 0
0.0169333 0.00592905 0
0.0204905 0.00299388 0
0.0170888 0.0051425 0
0.0187119 0.00446146 0
0.0188674 0.00367492 0
0.0172444 0.00435605 0
0.0204895 0.00299291 0
0.0175466 0.00277623 0
0.018867 0.00367448 0
0.0190181 0.00288457 0
0.0173955 0.00356614 0
0.0172446 0.00435569 0
0.0140122 0.00573497 0
0.016949 0.00591328 0
0.0156284 0.00504533 0
0.0154806 0.00582413 0
0.0170968 0.00513449 0
0.0172447 0.00435578 0
0.0175487 0.00277408 0
0.0139959 0.00571873 0
0.0173967 0.00356493 0
0.0157723 0.0042464 0
0.0156203 0.00503725 0
0.0207522 0.0014354 0
0.0205155 0.0029622 0
0.0239075 4.36001e-05 0
0.0206338 0.0021988 0
0.0222115 0.0015029 0
0.0223298 0.000739499 0
0.0207523 0.0014353 0
0.0175863 0.00277623 0
0.0204848 0.00299291 0
0.0191693 0.00210577 0
0.0190355 0.00288457 0
0.0206185 0.00221411 0
0.0207519 0.00143509 0
0.0238639 0 0
0.0209937 0 0
0.0223079 0.000717546 0
0.0224288 0 0
0.0208728 0.000717546 0
0.020752 0.001435 0
0.0210632 -6.95255e-05 0
0.0175906 0.00278059 0
0.0209076 0.000682735 0
0.0193269 0.00135553 0
0.0191713 0.00210779 0
0.0137958 0.00726243 0
0.0134922 0.00873773 0
0.0169173 0.00591973 0
0.013644 0.00800008 0
0.0152048 0.00732873 0
0.0153566 0.00659108 0
0.0137959 0.0072623 0
0.0107732 0.00862529 0
0.0135519 0.00867802 0
0.0122846 0.0079438 0
0.0121626 0.00865165 0
0.0136739 0.00797016 0
0.0137959 0.00726254 0
0.0169109 0.00591328 0
0.0140341 0.00573497 0
0.0153534 0.00658791 0
0.0154725 0.00582413 0
0.013915 0.00649876 0
0.013796 0.00726241 0
0.0139767 0.0057923 0
0.0107778 0.00862983 0
0.0138864 0.00652736 0
0.0123772 0.00721107 0
0.0122869 0.00794612 0
0.010659 0.00994768 0
0.0103341 0.0112104 0
0.0134871 0.00870709 0
0.0104965 0.010579 0
0.0119106 0.00995874 0
0.012073 0.00932738 0
0.0106589 0.00994763 0
0.013458 0.00867802 0
0.0108661 0.00862529 0
0.0120585 0.00931282 0
0.0121621 0.00865165 0
0.0107625 0.00928646 0
0.0106588 0.00994778 0
0.00800902 0.0111779 0
0.0104179 0.0111266 0
0.00933394 0.0105628 0
0.00921347 0.0111522 0
0.0105384 0.0105372 0
0.0106588 0.00994773 0
0.0107775 0.00871383 0
0.0080425 0.0112114 0
0.0107182 0.00933078 0
0.00941002 0.00996261 0
0.00935065 0.0105796 0
0.00583406 0.0123278 0
0.00799226 0.0111713 0
0.00582356 0.0113156 0
0.00691316 0.0117495 0
0.00690791 0.0112434 0
0.00582881 0.0118217 0
0.00583449 0.0123282 0
0.00571161 0.0133214 0
0.00804989 0.0112289 0
0.00577305 0.0128248 0
0.00688075 0.0122752 0
0.00694219 0.0117786 0
0.00583355 0.0123283 0
0.00572109 0.0114181 0
0.00396456 0.0133995 0
0.00577732 0.0118732 0
0.00484283 0.0124088 0
0.00489906 0.0128639 0
0.00583399 0.0123287 0
0.00390142 0.0133364 0
0.00580668 0.0132264 0
0.0048677 0.0128326 0
0.00485405 0.0132814 0
0.00582034 0.0127775 0
0.008098 0.0100032 0
0.00566147 0.0113156 0
0.00814202 0.0111713 0
0.00687974 0.0106594 0
0.00690175 0.0112434 0
0.00812001 0.0105872 0
0.00809841 0.0100028 0
0.0080425 0.0112708 0
0.0107775 0.00864759 0
0.00807046 0.0106368 0
0.00941002 0.00995919 0
0.00943797 0.00932517 0
0.0080977 0.0100029 0
0.00794542 0.00881374 0
0.0057048 0.0113589 0
0.00802156 0.00940831 0
0.00682511 0.0100863 0
0.00690125 0.0106809 0
0.00809812 0.0100025 0
0.0107454 0.00861543 0
0.00805751 0.00870164 0
0.00942175 0.00930895 0
0.00940144 0.00865853 0
0.00807782 0.00935205 0
0.00394235 0.0140763 0
0.00397651 0.0134237 0
0.00251314 0.0148187 0
0.00395943 0.01375 0
0.00324482 0.0141212 0
0.00322775 0.0144475 0
0.00394275 0.0140759 0
0.00565283 0.0132264 0
0.0040638 0.0133364 0
0.00479779 0.0136511 0
0.00485832 0.0132814 0
0.00400328 0.0137061 0
0.00394274 0.0140767 0
0.00244517 0.0147508 0
0.003749 0.0147064 0
0.00319395 0.0144137 0
0.00309709 0.0147286 0
0.00384587 0.0143915 0
0.00394313 0.0140763 0
0.00366402 0.0147914 0
0.00572003 0.0132936 0
0.00380358 0.0144338 0
0.00469203 0.0140425 0
0.00483158 0.0136849 0
0.00381886 0.0124675 0
0.00396456 0.0134315 0
0.00572109 0.0113835 0
0.00389171 0.0129495 0
0.00484283 0.0124075 0
0.00476997 0.0119255 0
0.003818 0.0124684 0
0.00227802 0.0133702 0
0.0040538 0.0133422 0
0.00304801 0.0129193 0
0.00316591 0.0133562 0
0.0039359 0.0129053 0
0.00381804 0.0124667 0
0.00564741 0.0113099 0
0.00357488 0.0115509 0
0.00473272 0.0118883 0
0.00461115 0.0114304 0
0.00369646 0.0120088 0
0.00381717 0.0124675 0
0.00348052 0.0116453 0
0.00235346 0.0134457 0
0.00364885 0.0120564 0
0.00291699 0.0125455 0
0.00308532 0.0129566 0
0.00253529 0.0140922 0
0.00251314 0.0148326 0
0.00397651 0.0134135 0
0.00252422 0.0144624 0
0.00324482 0.014123 0
0.0032559 0.0137529 0
0.00253473 0.0140916 0
0.00390524 0.0133422 0
0.00243442 0.0133702 0
0.00321998 0.0137169 0
0.00316983 0.0133562 0
0.00248457 0.0137309 0
0.00253476 0.0140927 0
0.00141089 0.0145957 0
0.0025834 0.0147623 0
0.00197282 0.0143442 0
0.00199714 0.014679 0
0.00255908 0.0144275 0
0.0025342 0.0140922 0
0.00236611 0.0134385 0
0.00147803 0.0146628 0
0.00245015 0.0137654 0
0.00192207 0.0140507 0
0.00200611 0.0143775 0
0.0022833 0.0152312 0
0.00360215 0.0147064 0
0.00259693 0.0147508 0
0.00294272 0.0149688 0
0.00309954 0.0147286 0
0.00244011 0.014991 0
0.00228355 0.0152314 0
0.00178981 0.0156698 0
0.00367141 0.0147756 0
0.00203668 0.0154506 0
0.00273061 0.0152227 0
0.00297748 0.0150035 0
0.00228306 0.0152314 0
0.00252121 0.0148265 0
0.00122026 0.0156511 0
0.00240214 0.015029 0
0.00187074 0.0152388 0
0.00175166 0.0154413 0
0.00228331 0.0152317 0
0.00115278 0.0155837 0
0.00186634 0.0155932 0
0.00171805 0.0154077 0
0.00150956 0.0155884 0
0.00207482 0.0154125 0
0.01089 0.00719623 0
0.0108821 0.00573406 0
0.00793234 0.00869968 0
0.0108861 0.00646514 0
0.00940722 0.00721687 0
0.00941119 0.00794795 0
0.01089 0.00719616 0
0.00793431 0.00870164 0
0.0108591 0.00861543 0
0.00941214 0.0079489 0
0.00939668 0.00865853 0
0.0108745 0.00790579 0
0.0108901 0.00719621 0
0.0139875 0.00573301 0
0.0109721 0.00564401 0
0.0124388 0.00646461 0
0.0124798 0.00568851 0
0.0109311 0.00642011 0
0.01089 0.00719614 0
0.0107778 0.00869673 0
0.0139767 0.00572221 0
0.0108339 0.00794643 0
0.0123772 0.00720947 0
0.0124334 0.00645917 0
0.00548084 0.0102118 0
0.0057048 0.0114244 0
0.00794542 0.00873591 0
0.00559282 0.0108181 0
0.00682511 0.0100802 0
0.00671313 0.00947384 0
0.00547993 0.0102109 0
0.00788965 0.00868014 0
0.005193 0.00904494 0
0.00668479 0.00944551 0
0.00654132 0.00886254 0
0.00533646 0.00962791 0
0.00547975 0.0102129 0
0.0033843 0.0115509 0
0.00581937 0.0113099 0
0.00443203 0.0108819 0
0.00460183 0.0114304 0
0.00564956 0.0107614 0
0.00547884 0.010212 0
0.00505914 0.0091788 0
0.00345536 0.011622 0
0.00526899 0.00969538 0
0.00425725 0.0104004 0
0.0044671 0.010917 0
0.00781148 0.00733136 0
0.00793234 0.0088042 0
0.0108821 0.00561271 0
0.00787191 0.00806778 0
0.00940722 0.00720846 0
0.00934679 0.00647204 0
0.00781084 0.007332 0
0.00499532 0.00904494 0
0.0080564 0.00868014 0
0.00640308 0.00818847 0
0.00652586 0.00886254 0
0.00793362 0.00800607 0
0.00781119 0.00733107 0
0.0108931 0.00562372 0
0.00769437 0.00583969 0
0.00935215 0.00647739 0
0.00929374 0.0057317 0
0.00775278 0.00658538 0
0.00781055 0.00733171 0
0.00753549 0.00599858 0
0.00501728 0.00906691 0
0.00767302 0.00666514 0
0.00627638 0.00753274 0
0.00641391 0.00819931 0
0.0142717 0.00415856 0
0.0109563 0.00564401 0
0.0140162 0.00573301 0
0.012614 0.00490129 0
0.0124863 0.00568851 0
0.014144 0.00494578 0
0.0142712 0.00415904 0
0.0139959 0.0057533 0
0.0175487 0.00275114 0
0.0141336 0.00495617 0
0.0157723 0.00425222 0
0.01591 0.00345509 0
0.014272 0.00415885 0
0.0146146 0.00255042 0
0.0108961 0.00558376 0
0.0144433 0.00335464 0
0.0127554 0.00406709 0
0.012584 0.00487131 0
0.0142715 0.00415933 0
0.0175913 0.00279371 0
0.0146157 0.00254935 0
0.0159314 0.00347652 0
0.0161035 0.00267153 0
0.0144436 0.00335434 0
0.000748127 0.0158042 0
-6.96277e-05 0.0158584 0
6.85345e-05 0.0158881 0
0.00033925 0.0158313 0
-5.46613e-07 0.0158733 0
0.000408331 0.0158462 0
0.000748195 0.0158041 0
-3.01693e-06 0.0159597 0
0.0017962 0.0156629 0
0.000372589 0.0158819 0
0.000896591 0.0158113 0
0.0012722 0.0157335 0
0.000748033 0.0158041 0
0.00122621 0.0156529 0
-2.65427e-06 0.0159254 0
0.000987122 0.0157285 0
0.000611778 0.0157891 0
0.000372689 0.0158647 0
0.000748101 0.015804 0
0.00172654 0.0155932 0
0.0012954 0.0155837 0
0.00123732 0.0156986 0
0.00151097 0.0155884 0
0.00102175 0.0156938 0
-0.000748127 0.0158042 0
-6.85345e-05 0.0158881 0
6.96277e-05 0.0158584 0
-0.000408331 0.0158462 0
5.46613e-07 0.0158733 0
-0.00033925 0.0158313 0
-0.000748195 0.0158041 0
-0.0017962 0.0156629 0
3.01693e-06 0.0159597 0
-0.0012722 0.0157335 0
-0.000896591 0.0158113 0
-0.000372589 0.0158819 0
-0.000748033 0.0158041 0
2.65427e-06 0.0159254 0
-0.00122621 0.0156529 0
-0.000372689 0.0158647 0
-0.000611778 0.0157891 0
-0.000987122 0.0157285 0
-0.000748101 0.015804 0
-0.0012954 0.0155837 0
-0.00172654 0.0155932 0
-0.00102175 0.0156938 0
-0.00151097 0.0155884 0
-0.00123732 0.0156986 0
0.000475087 0.0156491 0
-2.65427e-06 0.0159297 0
0.00122621 0.0156563 0
0.000236216 0.0157894 0
0.000611778 0.015793 0
0.000850649 0.0156527 0
0.00047496 0.015649 0
0.00116742 0.0155975 0
0.000769408 0.0153025 0
0.000821191 0.0156233 0
0.000968415 0.01545 0
0.000622184 0.0154757 0
0.000475028 0.0156492 0
-5.38127e-05 0.0155335 0
5.41961e-05 0.0158728 0
0.000210608 0.0155914 0
1.91709e-07 0.0157032 0
0.000264612 0.015761 0
0.000474901 0.0156491 0
0.000719019 0.0153529 0
-1.85544e-06 0.0155855 0
0.00059696 0.015501 0
0.000358582 0.0154692 0
0.000236523 0.0156173 0
0.00145529 0.0151379 0
0.00122026 0.0156576 0
0.00252121 0.0148267 0
0.00133777 0.0153977 0
0.00187074 0.0152421 0
0.00198825 0.0149823 0
0.00145502 0.0151381 0
0.000656623 0.0153025 0
0.00128032 0.0155975 0
0.00105582 0.0152203 0
0.000968474 0.01545 0
0.00136767 0.0153678 0
0.00145496 0.0151376 0
0.00245685 0.0147623 0
0.00153971 0.0145957 0
0.00195591 0.0149499 0
0.00199828 0.014679 0
0.00149734 0.0148666 0
0.0014547 0.0151378 0
0.00148479 0.0146506 0
0.000714662 0.0153605 0
0.00146975 0.0148942 0
0.00109973 0.0150055 0
0.00108468 0.0152492 0
-0.00228306 0.0152314 0
-0.00122026 0.0156511 0
-0.00252121 0.0148265 0
-0.00175166 0.0154413 0
-0.00187074 0.0152388 0
-0.00240214 0.015029 0
-0.00228331 0.0152317 0
-0.00186634 0.0155932 0
-0.00115278 0.0155837 0
-0.00207482 0.0154125 0
-0.00150956 0.0155884 0
-0.00171805 0.0154077 0
-0.0022833 0.0152312 0
-0.00259693 0.0147508 0
-0.00360215 0.0147064 0
-0.00244011 0.014991 0
-0.00309954 0.0147286 0
-0.00294272 0.0149688 0
-0.00228355 0.0152314 0
-0.00367141 0.0147756 0
-0.00178981 0.0156698 0
-0.00297748 0.0150035 0
-0.00273061 0.0152227 0
-0.00203668 0.0154506 0
-0.000475087 0.0156491 0
-0.00122621 0.0156563 0
2.65427e-06 0.0159297 0
-0.000850649 0.0156527 0
-0.000611778 0.015793 0
-0.000236216 0.0157894 0
-0.00047496 0.015649 0
-0.000769408 0.0153025 0
-0.00116742 0.0155975 0
-0.000622184 0.0154757 0
-0.000968415 0.01545 0
-0.000821191 0.0156233 0
-0.000475028 0.0156492 0
-5.41961e-05 0.0158728 0
5.38127e-05 0.0155335 0
-0.000264612 0.015761 0
-1.91709e-07 0.0157032 0
-0.000210608 0.0155914 0
-0.000474901 0.0156491 0
1.85544e-06 0.0155855 0
-0.000719019 0.0153529 0
-0.000236523 0.0156173 0
-0.000358582 0.0154692 0
-0.00059696 0.015501 0
-0.00145529 0.0151379 0
-0.00252121 0.0148267 0
-0.00122026 0.0156576 0
-0.00198825 0.0149823 0
-0.00187074 0.0152421 0
-0.00133777 0.0153977 0
-0.00145502 0.0151381 0
-0.00128032 0.0155975 0
-0.000656623 0.0153025 0
-0.00136767 0.0153678 0
-0.000968474 0.01545 0
-0.00105582 0.0152203 0
-0.00145496 0.0151376 0
-0.00153971 0.0145957 0
-0.00245685 0.0147623 0
-0.00149734 0.0148666 0
-0.00199828 0.014679 0
-0.00195591 0.0149499 0
-0.0014547 0.0151378 0
-0.000714662 0.0153605 0
-0.00148479 0.0146506 0
-0.00108468 0.0152492 0
-0.00109973 0.0150055 0
-0.00146975 0.0148942 0
-0.00394274 0.0140767 0
-0.003749 0.0147064 0
-0.00244517 0.0147508 0
-0.00384587 0.0143915 0
-0.00309709 0.0147286 0
-0.00319395 0.0144137 0
-0.00394313 0.0140763 0
-0.00572003 0.0132936 0
-0.00366402 0.0147914 0
-0.00483158 0.0136849 0
-0.00469203 0.0140425 0
-0.00380358 0.0144338 0
-0.00394235 0.0140763 0
-0.00251314 0.0148187 0
-0.00397651 0.0134237 0
-0.00322775 0.0144475 0
-0.00324482 0.0141212 0
-0.00395943 0.01375 0
-0.00394275 0.0140759 0
-0.0040638 0.0133364 0
-0.00565283 0.0132264 0
-0.00400328 0.0137061 0
-0.00485832 0.0132814 0
-0.00479779 0.0136511 0
0.0013212 0.013859 0
0.000610706 0.0140069 0
0.00151722 0.0146176 0
0.000965951 0.0139329 0
0.00106396 0.0143122 0
0.00141921 0.0142383 0
0.00132166 0.0138585 0
0.00147803 0.0146568 0
0.00236611 0.013456 0
0.00139984 0.0142576 0
0.00192207 0.0140564 0
0.00184389 0.0136572 0
0.00132062 0.0138584 0
0.00106764 0.0131526 0
0.000665009 0.0140612 0
0.00119413 0.0135055 0
0.000866325 0.0136069 0
0.000992815 0.0139598 0
0.00132109 0.0138579 0
0.00230023 0.0133901 0
0.00109734 0.0131229 0
0.00181066 0.013624 0
0.00169879 0.0132565 0
0.00120922 0.0134904 0
0.000754854 0.0146846 0
0.00143508 0.0146176 0
0.000690293 0.0140069 0
0.00109496 0.0146511 0
0.00106268 0.0143122 0
0.000722574 0.0143458 0
0.000755157 0.0146849 0
0.000714662 0.0153564 0
0.00148479 0.0146673 0
0.00073491 0.0150207 0
0.00109973 0.0150119 0
0.00111998 0.0146761 0
0.000754663 0.0146848 0
0.000668565 0.0140286 0
0.000321599 0.0145478 0
0.000711614 0.0143567 0
0.000495082 0.0142882 0
0.000538131 0.0146163 0
0.000754966 0.0146851 0
0.000283215 0.0145094 0
0.000746739 0.0153244 0
0.000519091 0.0145973 0
0.000514977 0.0149169 0
0.000750853 0.0150047 0
0.00201452 0.012539 0
0.00339387 0.0115606 0
0.001642 0.0117656 0
0.00270419 0.0120498 0
0.00251793 0.0116631 0
0.00182826 0.0121523 0
0.00201559 0.0125401 0
0.00235346 0.0134501 0
0.00348052 0.0116473 0
0.00218453 0.0129951 0
0.00291699 0.0125487 0
0.00274806 0.0120937 0
0.00201353 0.01254 0
0.00158736 0.0118202 0
0.00105983 0.0132001 0
0.00180045 0.0121801 0
0.0013236 0.0125102 0
0.00153668 0.0128701 0
0.0020146 0.0125411 0
0.00098263 0.0131229 0
0.00241342 0.0133901 0
0.00149861 0.012832 0
0.00169802 0.0132565 0
0.00221401 0.0129656 0
0.00298513 0.0106133 0
0.00146101 0.0117656 0
0.0035607 0.0115606 0
0.00222307 0.0111894 0
0.00251085 0.0116631 0
0.00327291 0.0110869 0
0.0029871 0.0106113 0
0.00345536 0.0116659 0
0.00505914 0.00912564 0
0.00322123 0.0111386 0
0.00425725 0.0103958 0
0.00402312 0.00986846 0
0.0029832 0.0106113 0
0.00239777 0.00986693 0
0.00156549 0.0118701 0
0.00269049 0.0102391 0
0.00198163 0.0108685 0
0.00227435 0.0112407 0
0.00298518 0.0106094 0
0.00495575 0.00902225 0
0.00251198 0.00975271 0
0.00397046 0.00981581 0
0.00373387 0.00938748 0
0.00274858 0.010181 0
0.000450809 0.0130821 0
0.000665009 0.0140326 0
0.00106764 0.0132016 0
0.000557909 0.0135573 0
0.000866325 0.0136171 0
0.000759225 0.0131418 0
0.000450555 0.0130818 0
0.00102683 0.0131608 0
0.000235051 0.012211 0
0.000738693 0.0131213 0
0.000630942 0.0126859 0
0.000342803 0.0126464 0
0.000450726 0.0130821 0
0.000138686 0.0126463 0
0.000659198 0.0140385 0
0.000294706 0.0128642 0
0.000398942 0.0133424 0
0.000554962 0.0135603 0
0.000450472 0.0130819 0
0.000257121 0.012189 0
0.000162562 0.0126702 0
0.000353797 0.0126354 0
0.000209842 0.0124296 0
0.000306517 0.012876 0
0.00068315 0.0122589 0
0.00105983 0.0131624 0
0.00158736 0.0118815 0
0.00087149 0.0127106 0
0.0013236 0.012522 0
0.00113526 0.0120702 0
0.000682815 0.0122592 0
0.000208016 0.012211 0
0.00106143 0.0131608 0
0.000445415 0.0122351 0
0.000634721 0.0126859 0
0.000872121 0.01271 0
0.000682597 0.0122583 0
0.00151724 0.0118114 0
0.000355245 0.0115433 0
0.00109992 0.0120348 0
0.000936242 0.0116773 0
0.000518921 0.0119008 0
0.000682262 0.0122587 0
0.00037394 0.0115246 0
0.000256072 0.0122591 0
0.000528101 0.0118916 0
0.000315006 0.0118918 0
0.000469167 0.0122589 0
0.000246136 0.0150842 0
-2.88697e-05 0.0146728 0
3.08944e-05 0.0155553 0
0.000108633 0.0148785 0
1.01235e-06 0.015114 0
0.000138515 0.0153197 0
0.000246154 0.0150841 0
-1.85544e-06 0.015588 0
0.000719019 0.0153632 0
0.000122149 0.0153361 0
0.000358582 0.0154756 0
0.000482586 0.0152237 0
0.000246007 0.015084 0
0.000323785 0.0145316 0
-9.28326e-07 0.0147007 0
0.000284896 0.0148078 0
0.000161428 0.0146161 0
0.000122539 0.0148924 0
0.000246025 0.015084 0
0.000680211 0.0153244 0
0.000345962 0.0145094 0
0.000463118 0.0152042 0
0.000513087 0.0149169 0
0.000295993 0.0147967 0
-0.000246136 0.0150842 0
-3.08944e-05 0.0155553 0
2.88697e-05 0.0146728 0
-0.000138515 0.0153197 0
-1.01235e-06 0.015114 0
-0.000108633 0.0148785 0
-0.000246154 0.0150841 0
-0.000719019 0.0153632 0
1.85544e-06 0.015588 0
-0.000482586 0.0152237 0
-0.000358582 0.0154756 0
-0.000122149 0.0153361 0
-0.000246007 0.015084 0
9.28326e-07 0.0147007 0
-0.000323785 0.0145316 0
-0.000122539 0.0148924 0
-0.000161428 0.0146161 0
-0.000284896 0.0148078 0
-0.000246025 0.015084 0
-0.000345962 0.0145094 0
-0.000680211 0.0153244 0
-0.000295993 0.0147967 0
-0.000513087 0.0149169 0
-0.000463118 0.0152042 0
0.000259003 0.013593 0
0.000321599 0.0145333 0
0.000668565 0.0140611 0
0.000290301 0.0140631 0
0.000495082 0.0142972 0
0.000463784 0.0138271 0
0.000259003 0.013593 0
7.07455e-05 0.0128951 0
0.000317321 0.0145375 0
0.000164874 0.0132441 0
0.000194033 0.0137163 0
0.000288162 0.0140653 0
0.000258857 0.0135929 0
0.000645919 0.0140385 0
0.000144922 0.0126463 0
0.000452388 0.0138157 0
0.00039542 0.0133424 0
0.00020189 0.0131196 0
0.000258857 0.0135929 0
0.000163243 0.012628 0
7.90572e-05 0.0129034 0
0.00021105 0.0131105 0
0.00012115 0.0127657 0
0.000168957 0.0132482 0
8.46589e-05 0.0138392 0
-9.28326e-07 0.0147013 0
0.000323785 0.0145478 0
4.18653e-05 0.0142703 0
0.000161428 0.0146245 0
0.000204222 0.0141935 0
8.45696e-05 0.0138391 0
0.000313561 0.0145375 0
6.79696e-05 0.0128951 0
0.000199065 0.0141883 0
0.000190765 0.0137163 0
7.62696e-05 0.0133671 0
8.47052e-05 0.0138392 0
2.68175e-06 0.0129763 0
4.96807e-07 0.0146999 0
4.36935e-05 0.0134077 0
1.58928e-06 0.0138381 0
4.2601e-05 0.0142695 0
8.46159e-05 0.0138391 0
7.9647e-05 0.0128834 0
-2.82827e-07 0.0129733 0
8.21314e-05 0.0133613 0
3.96821e-05 0.0129284 0
4.21665e-05 0.0134062 0
0.0179709 0.00128344 0
0.0210514 0 0
0.0184845 0 0
0.0195111 0.000641719 0
0.0197679 0 0
0.0182277 0.000641719 0
0.0179713 0.00128379 0
0.0175906 0.00272308 0
0.0210632 1.18431e-05 0
0.017781 0.00200344 0
0.0193269 0.00136746 0
0.0195172 0.000647816 0
0.0179713 0.00128304 0
0.0186281 -0.000143602 0
0.0146827 0.00248832 0
0.0182997 0.000569717 0
0.0166554 0.00117236 0
0.016327 0.00188568 0
0.0179717 0.00128339 0
0.0147437 0.00254935 0
0.01752 0.00279371 0
0.0163577 0.00191637 0
0.0161319 0.00267153 0
0.0177459 0.00203855 0
0.0153978 0.00110565 0
0.0146827 0.00245103 0
0.0186281 -6.4188e-05 0
0.0150402 0.00177834 0
0.0166554 0.00119342 0
0.0170129 0.000520729 0
0.0153991 0.00110433 0
0.0118045 0.00240101 0
0.0145653 0.00256844 0
0.0136018 0.00175267 0
0.0131849 0.00248472 0
0.0149822 0.00183639 0
0.0153976 0.00110549 0
0.0186923 0 0
0.0164813 0 0
0.0170449 0.000552744 0
0.0175868 0 0
0.0159395 0.000552744 0
0.0153989 0.00110418 0
0.0167425 -0.000261259 0
0.0115988 0.00219528 0
0.0160707 0.000421458 0
0.0141707 0.000967011 0
0.0134988 0.00164973 0
0.0111436 0.00406646 0
0.0108961 0.00568145 0
0.0146146 0.00245803 0
0.0110198 0.00487396 0
0.0127554 0.00406974 0
0.0128791 0.00326225 0
0.0111443 0.0040671 0
0.0147251 0.00256844 0
0.0115603 0.00240101 0
0.0129347 0.00331777 0
0.0131427 0.00248472 0
0.0113523 0.00323405 0
0.0111443 0.00406585 0
0.00762207 0.00583969 0
0.0109538 0.00562372 0
0.00938316 0.00495277 0
0.00928793 0.0057317 0
0.011049 0.00484478 0
0.0111449 0.00406649 0
0.0115008 0.00246045 0
0.00751589 0.00573351 0
0.0113229 0.00326347 0
0.00950837 0.00409698 0
0.00933039 0.0049 0
0.00458679 0.00789538 0
0.00747832 0.00576834 0
0.00423786 0.00678197 0
0.00603255 0.00683186 0
0.00585809 0.00627516 0
0.00441233 0.00733868 0
0.00458902 0.00789761 0
0.00501728 0.00920025 0
0.00753549 0.00582552 0
0.00480315 0.00854893 0
0.00627638 0.00751288 0
0.00606226 0.00686157 0
0.00458399 0.00789818 0
0.00399999 0.00701984 0
0.00232812 0.0098597 0
0.00429199 0.00745901 0
0.00316406 0.00843977 0
0.00345606 0.00887894 0
0.00458622 0.00790041 0
0.00222113 0.00975271 0
0.00519528 0.00902225 0
0.00340368 0.00882656 0
0.0037082 0.00938748 0
0.00489075 0.00846133 0
0.00763674 0.00438287 0
0.00391477 0.00678197 0
0.00769934 0.00576834 0
0.00577576 0.00558242 0
0.00580706 0.00627516 0
0.00766804 0.00507561 0
0.00763682 0.00438279 0
0.00751589 0.0059518 0
0.0115008 0.00220871 0
0.00757636 0.00516729 0
0.00950837 0.00408025 0
0.00956884 0.00329575 0
0.00763786 0.00438399 0
0.0077088 0.00298599 0
0.00384286 0.00671005 0
0.00767333 0.00368499 0
0.00577583 0.00484802 0
0.00574036 0.00554702 0
0.00763795 0.00438391 0
0.0116907 0.0023986 0
0.00800815 0.00268664 0
0.00966434 0.00339125 0
0.00984944 0.00254262 0
0.00782305 0.00353527 0
0.00165196 0.00908759 0
0.00232812 0.00993962 0
0.00399999 0.00691543 0
0.00199004 0.00951361 0
0.00316406 0.00842753 0
0.00282598 0.00800151 0
0.0016465 0.00909306 0
0.000348237 0.0105237 0
0.00247677 0.00979098 0
0.000997367 0.00980837 0
0.0014125 0.0101573 0
0.00206163 0.00944202 0
0.00164629 0.00908192 0
0.00378595 0.00670138 0
0.00111497 0.00879147 0
0.00271612 0.00789165 0
0.00245046 0.00774643 0
0.00138063 0.00893669 0
0.00164082 0.00908738 0
0.000975531 0.00893091 0
0.00053079 0.0107062 0
0.00130818 0.00900914 0
0.000753161 0.00981857 0
0.00108581 0.00989681 0
0.00101497 0.0110153 0
0.00156549 0.0118454 0
0.00239777 0.00991213 0
0.00129023 0.0114304 0
0.00198163 0.0108788 0
0.00170637 0.0104637 0
0.00101335 0.0110137 0
0.00227662 0.00979098 0
0.000563953 0.0105237 0
0.00164498 0.0104023 0
0.00142029 0.0101573 0
0.00078865 0.0107687 0
0.00101361 0.0110166 0
0.000278195 0.0115433 0
0.00159956 0.0118114 0
0.000645902 0.01128 0
0.000938879 0.0116773 0
0.00130659 0.011414 0
0.00101199 0.011015 0
0.0005523 0.0105353 0
0.000370969 0.011636 0
0.000782144 0.0107752 0
0.000461634 0.0110857 0
0.000691479 0.0113255 0
0.0129119 0.000976806 0
0.016999 0 0
0.0150454 0 0
0.0149554 0.000488403 0
0.0160222 0 0
0.0139786 0.000488403 0
0.0129105 0.00097544 0
0.0115988 0.00226389 0
0.0167425 -0.000256425 0
0.0122546 0.00161966 0
0.0141707 0.00100373 0
0.0148265 0.000359508 0
0.0129162 0.000972502 0
0.0154708 -0.000425392 0
0.00778533 0.00215087 0
0.0141935 0.000273555 0
0.011628 0.000862738 0
0.0103507 0.00156169 0
0.0129148 0.000971137 0
0.00832109 0.00268664 0
0.0114641 0.0023986 0
0.010618 0.00182889 0
0.00989257 0.00254262 0
0.0121894 0.00168487 0
0.00342922 0.0058346 0
0.00384286 0.00711423 0
0.0077088 0.00242101 0
0.00363604 0.00647442 0
0.00577583 0.00476762 0
0.00556901 0.0041278 0
0.00341927 0.00582465 0
0.00770137 0.00241358 0
0.00363748 0.00517182 0
0.00556032 0.00411911 0
0.00566943 0.0037927 0
0.00352837 0.00549824 0
0.00341615 0.00584767 0
0.000458204 0.00879147 0
0.00425571 0.00670138 0
0.00193717 0.00731957 0
0.00235696 0.00774643 0
0.00383593 0.00627453 0
0.00340619 0.00583772 0
0.00289902 0.00591028 0
0.000745186 0.00907845 0
0.00315261 0.005874 0
0.00182211 0.00749437 0
0.00207569 0.00745809 0
0.0099125 0.00125636 0
0.00778533 0.00261738 0
0.0154708 -0.000813696 0
0.00884891 0.00193687 0
0.011628 0.00090184 0
0.0126916 0.00022133 0
0.00993534 0.00123352 0
0.00287075 0.00517182 0
0.00798912 0.00241358 0
0.00640305 0.00320267 0
0.00542994 0.0037927 0
0.00896223 0.00182355 0
0.00992979 0.00127364 0
0.0162845 0 0
0.0137372 0 0
0.0131071 0.00063682 0
0.0150108 0 0
0.0118335 0.00063682 0
0.00995263 0.0012508 0
0.0141125 -0.000375297 0
0.00155821 0.00385928 0
0.0120325 0.000437751 0
0.00783534 0.00174199 0
0.00575542 0.00255504 0
-0.0695372 0.012147 0
-0.10789 0.0203703 0
-0.036684 0.0258704 0
-0.0887139 0.0162587 0
-0.0722873 0.0231204 0
-0.0531106 0.0190087 0
-0.069168 0.0125163 0
-0.0514955 0.0110589 0
-0.053505 0.0119641 0
-0.0603318 0.0117876 0
-0.0525003 0.0115115 0
-0.0613365 0.0122402 0
-0.0689841 0.0115939 0
-0.0643324 0 0
-0.0875201 0 0
-0.0666582 0.00579693 0
-0.0759263 0 0
-0.0782521 0.00579693 0
-0.0686148 0.0119631 0
-0.0551085 0.0135676 0
-0.066443 -0.00211056 0
-0.0618617 0.0127654 0
-0.0607758 0.00572854 0
-0.0675289 0.00492626 0
-0.0563623 0.00452085 0
-0.0547076 0 0
-0.0637493 0 0
-0.055535 0.00226043 0
-0.0592285 0 0
-0.0600558 0.00226043 0
-0.0563547 0.00451328 0
-0.066443 0.00269365 0
-0.0551085 0.0115357 0
-0.0613989 0.00360347 0
-0.0607758 0.00711466 0
-0.0557316 0.00802447 0
-0.056385 0.00449817 0
-0.0494958 0.00709583 0
-0.055443 -0.000735378 0
-0.0529404 0.005797 0
-0.0524694 0.00318022 0
-0.055914 0.0018814 0
-0.0563774 0.0044906 0
-0.0558691 0.0107751 0
-0.0482376 0.0058376 0
-0.0561233 0.00763285 0
-0.0520533 0.00830635 0
-0.0523075 0.0051641 0
-0.0495991 0.0027936 0
-0.055443 0.00049469 0
-0.0494958 0.0062353 0
-0.0525211 0.00164414 0
-0.0524694 0.00336499 0
-0.0495474 0.00451445 0
-0.0496057 0.00278702 0
-0.0493857 0.00634541 0
-0.0440231 0.00459124 0
-0.0494957 0.00456622 0
-0.0467044 0.00546832 0
-0.0468144 0.00368913 0
-0.0496046 0.00279908 0
-0.0493501 0 0
-0.0549483 0 0
-0.0494774 0.00139954 0
-0.0521492 0 0
-0.0522764 0.00139954 0
-0.0496112 0.00279251 0
-0.0444243 0.00499243 0
-0.0495779 -0.00022773 0
-0.0470177 0.00389247 0
-0.0470011 0.00238235 0
-0.0495945 0.00128239 0
-0.0447769 0.00219165 0
-0.0450144 0 0
-0.0493977 0 0
-0.0448957 0.00109582 0
-0.0472061 0 0
-0.0470873 0.00109582 0
-0.0447754 0.00219009 0
-0.0495779 0.000180152 0
-0.0444243 0.00463153 0
-0.0471766 0.00118512 0
-0.0470011 0.00240584 0
-0.0445998 0.00341081 0
-0.0447785 0.00219005 0
-0.0402139 0.00415216 0
-0.0451027 -8.82857e-05 0
-0.0424962 0.00317111 0
-0.0426583 0.00203194 0
-0.0449406 0.00105088 0
-0.044777 0.0021885 0
-0.044343 0.00471285 0
-0.0400344 0.00397267 0
-0.04456 0.00345068 0
-0.0421887 0.00434276 0
-0.0424057 0.00308058 0
-0.040714 0.00194132 0
-0.0451027 9.14595e-05 0
-0.0402139 0.00398006 0
-0.0429084 0.00101639 0
-0.0426583 0.00203576 0
-0.040464 0.00296069 0
-0.0407147 0.00194068 0
-0.0401841 0.00400982 0
-0.0363948 0.00366087 0
-0.0404494 0.00297525 0
-0.0382895 0.00383534 0
-0.0385547 0.00280078 0
-0.0407148 0.00194208 0
-0.0411271 0 0
-0.0450113 0 0
-0.0409209 0.000971038 0
-0.0430692 0 0
-0.042863 0.000971038 0
-0.0407154 0.00194144 0
-0.0364985 0.00376458 0
-0.0411474 -2.0299e-05 0
-0.038607 0.00285301 0
-0.038823 0.00187214 0
-0.0409314 0.000960568 0
-0.0370183 0.00182213 0
-0.0374359 0 0
-0.0410802 0 0
-0.0372271 0.000911066 0
-0.039258 0 0
-0.0390492 0.000911066 0
-0.037018 0.00182181 0
-0.0411474 6.72324e-05 0
-0.0364985 0.00367724 0
-0.0390827 0.000944521 0
-0.038823 0.00187224 0
-0.0367582 0.00274953 0
-0.0370185 0.00182189 0
-0.0330558 0.00356452 0
-0.0374263 9.5765e-06 0
-0.0350372 0.0026932 0
-0.0352411 0.00178705 0
-0.0372224 0.000915732 0
-0.0370182 0.00182157 0
-0.0365013 0.00367451 0
-0.0329806 0.00348931 0
-0.0367597 0.00274804 0
-0.0347409 0.00358191 0
-0.0349994 0.00265544 0
-0.0335146 0.00175216 0
-0.0374263 6.04408e-05 0
-0.0330558 0.00351343 0
-0.0354705 0.0009063 0
-0.0352411 0.00178694 0
-0.0332852 0.0026328 0
-0.0335146 0.00175208 0
-0.0330736 0.00349562 0
-0.0297089 0.00337323 0
-0.0332941 0.00262385 0
-0.0313912 0.00343443 0
-0.0316118 0.00256266 0
-0.0335147 0.00175227 0
-0.0338614 0 0
-0.0373659 0 0
-0.033688 0.000876134 0
-0.0356136 0 0
-0.0354403 0.000876134 0
-0.0335148 0.00175219 0
-0.0297724 0.00343672 0
-0.0338409 2.04877e-05 0
-0.0316436 0.00259446 0
-0.0318066 0.00172861 0
-0.0336778 0.000886338 0
-0.0301369 0.00169621 0
-0.030389 0 0
-0.0337814 0 0
-0.0302629 0.000848105 0
-0.0320852 0 0
-0.0319592 0.000848105 0
-0.030137 0.00169624 0
-0.0338409 5.95041e-05 0
-0.0297724 0.00339884 0
-0.0319889 0.00087787 0
-0.0318066 0.00172917 0
-0.0299547 0.00254754 0
-0.0301369 0.00169621 0
-0.0265978 0.00332387 0
-0.0303706 1.83689e-05 0
-0.0283674 0.00251004 0
-0.0284842 0.00167112 0
-0.0302538 0.00085729 0
-0.030137 0.00169624 0
-0.0297932 0.00337799 0
-0.0265408 0.0032669 0
-0.0299651 0.00253711 0
-0.028167 0.00332244 0
-0.0283389 0.00248157 0
-0.0268705 0.0016336 0
-0.0303706 5.92422e-05 0
-0.0265978 0.00328656 0
-0.0286206 0.00084642 0
-0.0284842 0.0016729 0
-0.0267342 0.00246008 0
-0.0268705 0.00163363 0
-0.0266117 0.00327262 0
-0.0234644 0.00314198 0
-0.0267411 0.00245312 0
-0.0250381 0.0032073 0
-0.0251674 0.00238781 0
-0.0268704 0.00163347 0
-0.0270444 0 0
-0.0303113 0 0
-0.0269574 0.000816734 0
-0.0286779 0 0
-0.0285909 0.000816734 0
-0.0268704 0.0016335 0
-0.0235138 0.00319142 0
-0.02704 4.45048e-06 0
-0.0251921 0.00241246 0
-0.0252769 0.00159793 0
-0.0269552 0.000818974 0
-0.0231286 0.00472045 0
-0.0265905 0.00331767 0
-0.0226362 0.00628719 0
-0.0248595 0.00401906 0
-0.0246133 0.00480243 0
-0.0228824 0.00550382 0
-0.0231286 0.00472044 0
-0.0235191 0.00314198 0
-0.0265454 0.00327262 0
-0.0233239 0.00393121 0
-0.0250323 0.0032073 0
-0.024837 0.00399653 0
-0.0231287 0.00472035 0
-0.022665 0.00625838 0
-0.0197598 0.00608754 0
-0.0228968 0.00548937 0
-0.0212124 0.00617296 0
-0.0214442 0.00540394 0
-0.0231287 0.00472035 0
-0.0197957 0.00612349 0
-0.0234996 0.0031615 0
-0.0214622 0.00542192 0
-0.0216477 0.0046425 0
-0.0233142 0.00394093 0
-0.0201794 0.00455183 0
-0.0198173 0.00609328 0
-0.0169185 0.00590913 0
-0.0199983 0.00532256 0
-0.0183679 0.0060012 0
-0.018549 0.00523048 0
-0.0201793 0.00455198 0
-0.0234996 0.00317797 0
-0.0197957 0.00611481 0
-0.0218394 0.00386497 0
-0.0216477 0.00464639 0
-0.0199875 0.00533339 0
-0.0201794 0.00455184 0
-0.0169333 0.00592387 0
-0.0204905 0.0029888 0
-0.0185563 0.00523786 0
-0.0187119 0.00445634 0
-0.020335 0.00377032 0
-0.0201793 0.00455199 0
-0.0204988 0.00298049 0
-0.023472 0.00315033 0
-0.020339 0.00376624 0
-0.0219854 0.00306541 0
-0.0218256 0.00385116 0
-0.0165771 0.00739904 0
-0.0169633 0.00590913 0
-0.0197589 0.00609328 0
-0.0167702 0.00665408 0
-0.0183611 0.0060012 0
-0.018168 0.00674616 0
-0.0165771 0.00739896 0
-0.0197841 0.00611843 0
-0.0160928 0.00884121 0
-0.0181806 0.0067587 0
-0.0179385 0.00747982 0
-0.016335 0.00812009 0
-0.0165773 0.00739891 0
-0.0134922 0.00870002 0
-0.0169173 0.00595503 0
-0.0150347 0.00804946 0
-0.0152048 0.00732753 0
-0.0167473 0.00667697 0
-0.0165772 0.00739883 0
-0.0161446 0.00878945 0
-0.0134725 0.00868032 0
-0.0163609 0.00809414 0
-0.0148086 0.00873489 0
-0.0150248 0.00803958 0
-0.0237308 0.00154996 0
-0.0238843 0 0
-0.0269842 0 0
-0.0238075 0.000774978 0
-0.0254342 0 0
-0.0253575 0.000774978 0
-0.023731 0.00155018 0
-0.02704 5.57622e-05 0
-0.0235138 0.00314748 0
-0.0253855 0.000802971 0
-0.0252769 0.00160162 0
-0.0236224 0.00234883 0
-0.0237308 0.00154997 0
-0.0205155 0.00301546 0
-0.0239075 -2.3172e-05 0
-0.0221232 0.00228271 0
-0.0222115 0.00149614 0
-0.0238191 0.000763398 0
-0.023731 0.00155019 0
-0.023511 0.00315033 0
-0.0204805 0.00298049 0
-0.023621 0.00235026 0
-0.0219958 0.00306541 0
-0.0221058 0.00226534 0
-0.0172443 0.00435596 0
-0.0204905 0.00299388 0
-0.0169333 0.00592905 0
-0.0188674 0.00367492 0
-0.0187119 0.00446146 0
-0.0170888 0.0051425 0
-0.0172444 0.00435605 0
-0.0175466 0.00277623 0
-0.0204895 0.00299291 0
-0.0173955 0.00356614 0
-0.0190181 0.00288457 0
-0.018867 0.00367448 0
-0.0172446 0.00435569 0
-0.016949 0.00591328 0
-0.0140122 0.00573497 0
-0.0170968 0.00513449 0
-0.0154806 0.00582413 0
-0.0156284 0.00504533 0
-0.0172447 0.00435578 0
-0.0139959 0.00571873 0
-0.0175487 0.00277408 0
-0.0156203 0.00503725 0
-0.0157723 0.0042464 0
-0.0173967 0.00356493 0
-0.0207522 0.0014354 0
-0.0239075 4.36001e-05 0
-0.0205155 0.0029622 0
-0.0223298 0.000739499 0
-0.0222115 0.0015029 0
-0.0206338 0.0021988 0
-0.0207523 0.0014353 0
-0.0204848 0.00299291 0
-0.0175863 0.00277623 0
-0.0206185 0.00221411 0
-0.0190355 0.00288457 0
-0.0191693 0.00210577 0
-0.0207519 0.00143509 0
-0.0209937 0 0
-0.0238639 0 0
-0.0208728 0.000717546 0
-0.0224288 0 0
-0.0223079 0.000717546 0
-0.020752 0.001435 0
-0.0175906 0.00278059 0
-0.0210632 -6.95255e-05 0
-0.0191713 0.00210779 0
-0.0193269 0.00135553 0
-0.0209076 0.000682735 0
-0.0137958 0.00726243 0
-0.0169173 0.00591973 0
-0.0134922 0.00873773 0
-0.0153566 0.00659108 0
-0.0152048 0.00732873 0
-0.013644 0.00800008 0
-0.0137959 0.0072623 0
-0.0135519 0.00867802 0
-0.0107732 0.00862529 0
-0.0136739 0.00797016 0
-0.0121626 0.00865165 0
-0.0122846 0.0079438 0
-0.0137959 0.00726254 0
-0.0140341 0.00573497 0
-0.0169109 0.00591328 0
-0.013915 0.00649876 0
-0.0154725 0.00582413 0
-0.0153534 0.00658791 0
-0.013796 0.00726241 0
-0.0107778 0.00862983 0
-0.0139767 0.0057923 0
-0.0122869 0.00794612 0
-0.0123772 0.00721107 0
-0.0138864 0.00652736 0
-0.010659 0.00994768 0
-0.0134871 0.00870709 0
-0.0103341 0.0112104 0
-0.012073 0.00932738 0
-0.0119106 0.00995874 0
-0.0104965 0.010579 0
-0.0106589 0.00994763 0
-0.0108661 0.00862529 0
-0.013458 0.00867802 0
-0.0107625 0.00928646 0
-0.0121621 0.00865165 0
-0.0120585 0.00931282 0
-0.0106588 0.00994778 0
-0.0104179 0.0111266 0
-0.00800902 0.0111779 0
-0.0105384 0.0105372 0
-0.00921347 0.0111522 0
-0.00933394 0.0105628 0
-0.0106588 0.00994773 0
-0.0080425 0.0112114 0
-0.0107775 0.00871383 0
-0.00935065 0.0105796 0
-0.00941002 0.00996261 0
-0.0107182 0.00933078 0
-0.00583406 0.0123278 0
-0.00582356 0.0113156 0
-0.00799226 0.0111713 0
-0.00582881 0.0118217 0
-0.00690791 0.0112434 0
-0.00691316 0.0117495 0
-0.00583449 0.0123282 0
-0.00804989 0.0112289 0
-0.00571161 0.0133214 0
-0.00694219 0.0117786 0
-0.00688075 0.0122752 0
-0.00577305 0.0128248 0
-0.00583355 0.0123283 0
-0.00396456 0.0133995 0
-0.00572109 0.0114181 0
-0.00489906 0.0128639 0
-0.00484283 0.0124088 0
-0.00577732 0.0118732 0
-0.00583399 0.0123287 0
-0.00580668 0.0132264 0
-0.00390142 0.0133364 0
-0.00582034 0.0127775 0
-0.00485405 0.0132814 0
-0.0048677 0.0128326 0
-0.008098 0.0100032 0
-0.00814202 0.0111713 0
-0.00566147 0.0113156 0
-0.00812001 0.0105872 0
-0.00690175 0.0112434 0
-0.00687974 0.0106594 0
-0.00809841 0.0100028 0
-0.0107775 0.00864759 0
-0.0080425 0.0112708 0
-0.00943797 0.00932517 0
-0.00941002 0.00995919 0
-0.00807046 0.0106368 0
-0.0080977 0.0100029 0
-0.0057048 0.0113589 0
-0.00794542 0.00881374 0
-0.00690125 0.0106809 0
-0.00682511 0.0100863 0
-0.00802156 0.00940831 0
-0.00809812 0.0100025 0
-0.00805751 0.00870164 0
-0.0107454 0.00861543 0
-0.00807782 0.00935205 0
-0.00940144 0.00865853 0
-0.00942175 0.00930895 0
-0.00381886 0.0124675 0
-0.00572109 0.0113835 0
-0.00396456 0.0134315 0
-0.00476997 0.0119255 0
-0.00484283 0.0124075 0
-0.00389171 0.0129495 0
-0.003818 0.0124684 0
-0.0040538 0.0133422 0
-0.00227802 0.0133702 0
-0.0039359 0.0129053 0
-0.00316591 0.0133562 0
-0.00304801 0.0129193 0
-0.00381804 0.0124667 0
-0.00357488 0.0115509 0
-0.00564741 0.0113099 0
-0.00369646 0.0120088 0
-0.00461115 0.0114304 0
-0.00473272 0.0118883 0
-0.00381717 0.0124675 0
-0.00235346 0.0134457 0
-0.00348052 0.0116453 0
-0.00308532 0.0129566 0
-0.00291699 0.0125455 0
-0.00364885 0.0120564 0
-0.00253529 0.0140922 0
-0.00397651 0.0134135 0
-0.00251314 0.0148326 0
-0.0032559 0.0137529 0
-0.00324482 0.014123 0
-0.00252422 0.0144624 0
-0.00253473 0.0140916 0
-0.00243442 0.0133702 0
-0.00390524 0.0133422 0
-0.00248457 0.0137309 0
-0.00316983 0.0133562 0
-0.00321998 0.0137169 0
-0.00253476 0.0140927 0
-0.0025834 0.0147623 0
-0.00141089 0.0145957 0
-0.00255908 0.0144275 0
-0.00199714 0.014679 0
-0.00197282 0.0143442 0
-0.0025342 0.0140922 0
-0.00147803 0.0146628 0
-0.00236611 0.0134385 0
-0.00200611 0.0143775 0
-0.00192207 0.0140507 0
-0.00245015 0.0137654 0
-0.01089 0.00719623 0
-0.00793234 0.00869968 0
-0.0108821 0.00573406 0
-0.00941119 0.00794795 0
-0.00940722 0.00721687 0
-0.0108861 0.00646514 0
-0.01089 0.00719616 0
-0.0108591 0.00861543 0
-0.00793431 0.00870164 0
-0.0108745 0.00790579 0
-0.00939668 0.00865853 0
-0.00941214 0.0079489 0
-0.0108901 0.00719621 0
-0.0109721 0.00564401 0
-0.0139875 0.00573301 0
-0.0109311 0.00642011 0
-0.0124798 0.00568851 0
-0.0124388 0.00646461 0
-0.01089 0.00719614 0
-0.0139767 0.00572221 0
-0.0107778 0.00869673 0
-0.0124334 0.00645917 0
-0.0123772 0.00720947 0
-0.0108339 0.00794643 0
-0.00548084 0.0102118 0
-0.00794542 0.00873591 0
-0.0057048 0.0114244 0
-0.00671313 0.00947384 0
-0.00682511 0.0100802 0
-0.00559282 0.0108181 0
-0.00547993 0.0102109 0
-0.005193 0.00904494 0
-0.00788965 0.00868014 0
-0.00533646 0.00962791 0
-0.00654132 0.00886254 0
-0.00668479 0.00944551 0
-0.00547975 0.0102129 0
-0.00581937 0.0113099 0
-0.0033843 0.0115509 0
-0.00564956 0.0107614 0
-0.00460183 0.0114304 0
-0.00443203 0.0108819 0
-0.00547884 0.010212 0
-0.00345536 0.011622 0
-0.00505914 0.0091788 0
-0.0044671 0.010917 0
-0.00425725 0.0104004 0
-0.00526899 0.00969538 0
-0.00781148 0.00733136 0
-0.0108821 0.00561271 0
-0.00793234 0.0088042 0
-0.00934679 0.00647204 0
-0.00940722 0.00720846 0
-0.00787191 0.00806778 0
-0.00781084 0.007332 0
-0.0080564 0.00868014 0
-0.00499532 0.00904494 0
-0.00793362 0.00800607 0
-0.00652586 0.00886254 0
-0.00640308 0.00818847 0
-0.00781119 0.00733107 0
-0.00769437 0.00583969 0
-0.0108931 0.00562372 0
-0.00775278 0.00658538 0
-0.00929374 0.0057317 0
-0.00935215 0.00647739 0
-0.00781055 0.00733171 0
-0.00501728 0.00906691 0
-0.00753549 0.00599858 0
-0.00641391 0.00819931 0
-0.00627638 0.00753274 0
-0.00767302 0.00666514 0
-0.0142717 0.00415856 0
-0.0140162 0.00573301 0
-0.0109563 0.00564401 0
-0.014144 0.00494578 0
-0.0124863 0.00568851 0
-0.012614 0.00490129 0
-0.0142712 0.00415904 0
-0.0175487 0.00275114 0
-0.0139959 0.0057533 0
-0.01591 0.00345509 0
-0.0157723 0.00425222 0
-0.0141336 0.00495617 0
-0.014272 0.00415885 0
-0.0108961 0.00558376 0
-0.0146146 0.00255042 0
-0.012584 0.00487131 0
-0.0127554 0.00406709 0
-0.0144433 0.00335464 0
-0.0142715 0.00415933 0
-0.0146157 0.00254935 0
-0.0175913 0.00279371 0
-0.0144436 0.00335434 0
-0.0161035 0.00267153 0
-0.0159314 0.00347652 0
-0.0013212 0.013859 0
-0.00151722 0.0146176 0
-0.000610706 0.0140069 0
-0.00141921 0.0142383 0
-0.00106396 0.0143122 0
-0.000965951 0.0139329 0
-0.00132166 0.0138585 0
-0.00236611 0.013456 0
-0.00147803 0.0146568 0
-0.00184389 0.0136572 0
-0.00192207 0.0140564 0
-0.00139984 0.0142576 0
-0.00132062 0.0138584 0
-0.000665009 0.0140612 0
-0.00106764 0.0131526 0
-0.000992815 0.0139598 0
-0.000866325 0.0136069 0
-0.00119413 0.0135055 0
-0.00132109 0.0138579 0
-0.00109734 0.0131229 0
-0.00230023 0.0133901 0
-0.00120922 0.0134904 0
-0.00169879 0.0132565 0
-0.00181066 0.013624 0
-0.000754854 0.0146846 0
-0.000690293 0.0140069 0
-0.00143508 0.0146176 0
-0.000722574 0.0143458 0
-0.00106268 0.0143122 0
-0.00109496 0.0146511 0
-0.000755157 0.0146849 0
-0.00148479 0.0146673 0
-0.000714662 0.0153564 0
-0.00111998 0.0146761 0
-0.00109973 0.0150119 0
-0.00073491 0.0150207 0
-0.000754663 0.0146848 0
-0.000321599 0.0145478 0
-0.000668565 0.0140286 0
-0.000538131 0.0146163 0
-0.000495082 0.0142882 0
-0.000711614 0.0143567 0
-0.000754966 0.0146851 0
-0.000746739 0.0153244 0
-0.000283215 0.0145094 0
-0.000750853 0.0150047 0
-0.000514977 0.0149169 0
-0.000519091 0.0145973 0
-0.00201452 0.012539 0
-0.001642 0.0117656 0
-0.00339387 0.0115606 0
-0.00182826 0.0121523 0
-0.00251793 0.0116631 0
-0.00270419 0.0120498 0
-0.00201559 0.0125401 0
-0.00348052 0.0116473 0
-0.00235346 0.0134501 0
-0.00274806 0.0120937 0
-0.00291699 0.0125487 0
-0.00218453 0.0129951 0
-0.00201353 0.01254 0
-0.00105983 0.0132001 0
-0.00158736 0.0118202 0
-0.00153668 0.0128701 0
-0.0013236 0.0125102 0
-0.00180045 0.0121801 0
-0.0020146 0.0125411 0
-0.00241342 0.0133901 0
-0.00098263 0.0131229 0
-0.00221401 0.0129656 0
-0.00169802 0.0132565 0
-0.00149861 0.012832 0
-0.00298513 0.0106133 0
-0.0035607 0.0115606 0
-0.00146101 0.0117656 0
-0.00327291 0.0110869 0
-0.00251085 0.0116631 0
-0.00222307 0.0111894 0
-0.0029871 0.0106113 0
-0.00505914 0.00912564 0
-0.00345536 0.0116659 0
-0.00402312 0.00986846 0
-0.00425725 0.0103958 0
-0.00322123 0.0111386 0
-0.0029832 0.0106113 0
-0.00156549 0.0118701 0
-0.00239777 0.00986693 0
-0.00227435 0.0112407 0
-0.00198163 0.0108685 0
-0.00269049 0.0102391 0
-0.00298518 0.0106094 0
-0.00251198 0.00975271 0
-0.00495575 0.00902225 0
-0.00274858 0.010181 0
-0.00373387 0.00938748 0
-0.00397046 0.00981581 0
-0.000450809 0.0130821 0
-0.00106764 0.0132016 0
-0.000665009 0.0140326 0
-0.000759225 0.0131418 0
-0.000866325 0.0136171 0
-0.000557909 0.0135573 0
-0.000450555 0.0130818 0
-0.000235051 0.012211 0
-0.00102683 0.0131608 0
-0.000342803 0.0126464 0
-0.000630942 0.0126859 0
-0.000738693 0.0131213 0
-0.000450726 0.0130821 0
-0.000659198 0.0140385 0
-0.000138686 0.0126463 0
-0.000554962 0.0135603 0
-0.000398942 0.0133424 0
-0.000294706 0.0128642 0
-0.000450472 0.0130819 0
-0.000162562 0.0126702 0
-0.000257121 0.012189 0
-0.000306517 0.012876 0
-0.000209842 0.0124296 0
-0.000353797 0.0126354 0
-0.00068315 0.0122589 0
-0.00158736 0.0118815 0
-0.00105983 0.0131624 0
-0.00113526 0.0120702 0
-0.0013236 0.012522 0
-0.00087149 0.0127106 0
-0.000682815 0.0122592 0
-0.00106143 0.0131608 0
-0.000208016 0.012211 0
-0.000872121 0.01271 0
-0.000634721 0.0126859 0
-0.000445415 0.0122351 0
-0.000682597 0.0122583 0
-0.000355245 0.0115433 0
-0.00151724 0.0118114 0
-0.000518921 0.0119008 0
-0.000936242 0.0116773 0
-0.00109992 0.0120348 0
-0.000682262 0.0122587 0
-0.000256072 0.0122591 0
-0.00037394 0.0115246 0
-0.000469167 0.0122589 0
-0.000315006 0.0118918 0
-0.000528101 0.0118916 0
-0.000259003 0.013593 0
-0.000668565 0.0140611 0
-0.000321599 0.0145333 0
-0.000463784 0.0138271 0
-0.000495082 0.0142972 0
-0.000290301 0.0140631 0
-0.000259003 0.013593 0
-0.000317321 0.0145375 0
-7.07455e-05 0.0128951 0
-0.000288162 0.0140653 0
-0.000194033 0.0137163 0
-0.000164874 0.0132441 0
-0.000258857 0.0135929 0
-0.000144922 0.0126463 0
-0.000645919 0.0140385 0
-0.00020189 0.0131196 0
-0.00039542 0.0133424 0
-0.000452388 0.0138157 0
-0.000258857 0.0135929 0
-7.90572e-05 0.0129034 0
-0.000163243 0.012628 0
-0.000168957 0.0132482 0
-0.00012115 0.0127657 0
-0.00021105 0.0131105 0
-8.46589e-05 0.0138392 0
-0.000323785 0.0145478 0
9.28326e-07 0.0147013 0
-0.000204222 0.0141935 0
-0.000161428 0.0146245 0
-4.18653e-05 0.0142703 0
-8.45696e-05 0.0138391 0
-6.79696e-05 0.0128951 0
-0.000313561 0.0145375 0
-7.62696e-05 0.0133671 0
-0.000190765 0.0137163 0
-0.000199065 0.0141883 0
-8.47052e-05 0.0138392 0
-4.96808e-07 0.0146999 0
-2.68175e-06 0.0129763 0
-4.2601e-05 0.0142695 0
-1.58928e-06 0.0138381 0
-4.36935e-05 0.0134077 0
-8.46159e-05 0.0138391 0
2.82827e-07 0.0129733 0
-7.9647e-05 0.0128834 0
-4.21665e-05 0.0134062 0
-3.96821e-05 0.0129284 0
-8.21314e-05 0.0133613 0
-0.0179709 0.00128344 0
-0.0184845 0 0
-0.0210514 0 0
-0.0182277 0.000641719 0
-0.0197679 0 0
-0.0195111 0.000641719 0
-0.0179713 0.00128379 0
-0.0210632 1.18431e-05 0
-0.0175906 0.00272308 0
-0.0195172 0.000647816 0
-0.0193269 0.00136746 0
-0.017781 0.00200344 0
-0.0179713 0.00128304 0
-0.0146827 0.00248832 0
-0.0186281 -0.000143602 0
-0.016327 0.00188568 0
-0.0166554 0.00117236 0
-0.0182997 0.000569717 0
-0.0179717 0.00128339 0
-0.01752 0.00279371 0
-0.0147437 0.00254935 0
-0.0177459 0.00203855 0
-0.0161319 0.00267153 0
-0.0163577 0.00191637 0
-0.0153978 0.00110565 0
-0.0186281 -6.4188e-05 0
-0.0146827 0.00245103 0
-0.0170129 0.000520729 0
-0.0166554 0.00119342 0
-0.0150402 0.00177834 0
-0.0153991 0.00110433 0
-0.0145653 0.00256844 0
-0.0118045 0.00240101 0
-0.0149822 0.00183639 0
-0.0131849 0.00248472 0
-0.0136018 0.00175267 0
-0.0153976 0.00110549 0
-0.0164813 0 0
-0.0186923 0 0
-0.0159395 0.000552744 0
-0.0175868 0 0
-0.0170449 0.000552744 0
-0.0153989 0.00110418 0
-0.0115988 0.00219528 0
-0.0167425 -0.000261259 0
-0.0134988 0.00164973 0
-0.0141707 0.000967011 0
-0.0160707 0.000421458 0
-0.0111436 0.00406646 0
-0.0146146 0.00245803 0
-0.0108961 0.00568145 0
-0.0128791 0.00326225 0
-0.0127554 0.00406974 0
-0.0110198 0.00487396 0
-0.0111443 0.0040671 0
-0.0115603 0.00240101 0
-0.0147251 0.00256844 0
-0.0113523 0.00323405 0
-0.0131427 0.00248472 0
-0.0129347 0.00331777 0
-0.0111443 0.00406585 0
-0.0109538 0.00562372 0
-0.00762207 0.00583969 0
-0.011049 0.00484478 0
-0.00928793 0.0057317 0
-0.00938316 0.00495277 0
-0.0111449 0.00406649 0
-0.00751589 0.00573351 0
-0.0115008 0.00246045 0
-0.00933039 0.0049 0
-0.00950837 0.00409698 0
-0.0113229 0.00326347 0
-0.00458679 0.00789538 0
-0.00423786 0.00678197 0
-0.00747832 0.00576834 0
-0.00441233 0.00733868 0
-0.00585809 0.00627516 0
-0.00603255 0.00683186 0
-0.00458902 0.00789761 0
-0.00753549 0.00582552 0
-0.00501728 0.00920025 0
-0.00606226 0.00686157 0
-0.00627638 0.00751288 0
-0.00480315 0.00854893 0
-0.00458399 0.00789818 0
-0.00232812 0.0098597 0
-0.00399999 0.00701984 0
-0.00345606 0.00887894 0
-0.00316406 0.00843977 0
-0.00429199 0.00745901 0
-0.00458622 0.00790041 0
-0.00519528 0.00902225 0
-0.00222113 0.00975271 0
-0.00489075 0.00846133 0
-0.0037082 0.00938748 0
-0.00340368 0.00882656 0
-0.00763674 0.00438287 0
-0.00769934 0.00576834 0
-0.00391477 0.00678197 0
-0.00766804 0.00507561 0
-0.00580706 0.00627516 0
-0.00577576 0.00558242 0
-0.00763682 0.00438279 0
-0.0115008 0.00220871 0
-0.00751589 0.0059518 0
-0.00956884 0.00329575 0
-0.00950837 0.00408025 0
-0.00757636 0.00516729 0
-0.00763786 0.00438399 0
-0.00384286 0.00671005 0
-0.0077088 0.00298599 0
-0.00574036 0.00554702 0
-0.00577583 0.00484802 0
-0.00767333 0.00368499 0
-0.00763795 0.00438391 0
-0.00800815 0.00268664 0
-0.0116907 0.0023986 0
-0.00782305 0.00353527 0
-0.00984944 0.00254262 0
-0.00966434 0.00339125 0
-0.00165196 0.00908759 0
-0.00399999 0.00691543 0
-0.00232812 0.00993962 0
-0.00282598 0.00800151 0
-0.00316406 0.00842753 0
-0.00199004 0.00951361 0
-0.0016465 0.00909306 0
-0.00247677 0.00979098 0
-0.000348237 0.0105237 0
-0.00206163 0.00944202 0
-0.0014125 0.0101573 0
-0.000997367 0.00980837 0
-0.00164629 0.00908192 0
-0.00111497 0.00879147 0
-0.00378595 0.00670138 0
-0.00138063 0.00893669 0
-0.00245046 0.00774643 0
-0.00271612 0.00789165 0
-0.00164082 0.00908738 0
-0.00053079 0.0107062 0
-0.000975531 0.00893091 0
-0.00108581 0.00989681 0
-0.000753161 0.00981857 0
-0.00130818 0.00900914 0
-0.00101497 0.0110153 0
-0.00239777 0.00991213 0
-0.00156549 0.0118454 0
-0.00170637 0.0104637 0
-0.00198163 0.0108788 0
-0.00129023 0.0114304 0
-0.00101335 0.0110137 0
-0.000563953 0.0105237 0
-0.00227662 0.00979098 0
-0.00078865 0.0107687 0
-0.00142029 0.0101573 0
-0.00164498 0.0104023 0
-0.00101361 0.0110166 0
-0.00159956 0.0118114 0
-0.000278195 0.0115433 0
-0.00130659 0.011414 0
-0.000938879 0.0116773 0
-0.000645902 0.01128 0
-0.00101199 0.011015 0
-0.000370969 0.011636 0
-0.0005523 0.0105353 0
-0.000691479 0.0113255 0
-0.000461634 0.0110857 0
-0.000782144 0.0107752 0
-0.0129119 0.000976806 0
-0.0150454 0 0
-0.016999 0 0
-0.0139786 0.000488403 0
-0.0160222 0 0
-0.0149554 0.000488403 0
-0.0129105 0.00097544 0
-0.0167425 -0.000256425 0
-0.0115988 0.00226389 0
-0.0148265 0.000359508 0
-0.0141707 0.00100373 0
-0.0122546 0.00161966 0
-0.0129162 0.000972502 0
-0.00778533 0.00215087 0
-0.0154708 -0.000425392 0
-0.0103507 0.00156169 0
-0.011628 0.000862738 0
-0.0141935 0.000273555 0
-0.0129148 0.000971137 0
-0.0114641 0.0023986 0
-0.00832109 0.00268664 0
-0.0121894 0.00168487 0
-0.00989257 0.00254262 0
-0.010618 0.00182889 0
-0.00342922 0.0058346 0
-0.0077088 0.00242101 0
-0.00384286 0.00711423 0
-0.00556901 0.0041278 0
-0.00577583 0.00476762 0
-0.00363604 0.00647442 0
-0.00341927 0.00582465 0
-0.00363748 0.00517182 0
-0.00770137 0.00241358 0
-0.00352837 0.00549824 0
-0.00566943 0.0037927 0
-0.00556032 0.00411911 0
-0.00341615 0.00584767 0
-0.00425571 0.00670138 0
-0.000458204 0.00879147 0
-0.00383593 0.00627453 0
-0.00235696 0.00774643 0
-0.00193717 0.00731957 0
-0.00340619 0.00583772 0
-0.000745186 0.00907845 0
-0.00289902 0.00591028 0
-0.00207569 0.00745809 0
-0.00182211 0.00749437 0
-0.00315261 0.005874 0
-0.0099125 0.00125636 0
-0.0154708 -0.000813696 0
-0.00778533 0.00261738 0
-0.0126916 0.00022133 0
-0.011628 0.00090184 0
-0.00884891 0.00193687 0
-0.00993534 0.00123352 0
-0.00798912 0.00241358 0
-0.00287075 0.00517182 0
-0.00896223 0.00182355 0
-0.00542994 0.0037927 0
-0.00640305 0.00320267 0
-0.00992979 0.00127364 0
-0.0137372 0 0
-0.0162845 0 0
-0.0118335 0.00063682 0
-0.0150108 0 0
-0.0131071 0.00063682 0
-0.00995263 0.0012508 0
-0.00155821 0.00385928 0
-0.0141125 -0.000375297 0
-0.00575542 0.00255504 0
-0.00783534 0.00174199 0
-0.0120325 0.000437751 0
-0.0024379 0.00474265 0
-0.00853936 0 0
-0.0180247 0 0
-0.00548863 0.00237132 0
-0.013282 0 0
-0.0102313 0.00237132 0
-0.00264119 0.00494594 0
-0.0141125 -0.00391219 0
-0.00155821 0.00647611 0
-0.00837683 0.000516876 0
-0.00783534 0.00128196 0
-0.0020997 0.00571103 0
-0.00216551 0.00501504 0
0 0.0128704 0
0 0.00853936 0
-0.00108275 0.00894271 0
0 0.0107049 0
-0.00108275 0.0067772 0
-0.0023688 0.00521833 0
-0.00291904 0.00511528 0
0.00231498 0.0105554 0
-0.00264392 0.0051668 0
-0.00030203 0.00783534 0
-2.69089e-05 0.00788686 0
-0.000120067 0.00912681 0
0 0.0104123 0
0 0.0101721 0
-6.00334e-05 0.00976955 0
0 0.0102922 0
-6.00334e-05 0.00964948 0
-0.000102642 0.00914424 0
0.000383247 0.0105554 0
-0.00223455 0.00511528 0
0.000140302 0.00984982 0
-0.000925651 0.00783534 0
-0.0011686 0.00712976 0
-0.000108114 0.00911486 0
-0.000922108 0.00906567 0
0.000163062 0.0102492 0
-0.000515111 0.00909026 0
-0.000379523 0.00965744 0
2.74738e-05 0.00968204 0
-9.06892e-05 0.00913228 0
-0.00289902 0.00577976 0
-0.000745186 0.00924259 0
-0.00149486 0.00745602 0
-0.00182211 0.00751117 0
-0.000417938 0.00918744 0
-5.15445e-05 0.0101814 0
0.000172904 0.0102492 0
-0.000875093 0.00906567 0
6.06797e-05 0.0102153 0
-0.000351095 0.00965744 0
-0.000463319 0.00962355 0
-4.59778e-05 0.0101759 0
-0.000975531 0.0091661 0
-0.00053079 0.0105805 0
-0.000510754 0.00967099 0
-0.000753161 0.00987329 0
-0.000288384 0.0103782 0
-5.79896e-05 0.010175 0
0 0.0101923 0
0 0.0100763 0
-2.89948e-05 0.0101836 0
0 0.0101343 0
-2.89948e-05 0.0101257 0
-5.24229e-05 0.0101694 0
-0.000455109 0.0106562 0
2.7239e-05 0.0101651 0
-0.000253766 0.0104128 0
-0.000213935 0.0104106 0
-1.2592e-05 0.0101672 0
-4.32089e-05 0.0107234 0
0 0.0101384 0
0 0.010052 0
-2.16045e-05 0.0104309 0
0 0.0100952 0
-2.16045e-05 0.0103877 0
-4.06564e-05 0.0107259 0
0.000113088 0.0101651 0
-0.000517532 0.0106562 0
3.62159e-05 0.0104455 0
-0.000202222 0.0104106 0
-0.000279094 0.010691 0
-4.1009e-05 0.0107212 0
-0.000296837 0.0116114 0
5.31639e-06 0.0101331 0
-0.000168923 0.0111663 0
-0.00014576 0.0108722 0
-1.78463e-05 0.0104271 0
-3.84565e-05 0.0107237 0
-0.0005523 0.0106909 0
-0.000370969 0.0115373 0
-0.000295378 0.0107073 0
-0.000461634 0.0111141 0
-0.000204713 0.0111305 0
-3.09708e-05 0.0110951 0
8.39764e-05 0.0101331 0
-0.000361811 0.0116114 0
2.65028e-05 0.0106141 0
-0.000138917 0.0108722 0
-0.000196391 0.0113533 0
-3.01586e-05 0.0110943 0
-0.00037394 0.0116235 0
-0.000256072 0.0121932 0
-0.00020205 0.0113589 0
-0.000315006 0.0119084 0
-0.000143115 0.0116438 0
-3.19951e-05 0.0110941 0
0 0.0101131 0
0 0.0100491 0
-1.59975e-05 0.0106036 0
0 0.0100811 0
-1.59975e-05 0.0105716 0
-3.11829e-05 0.0110933 0
-0.000194509 0.0122548 0
-6.61124e-06 0.0101197 0
-0.000112846 0.011674 0
-0.00010056 0.0111872 0
-1.88971e-05 0.0106065 0
-2.24455e-05 0.0113498 0
0 0.0100974 0
0 0.0100525 0
-1.12227e-05 0.0107236 0
0 0.010075 0
-1.12227e-05 0.0107011 0
-2.19816e-05 0.0113502 0
6.71894e-05 0.0101197 0
-0.000258759 0.0122548 0
2.26039e-05 0.010735 0
-9.57847e-05 0.0111872 0
-0.00014037 0.0118025 0
-2.21458e-05 0.0113495 0
-0.000112062 0.01268 0
-1.68004e-05 0.0101142 0
-6.7104e-05 0.0120147 0
-6.44313e-05 0.0113971 0
-1.94731e-05 0.0107318 0
-2.1682e-05 0.0113499 0
-0.000257121 0.0122532 0
-0.000162562 0.0126295 0
-0.000139402 0.0118015 0
-0.000209842 0.0124413 0
-9.21219e-05 0.0119897 0
-1.30246e-05 0.0115126 0
5.50262e-05 0.0101142 0
-0.000176039 0.01268 0
2.10008e-05 0.0108134 0
-6.05062e-05 0.0113971 0
-9.45316e-05 0.0120963 0
-1.29423e-05 0.0115125 0
-0.000163243 0.0126672 0
-7.90572e-05 0.0128836 0
-8.80927e-05 0.0120899 0
-0.00012115 0.0127754 0
-4.59997e-05 0.0121981 0
-1.32493e-05 0.0115124 0
0 0.0100857 0
0 0.0100592 0
-6.62466e-06 0.010799 0
0 0.0100724 0
-6.62466e-06 0.0107858 0
-1.31671e-05 0.0115123 0
-3.81598e-05 0.0129245 0
-2.63104e-05 0.010112 0
-2.56634e-05 0.0122184 0
-3.22351e-05 0.0115182 0
-1.97387e-05 0.0108121 0
-4.38245e-06 0.0115917 0
0 0.0100758 0
0 0.0100671 0
-2.19123e-06 0.0108338 0
0 0.0100715 0
-2.19123e-06 0.0108294 0
-4.2739e-06 0.0115918 0
4.49089e-05 0.010112 0
-0.00010228 0.0129245 0
2.03175e-05 0.0108519 0
-2.86854e-05 0.0115182 0
-5.32768e-05 0.0122582 0
-4.40794e-06 0.0115917 0
3.21075e-05 0.0130044 0
-3.55507e-05 0.0101114 0
1.38498e-05 0.0122981 0
-1.72162e-06 0.0115579 0
-1.99793e-05 0.0108516 0
-4.29938e-06 0.0115919 0
-7.9647e-05 0.0129019 0
2.82827e-07 0.0129726 0
-4.19732e-05 0.0122469 0
-3.96821e-05 0.0129372 0
-2.00828e-06 0.0122822 0
4.40794e-06 0.0115917 0
3.55507e-05 0.0101114 0
-3.21075e-05 0.0130044 0
1.99793e-05 0.0108516 0
1.72162e-06 0.0115579 0
-1.38498e-05 0.0122981 0
4.29938e-06 0.0115919 0
-2.82827e-07 0.0129726 0
7.9647e-05 0.0129019 0
2.00828e-06 0.0122822 0
3.96821e-05 0.0129372 0
4.19732e-05 0.0122469 0
4.38245e-06 0.0115917 0
0 0.0100671 0
0 0.0100758 0
2.19123e-06 0.0108294 0
0 0.0100715 0
2.19123e-06 0.0108338 0
4.2739e-06 0.0115918 0
0.00010228 0.0129245 0
-4.49089e-05 0.010112 0
5.32768e-05 0.0122582 0
2.86854e-05 0.0115182 0
-2.03175e-05 0.0108519 0
1.32493e-05 0.0115124 0
0 0.0100592 0
0 0.0100857 0
6.62466e-06 0.0107858 0
0 0.0100724 0
6.62466e-06 0.010799 0
1.31671e-05 0.0115123 0
2.63104e-05 0.010112 0
3.81598e-05 0.0129245 0
1.97387e-05 0.0108121 0
3.22351e-05 0.0115182 0
2.56634e-05 0.0122184 0
1.30246e-05 0.0115126 0
0.000176039 0.01268 0
-5.50262e-05 0.0101142 0
9.45316e-05 0.0120963 0
6.05062e-05 0.0113971 0
-2.10008e-05 0.0108134 0
1.29423e-05 0.0115125 0
7.90572e-05 0.0128836 0
0.000163243 0.0126672 0
4.59997e-05 0.0121981 0
0.00012115 0.0127754 0
8.80927e-05 0.0120899 0
2.21458e-05 0.0113495 0
1.68004e-05 0.0101142 0
0.000112062 0.01268 0
1.94731e-05 0.0107318 0
6.44313e-05 0.0113971 0
6.7104e-05 0.0120147 0
2.1682e-05 0.0113499 0
0.000162562 0.0126295 0
0.000257121 0.0122532 0
9.21219e-05 0.0119897 0
0.000209842 0.0124413 0
0.000139402 0.0118015 0
2.24455e-05 0.0113498 0
0 0.0100525 0
0 0.0100974 0
1.12227e-05 0.0107011 0
0 0.010075 0
1.12227e-05 0.0107236 0
2.19816e-05 0.0113502 0
0.000258759 0.0122548 0
-6.71894e-05 0.0101197 0
0.00014037 0.0118025 0
9.57847e-05 0.0111872 0
-2.26039e-05 0.010735 0
3.19951e-05 0.0110941 0
0 0.0100491 0
0 0.0101131 0
1.59975e-05 0.0105716 0
0 0.0100811 0
1.59975e-05 0.0106036 0
3.11829e-05 0.0110933 0
6.61124e-06 0.0101197 0
0.000194509 0.0122548 0
1.88971e-05 0.0106065 0
0.00010056 0.0111872 0
0.000112846 0.011674 0
3.09708e-05 0.0110951 0
0.000361811 0.0116114 0
-8.39764e-05 0.0101331 0
0.000196391 0.0113533 0
0.000138917 0.0108722 0
-2.65028e-05 0.0106141 0
3.01586e-05 0.0110943 0
0.000256072 0.0121932 0
0.00037394 0.0116235 0
0.000143115 0.0116438 0
0.000315006 0.0119084 0
0.00020205 0.0113589 0
4.1009e-05 0.0107212 0
-5.31639e-06 0.0101331 0
0.000296837 0.0116114 0
1.78463e-05 0.0104271 0
0.00014576 0.0108722 0
0.000168923 0.0111663 0
3.84565e-05 0.0107237 0
0.000370969 0.0115373 0
0.0005523 0.0106909 0
0.000204713 0.0111305 0
0.000461634 0.0111141 0
0.000295378 0.0107073 0
4.32089e-05 0.0107234 0
0 0.010052 0
0 0.0101384 0
2.16045e-05 0.0103877 0
0 0.0100952 0
2.16045e-05 0.0104309 0
4.06564e-05 0.0107259 0
0.000517532 0.0106562 0
-0.000113088 0.0101651 0
0.000279094 0.010691 0
0.000202222 0.0104106 0
-3.62159e-05 0.0104455 0
5.79896e-05 0.010175 0
0 0.0100763 0
0 0.0101923 0
2.89948e-05 0.0101257 0
0 0.0101343 0
2.89948e-05 0.0101836 0
5.24229e-05 0.0101694 0
-2.7239e-05 0.0101651 0
0.000455109 0.0106562 0
1.2592e-05 0.0101672 0
0.000213935 0.0104106 0
0.000253766 0.0104128 0
5.15445e-05 0.0101814 0
0.000875093 0.00906567 0
-0.000172904 0.0102492 0
0.000463319 0.00962355 0
0.000351095 0.00965744 0
-6.06797e-05 0.0102153 0
4.59778e-05 0.0101759 0
0.00053079 0.0105805 0
0.000975531 0.0091661 0
0.000288384 0.0103782 0
0.000753161 0.00987329 0
0.000510754 0.00967099 0
0.000108114 0.00911486 0
-0.000163062 0.0102492 0
0.000922108 0.00906567 0
-2.74738e-05 0.00968204 0
0.000379523 0.00965744 0
0.000515111 0.00909026 0
9.06892e-05 0.00913228 0
0.000745186 0.00924259 0
0.00289902 0.00577976 0
0.000417938 0.00918744 0
0.00182211 0.00751117 0
0.00149486 0.00745602 0
0.000120067 0.00912681 0
0 0.0101721 0
0 0.0104123 0
6.00334e-05 0.00964948 0
0 0.0102922 0
6.00334e-05 0.00976955 0
0.000102642 0.00914424 0
0.00223455 0.00511528 0
-0.000383247 0.0105554 0
0.0011686 0.00712976 0
0.000925651 0.00783534 0
-0.000140302 0.00984982 0
0.0024379 0.00474265 0
0.0180247 0 0
0.00853936 0 0
0.0102313 0.00237132 0
0.013282 0 0
0.00548863 0.00237132 0
0.00264119 0.00494594 0
0.00155821 0.00647611 0
0.0141125 -0.00391219 0
0.0020997 0.00571103 0
0.00783534 0.00128196 0
0.00837683 0.000516876 0
0.00216551 0.00501504 0
0 0.00853936 0
0 0.0128704 0
0.00108275 0.0067772 0
0 0.0107049 0
0.00108275 0.00894271 0
0.0023688 0.00521833 0
-0.00231498 0.0105554 0
0.00291904 0.00511528 0
2.69089e-05 0.00788686 0
0.00030203 0.00783534 0
0.00264392 0.0051668 0
VECTORS stress_2 float
0.0132038 0.00585994 0
0.0106968 0.0225332 0
0.0223737 0.0158703 0
0.0119503 0.0141966 0
0.0165352 0.0192018 0
0.0177888 0.0108651 0
0.0126258 0.00643793 0
0.0103551 0.0049334 0
0.0178213 0.0154087 0
0.0114905 0.00568566 0
0.0140882 0.010171 0
0.0152236 0.0109233 0
0.0124941 0.00515018 0
0.00650341 0 0
-0.00379696 0 0
0.00949873 0.00257509 0
0.00135322 0 0
0.00434855 0.00257509 0
0.0119161 0.00572817 0
0.000572475 -0.00436943 0
0.012156 0.00673427 0
0.00624427 0.000679368 0
0.00636421 0.00118242 0
0.012036 0.00623122 0
0.0114691 0.0119019 0
0.00829414 0.0152583 0
0.0149885 0.0149139 0
0.00988162 0.0135801 0
0.0116413 0.0150861 0
0.0132288 0.0134079 0
0.0114836 0.0119163 0
0.0154833 0.0154087 0
0.0119927 0.0049334 0
0.0134834 0.0136625 0
0.013738 0.010171 0
0.0117381 0.00842487 0
0.0114848 0.0118862 0
0.012226 0.00804081 0
0.0100234 0.0135291 0
0.0118554 0.00996351 0
0.0111247 0.0107849 0
0.0107541 0.0127076 0
0.0114992 0.0119007 0
0.0104121 0.00651405 0
0.0116428 0.00745766 0
0.0109556 0.00920735 0
0.0110274 0.00698585 0
0.011571 0.00967916 0
0.00990643 0.00448296 0
0.00983569 0.00361409 0
0.0121156 0.00763171 0
0.00987106 0.00404852 0
0.0109756 0.0056229 0
0.011011 0.00605734 0
0.00989874 0.00449065 0
0.0116428 0.00810448 0
0.0104121 0.00584711 0
0.0107708 0.00629756 0
0.0110274 0.00697579 0
0.0101554 0.00516888 0
0.00990932 0.00448586 0
0.00658403 0.00101902 0
0.0102376 0.00401601 0
0.00824668 0.00275244 0
0.00841082 0.00251751 0
0.0100735 0.00425093 0
0.00990163 0.00449354 0
0.0095559 0.00499096 0
0.00658141 0.00102164 0
0.00972877 0.00474225 0
0.00806866 0.0030063 0
0.00824152 0.00275759 0
0.0110006 0.00622397 0
0.011502 0.00763171 0
0.0102999 0.00361409 0
0.0112513 0.00692784 0
0.010901 0.0056229 0
0.0106503 0.00491903 0
0.0109964 0.00621971 0
0.0107432 0.00802037 0
0.0115701 0.00769979 0
0.0108698 0.00712004 0
0.0111566 0.00786008 0
0.0112832 0.00695975 0
0.0110055 0.00621908 0
0.00999162 0.00392236 0
0.0112023 0.00473945 0
0.0104986 0.00507072 0
0.0105969 0.00433091 0
0.0111039 0.00547927 0
0.0110012 0.00621483 0
0.011186 0.00472322 0
0.0111216 0.00764198 0
0.0110936 0.00546903 0
0.0111538 0.0061826 0
0.0110614 0.00692841 0
0.0105677 0.0100576 0
0.0106484 0.0135291 0
0.0121031 0.00804081 0
0.010608 0.0117933 0
0.0113757 0.0107849 0
0.0113354 0.00904919 0
0.0105679 0.0100574 0
0.0115701 0.0085738 0
0.0107432 0.00739624 0
0.011069 0.0093156 0
0.0111566 0.00798502 0
0.0106555 0.00872681 0
0.0105641 0.010054 0
0.00882674 0.0104419 0
0.00993135 0.012812 0
0.00969544 0.0102479 0
0.00937904 0.011627 0
0.0102477 0.011433 0
0.0105643 0.0100538 0
0.0111292 0.0077823 0
0.00903623 0.0102324 0
0.0108468 0.00891807 0
0.0100827 0.00900733 0
0.00980027 0.0101431 0
0.00472337 0.000354942 0
5.05247e-05 0 0
-0.000659359 0 0
0.00238695 0.000177471 0
-0.000304417 0 0
0.002032 0.000177471 0
0.00477409 0.000405666 0
0.012156 0.0037022 0
0.000572475 0.000521951 0
0.00846502 0.00205393 0
0.00636421 0.00211207 0
0.00267328 0.000463808 0
0.00466832 0.000409988 0
0.000104367 -0.000763726 0
0.00661146 0.00185708 0
0.00238634 -0.000176869 0
0.00335792 0.000546678 0
0.00563989 0.00113353 0
0.00471904 0.000460713 0
0.00577602 0.00102164 0
0.0108672 0.00499096 0
0.00524753 0.000741174 0
0.0083216 0.0030063 0
0.00779312 0.00272584 0
0.00754598 0.00172527 0
0.0102376 0.00352634 0
0.00658403 0.00179666 0
0.0088918 0.00262581 0
0.00841082 0.0026615 0
0.00706501 0.00176097 0
0.00753903 0.00171832 0
0.00623003 0.00144266 0
0.00469963 0.000463579 0
0.00688453 0.00158049 0
0.00546483 0.000953121 0
0.00611933 0.00109095 0
0.0075396 0.00173165 0
0.00827784 0.001642 0
0.0101102 0.00365371 0
0.00790872 0.00168682 0
0.00919405 0.00264785 0
0.00882493 0.00269268 0
0.00753265 0.0017247 0
0.00486893 0.00029428 0
0.00856325 0.00192741 0
0.00620079 0.00100949 0
0.00671609 0.00111084 0
0.00804795 0.00182605 0
0.00279845 0.00013408 0
0.00661146 0.00110134 0
0.000104367 -1.75908e-05 0
0.00470496 0.000617709 0
0.00335792 0.000541874 0
0.00145141 5.82447e-05 0
0.00279378 0.00013875 0
0.0046414 0.000463579 0
0.00627014 0.00144266 0
0.00371759 0.000301165 0
0.00545577 0.000953121 0
0.00453196 0.000790706 0
0.0027955 0.000131133 0
0.000121958 0 0
-0.000140308 0 0
0.00145873 6.55663e-05 0
-9.17486e-06 0 0
0.0013276 6.55663e-05 0
0.00279083 0.000135803 0
2.63061e-05 -0.000166614 0
0.00478328 0.000605464 0
0.00140857 -1.54054e-05 0
0.00240479 0.000219425 0
0.00378706 0.000370633 0
0.00983076 0.00816249 0
0.00849924 0.0078128 0
0.00902877 0.0099463 0
0.009165 0.00798764 0
0.00876401 0.00887955 0
0.00942976 0.00905439 0
0.00983161 0.00816334 0
0.00931484 0.0102324 0
0.0110028 0.0077823 0
0.00957322 0.00919785 0
0.0101588 0.00900733 0
0.0104172 0.00797282 0
0.00983085 0.00816239 0
0.0106458 0.00652242 0
0.00857773 0.00773431 0
0.0102383 0.00734241 0
0.00961176 0.00712837 0
0.00920429 0.00794835 0
0.00983171 0.00816324 0
0.010852 0.00793312 0
0.0104339 0.00631059 0
0.0103419 0.00804818 0
0.010643 0.00712185 0
0.0101328 0.00723692 0
0.0110949 0.00598953 0
0.0115276 0.00461198 0
0.0106071 0.00644657 0
0.0113113 0.00530075 0
0.0110673 0.00552927 0
0.010851 0.00621805 0
0.0110936 0.00599091 0
0.0104339 0.0066197 0
0.010852 0.00752088 0
0.0107638 0.0063053 0
0.010643 0.00707029 0
0.0109728 0.00675589 0
0.0110968 0.00599138 0
0.0111372 0.00493881 0
0.0114554 0.0045398 0
0.011117 0.0054651 0
0.0112963 0.00473931 0
0.0112761 0.00526559 0
0.0110954 0.00599276 0
0.0109731 0.00764198 0
0.0113528 0.00472322 0
0.0110343 0.00681737 0
0.0111629 0.0061826 0
0.0112241 0.00535799 0
0.00949055 0.00624509 0
0.00875704 0.00773431 0
0.0105236 0.00652242 0
0.0091238 0.0069897 0
0.00964032 0.00712837 0
0.0100071 0.00638375 0
0.00949039 0.00624524 0
0.0104737 0.00657228 0
0.0102359 0.00484341 0
0.00998207 0.00640876 0
0.0103548 0.00570784 0
0.00986315 0.00554433 0
0.00949044 0.00624498 0
0.0083932 0.00559696 0
0.00860369 0.00758095 0
0.00894182 0.00592097 0
0.00849844 0.00658896 0
0.00904707 0.00691297 0
0.00949028 0.00624513 0
0.0103636 0.0049711 0
0.00841729 0.00557287 0
0.00992694 0.00560811 0
0.00939044 0.00527198 0
0.00895379 0.005909 0
0.0110118 0.00503262 0
0.0105836 0.00644657 0
0.0115769 0.00461198 0
0.0107977 0.0057396 0
0.0110803 0.00552927 0
0.0112944 0.0048223 0
0.0110107 0.00503157 0
0.0102359 0.00502492 0
0.0104737 0.00633668 0
0.0106233 0.00502824 0
0.0103548 0.0056808 0
0.0107422 0.00568412 0
0.0110125 0.00503191 0
0.011454 0.00473493 0
0.0115555 0.00375037 0
0.0112332 0.00488342 0
0.0115048 0.00424265 0
0.011284 0.00439114 0
0.0110114 0.00503086 0
0.0116303 0.00382511 0
0.0103272 0.00493358 0
0.0113208 0.00442799 0
0.0109788 0.00437935 0
0.0106693 0.00498222 0
0.0101459 0.00325472 0
0.0112023 0.00479904 0
0.00999162 0.00389689 0
0.0106741 0.00402688 0
0.0105969 0.00434796 0
0.0100688 0.00357581 0
0.0101465 0.00325408 0
0.0105319 0.00262675 0
0.0113259 0.00467542 0
0.0103392 0.00294042 0
0.0109289 0.00365109 0
0.0107362 0.00396475 0
0.0101456 0.00325443 0
0.00974844 0.00365371 0
0.00853529 0.001642 0
0.00994701 0.00345407 0
0.00914187 0.00264785 0
0.00934044 0.00244821 0
0.0101462 0.00325379 0
0.00850251 0.00167478 0
0.0106849 0.00277979 0
0.00932437 0.00246428 0
0.00959371 0.00222728 0
0.0104156 0.00301679 0
0.0113082 0.00382365 0
0.0114554 0.0047106 0
0.0111372 0.00473448 0
0.0113818 0.00426712 0
0.0112963 0.00472254 0
0.0112227 0.00427906 0
0.0113093 0.00382468 0
0.0110781 0.00467542 0
0.0107309 0.00262675 0
0.0111937 0.00425005 0
0.0109045 0.00365109 0
0.0110201 0.00322571 0
0.0113095 0.00382238 0
0.0117241 0.00294 0
0.0115927 0.00457332 0
0.0115168 0.00338119 0
0.0116584 0.00375666 0
0.0114511 0.00419785 0
0.0113105 0.00382341 0
0.0106185 0.00273923 0
0.011763 0.00297883 0
0.0109645 0.00328132 0
0.0111907 0.00285903 0
0.0115368 0.00340112 0
0.0110657 0.00226298 0
0.011636 0.00178003 0
0.0118226 0.00293254 0
0.0113508 0.00202151 0
0.0117293 0.00235629 0
0.0114442 0.00259776 0
0.0110655 0.00226317 0
0.011763 0.00299216 0
0.0106185 0.00274174 0
0.0114142 0.00262766 0
0.0111907 0.00286695 0
0.010842 0.00250246 0
0.0110656 0.00226289 0
0.0100453 0.0014731 0
0.0117075 0.00185158 0
0.0105554 0.001868 0
0.0108764 0.00166234 0
0.0113866 0.00205724 0
0.0110654 0.00226309 0
0.01052 0.00264329 0
0.0100777 0.00144061 0
0.0107927 0.00245319 0
0.0102989 0.00204195 0
0.0105716 0.00185185 0
0.012161 0.00233501 0
0.0116985 0.00293254 0
0.0117411 0.00178003 0
0.0119298 0.00263377 0
0.0117198 0.00235629 0
0.011951 0.00205752 0
0.0121606 0.00233463 0
0.0123347 0.00271555 0
0.0117341 0.00296809 0
0.0122477 0.00252509 0
0.0120344 0.00284182 0
0.0119474 0.00265136 0
0.0121615 0.00233452 0
0.0116821 0.001839 0
0.0127251 0.00175486 0
0.0119218 0.00208676 0
0.0122036 0.00179693 0
0.0124433 0.00204469 0
0.0121611 0.00233413 0
0.0126993 0.0017291 0
0.0124052 0.00264505 0
0.0124302 0.00203162 0
0.0125522 0.00218707 0
0.0122832 0.00248959 0
0.0118342 0.00357365 0
0.0114713 0.00457332 0
0.0118373 0.00294 0
0.0116527 0.00407349 0
0.0116543 0.00375666 0
0.0118358 0.00325682 0
0.011835 0.00357285 0
0.0117341 0.00304322 0
0.0123347 0.00264451 0
0.0117845 0.00330803 0
0.0120344 0.00284387 0
0.0120848 0.00310868 0
0.0118334 0.00357281 0
0.0115555 0.0038988 0
0.011454 0.00455604 0
0.0116944 0.0037358 0
0.0115048 0.00422742 0
0.0116437 0.00406442 0
0.0118342 0.003572 0
0.0123464 0.00265625 0
0.0116565 0.00379783 0
0.0120903 0.00311413 0
0.0120015 0.00322704 0
0.0117453 0.00368492 0
0.00920885 0.0016749 0
0.00755216 0.000776105 0
0.0100758 0.00156586 0
0.00838051 0.0012255 0
0.00881397 0.00117098 0
0.00964231 0.00162038 0
0.00921035 0.0016764 0
0.00995053 0.00144061 0
0.0106816 0.00264329 0
0.00958044 0.00155851 0
0.0103161 0.00204195 0
0.00994599 0.00215984 0
0.00921001 0.00167373 0
0.00834156 0.00171466 0
0.00751851 0.000809757 0
0.00877579 0.00169419 0
0.00793004 0.00126221 0
0.00836426 0.00124174 0
0.00921151 0.00167524 0
0.0106849 0.00264 0
0.00850251 0.00187561 0
0.00994821 0.00215762 0
0.00959371 0.00225781 0
0.00885701 0.00177542 0
0.0107468 0.00131455 0
0.0117075 0.00180218 0
0.0100453 0.00154292 0
0.0112271 0.00155837 0
0.0108764 0.00167255 0
0.010396 0.00142874 0
0.0107463 0.00131413 0
0.00996417 0.00146183 0
0.00961143 0.000813684 0
0.0103553 0.00138798 0
0.0097878 0.00113776 0
0.0101789 0.00106391 0
0.0107465 0.00131481 0
0.011492 0.00107328 0
0.0117227 0.00178704 0
0.0111192 0.00119405 0
0.0116073 0.00143016 0
0.0112346 0.00155093 0
0.0107461 0.00131439 0
0.00961165 0.00081346 0
0.0115563 0.00113763 0
0.0101789 0.00106392 0
0.010584 0.000975546 0
0.0111512 0.00122601 0
0.0085642 0.000883271 0
0.0100758 0.00143525 0
0.00755216 0.000935708 0
0.00931999 0.00115926 0
0.00881397 0.00118548 0
0.00805818 0.00090949 0
0.00856327 0.000884198 0
0.00954207 0.000813684 0
0.0100492 0.00146183 0
0.00905267 0.000848941 0
0.00979563 0.00113776 0
0.00930623 0.00117302 0
0.00856314 0.000882213 0
0.00745703 0.000840578 0
0.00696207 0.000428884 0
0.00801009 0.000861396 0
0.00720955 0.000634731 0
0.00776261 0.000655548 0
0.00856222 0.00088314 0
0.00699943 0.000391526 0
0.00962246 0.00089407 0
0.00778082 0.000637333 0
0.00831094 0.000642798 0
0.00909234 0.000888605 0
0.00624351 0.000745309 0
0.00742588 0.000809757 0
0.00845968 0.00171466 0
0.00683469 0.000777533 0
0.00794278 0.00126221 0
0.00735159 0.00122998 0
0.00624642 0.000742394 0
0.00856325 0.00161108 0
0.00486893 0.000671745 0
0.00740484 0.00117674 0
0.00671609 0.00114141 0
0.00555768 0.00070707 0
0.00624053 0.000742333 0
0.00409543 0.000112615 0
0.00755719 0.00094106 0
0.00516798 0.000427474 0
0.00582631 0.000526838 0
0.00689886 0.000841697 0
0.00624345 0.000739417 0
0.00472579 0.000528608 0
0.00399181 0.00021624 0
0.00548462 0.000634013 0
0.0043588 0.000372424 0
0.00511763 0.000477828 0
0.0120884 0.00282482 0
0.0116011 0.00274554 0
0.0115623 0.00375891 0
0.0118447 0.00278518 0
0.0115817 0.00325223 0
0.0118254 0.00329187 0
0.012089 0.00282543 0
0.0116012 0.00379783 0
0.0124045 0.00265625 0
0.0118451 0.00331163 0
0.0120029 0.00322704 0
0.0122467 0.00274084 0
0.0120889 0.00282429 0
0.0126809 0.00196694 0
0.0116729 0.0026737 0
0.0123849 0.00239562 0
0.0121769 0.00232032 0
0.0118809 0.002749 0
0.0120895 0.0028249 0
0.0123258 0.00273489 0
0.012651 0.00193709 0
0.0122077 0.00277989 0
0.0124884 0.00233599 0
0.0123703 0.00238099 0
0.0109478 0.00373299 0
0.0115623 0.00389664 0
0.0116011 0.00262882 0
0.0112551 0.00381482 0
0.0115817 0.00326273 0
0.0112744 0.0031809 0
0.0109475 0.0037333 0
0.0103418 0.00493358 0
0.0116338 0.00382511 0
0.0106446 0.00433344 0
0.0109878 0.00437935 0
0.0112907 0.00377921 0
0.0109473 0.00373247 0
0.0116618 0.00268957 0
0.0102002 0.00331373 0
0.0113046 0.00321102 0
0.010931 0.00300165 0
0.0105737 0.0035231 0
0.010947 0.00373278 0
0.0101479 0.00336604 0
0.0102601 0.00485195 0
0.0105474 0.00354941 0
0.010204 0.00410899 0
0.0106035 0.00429237 0
0.0128011 0.00196496 0
0.0127111 0.0017884 0
0.0133392 0.00134029 0
0.0127561 0.00187668 0
0.0130251 0.00156434 0
0.0130702 0.00165263 0
0.0128006 0.00196543 0
0.0123271 0.00264505 0
0.0127704 0.0017291 0
0.0125639 0.00230524 0
0.0125487 0.00218707 0
0.0127855 0.00184726 0
0.0128006 0.00196451 0
0.0133416 0.0013427 0
0.0127133 0.00195802 0
0.0130711 0.00165361 0
0.0130275 0.00165036 0
0.012757 0.00196127 0
0.0128002 0.00196498 0
0.012651 0.00202032 0
0.0123258 0.00264379 0
0.0127256 0.00199265 0
0.0124884 0.00233206 0
0.012563 0.00230439 0
0.0122388 0.00146311 0
0.0127251 0.00176572 0
0.0116821 0.00183608 0
0.0124819 0.00161441 0
0.0122036 0.0018009 0
0.0119604 0.0016496 0
0.0122389 0.00146295 0
0.0128589 0.00110042 0
0.0127621 0.00172867 0
0.0125489 0.00128169 0
0.0128105 0.00141455 0
0.0125005 0.00159581 0
0.0122388 0.00146315 0
0.0116331 0.00178704 0
0.0115671 0.00107328 0
0.0119359 0.00162509 0
0.0116001 0.00143016 0
0.0119029 0.00126821 0
0.012239 0.00146299 0
0.0115416 0.00109873 0
0.0128968 0.00113827 0
0.0118903 0.00128086 0
0.0122192 0.0011185 0
0.0125679 0.00130063 0
0.0132083 0.00129983 0
0.0133392 0.00138176 0
0.0127111 0.00174813 0
0.0132738 0.00134079 0
0.0130251 0.00156494 0
0.0129597 0.00152398 0
0.0132086 0.00130008 0
0.0126916 0.00172867 0
0.0129205 0.00110042 0
0.0129501 0.00151437 0
0.0128061 0.00141455 0
0.0130646 0.00120025 0
0.0132086 0.00129951 0
0.0137516 0.000887886 0
0.0133807 0.00134027 0
0.0134801 0.0010937 0
0.0135661 0.00111408 0
0.0132947 0.00131989 0
0.0132089 0.00129977 0
0.0128854 0.00113554 0
0.0137658 0.000902116 0
0.0130472 0.00121765 0
0.0133256 0.00101883 0
0.0134873 0.00110094 0
0.0122199 0.00179136 0
0.0116501 0.0026737 0
0.012708 0.00196694 0
0.011935 0.00223253 0
0.012179 0.00232032 0
0.012464 0.00187915 0
0.0122203 0.00179099 0
0.0126493 0.0020256 0
0.0128144 0.00100251 0
0.0124348 0.00190829 0
0.0127318 0.00151405 0
0.0125173 0.00139675 0
0.0122195 0.00179093 0
0.0116273 0.00142739 0
0.0116077 0.00263136 0
0.0119234 0.00160916 0
0.0116175 0.00202937 0
0.0119136 0.00221114 0
0.0122199 0.00179056 0
0.0128501 0.0010383 0
0.011681 0.00137368 0
0.012535 0.00141443 0
0.0122656 0.00120599 0
0.0119504 0.00158212 0
0.0131588 0.00129348 0
0.0126697 0.00195802 0
0.0133835 0.0013427 0
0.0129143 0.00162575 0
0.0130266 0.00165036 0
0.0132711 0.00131809 0
0.0131584 0.00129306 0
0.0128144 0.00108455 0
0.0126493 0.00193763 0
0.0129864 0.00118881 0
0.0127318 0.00151109 0
0.0129039 0.00161534 0
0.0131592 0.00129307 0
0.0133329 0.0013933 0
0.0136699 0.000708938 0
0.0132461 0.00134318 0
0.0135014 0.00105112 0
0.0134146 0.001001 0
0.0131588 0.00129264 0
0.0136889 0.000727942 0
0.0128652 0.00103367 0
0.0134239 0.00101029 0
0.0132771 0.000880805 0
0.013012 0.00116316 0
0.00933922 0.00439982 0
0.00836818 0.0036239 0
0.00844681 0.00548736 0
0.0088537 0.00401186 0
0.00840749 0.00455563 0
0.00889302 0.00494359 0
0.00933925 0.00439985 0
0.00853232 0.00557287 0
0.0102766 0.0049711 0
0.00893579 0.00498636 0
0.00940446 0.00527198 0
0.00980792 0.00468547 0
0.00933915 0.00439989 0
0.0102233 0.00333334 0
0.00837449 0.00361759 0
0.00978125 0.00386661 0
0.00929891 0.00347547 0
0.00885682 0.00400874 0
0.00933918 0.00439992 0
0.0102601 0.00498756 0
0.0101479 0.00325789 0
0.00979965 0.00469374 0
0.010204 0.00412273 0
0.00974354 0.00382891 0
0.0109163 0.0022836 0
0.0102183 0.00331373 0
0.0116544 0.00268957 0
0.0105673 0.00279867 0
0.0109363 0.00300165 0
0.0112853 0.00248658 0
0.010916 0.0022833 0
0.0101135 0.00169802 0
0.0101605 0.00325596 0
0.0105147 0.00199066 0
0.010137 0.00247699 0
0.0105382 0.00276963 0
0.0109165 0.00228341 0
0.0116077 0.00273621 0
0.0116273 0.0013341 0
0.0112621 0.00250981 0
0.0116175 0.00203516 0
0.0112719 0.00180875 0
0.0109162 0.00228311 0
0.0116742 0.00138098 0
0.0101502 0.00166129 0
0.0112952 0.00183204 0
0.0109122 0.00152113 0
0.0105332 0.0019722 0
0.00928043 0.00261411 0
0.00844478 0.00361759 0
0.0101675 0.00333334 0
0.00886261 0.00311585 0
0.00930614 0.00347547 0
0.00972396 0.00297372 0
0.00928041 0.00261414 0
0.0101605 0.00334033 0
0.0101135 0.00162715 0
0.00972045 0.00297723 0
0.010137 0.00248374 0
0.00969695 0.00212064 0
0.00928042 0.0026141 0
0.00837587 0.00178389 0
0.00839802 0.00357084 0
0.00882814 0.00219899 0
0.00838695 0.00267736 0
0.00883922 0.00309247 0
0.00928039 0.00261412 0
0.0101561 0.00166977 0
0.0083787 0.00178106 0
0.00971826 0.00214195 0
0.00926741 0.00172541 0
0.00882954 0.00219759 0
0.00219298 4.10165e-05 0
3.29371e-05 0 0
-4.90958e-05 0 0
0.00111296 2.05082e-05 0
-8.07938e-06 0 0
0.00107194 2.05082e-05 0
0.00219289 4.09291e-05 0
0.00478328 0.000417172 0
2.63061e-05 -6.63099e-06 0
0.00348809 0.000229051 0
0.00240479 0.000205271 0
0.0011096 1.71491e-05 0
0.00219262 4.13789e-05 0
1.84424e-05 -6.75383e-05 0
0.0040463 0.000252956 0
0.00110553 -1.30797e-05 0
0.00203237 9.27091e-05 0
0.00311946 0.000147168 0
0.00219253 4.12915e-05 0
0.00400958 0.00021624 0
0.00467185 0.000528608 0
0.00310106 0.000128766 0
0.00434072 0.000372424 0
0.00343219 0.00028495 0
0.0019414 1.71474e-05 0
0.0040463 0.000177413 0
1.84424e-05 -4.53796e-06 0
0.00299385 9.72802e-05 0
0.00203237 8.64375e-05 0
0.000979919 6.30474e-06 0
0.00194169 1.6855e-05 0
0.00368838 0.000109415 0
0.0039939 0.000229813 0
0.00281503 6.31352e-05 0
0.00384114 0.000169614 0
0.00296779 0.000123334 0
0.00194189 1.76387e-05 0
2.29804e-05 0 0
-1.2297e-05 0 0
0.000982434 8.81936e-06 0
5.34167e-06 0 0
0.000964795 8.81936e-06 0
0.00194218 1.73463e-05 0
2.15993e-05 -3.38964e-05 0
0.00370391 0.000124948 0
0.000981889 -8.27504e-06 0
0.00186276 4.5526e-05 0
0.00282305 7.11473e-05 0
0.00558462 0.000352154 0
0.00755719 0.000775653 0
0.00409543 0.000292273 0
0.0065709 0.000563904 0
0.00582631 0.000533963 0
0.00484002 0.000322214 0
0.0055835 0.000351038 0
0.00403297 0.000229813 0
0.00367012 0.000109415 0
0.00480824 0.000290425 0
0.00385155 0.000169614 0
0.00462681 0.000230227 0
0.00558346 0.000353311 0
0.00692942 0.000428884 0
0.00749226 0.000840578 0
0.00625644 0.000391097 0
0.00721084 0.000634731 0
0.00653786 0.000596945 0
0.00558234 0.000352195 0
0.00372882 5.07159e-05 0
0.00699356 0.000493023 0
0.00465558 0.000201455 0
0.00536119 0.000271869 0
0.00628795 0.000422609 0
0.00815751 0.000499135 0
0.00694444 0.000441271 0
0.0066457 0.000258263 0
0.00755098 0.000470203 0
0.00679507 0.000349767 0
0.00740161 0.000378699 0
0.00815813 0.000499756 0
0.00962246 0.000801878 0
0.00699943 0.000496262 0
0.0088903 0.000650817 0
0.00831094 0.00064907 0
0.00757878 0.000498009 0
0.00815693 0.000499716 0
0.00667348 0.000230486 0
0.00931801 0.000552865 0
0.00741521 0.000365101 0
0.00799574 0.000391676 0
0.00873747 0.000526291 0
0.00815755 0.000500337 0
0.00926812 0.000502974 0
0.00959738 0.00082696 0
0.00871283 0.000501656 0
0.00943275 0.000664967 0
0.00887746 0.000663649 0
0.00523165 0.00018908 0
0.00663322 0.000258263 0
0.00695459 0.000441271 0
0.00593243 0.000223672 0
0.00679391 0.000349767 0
0.00609312 0.000315176 0
0.00523216 0.000188574 0
0.00699356 0.000402304 0
0.00372882 0.000144236 0
0.00611286 0.000295439 0
0.00536119 0.00027327 0
0.00448049 0.000166405 0
0.00523118 0.000188613 0
0.00353413 3.12217e-05 0
0.00666721 0.000292252 0
0.00438266 0.000109917 0
0.00510067 0.000161737 0
0.0059492 0.000240433 0
0.00523169 0.000188107 0
0.0036977 0.000113116 0
0.00349998 6.53741e-05 0
0.0044647 0.000150612 0
0.00359884 8.92453e-05 0
0.00436583 0.000126741 0
0.0104864 0.000789391 0
0.0113647 0.000686111 0
0.0115539 0.00108195 0
0.0109255 0.000737751 0
0.0114593 0.000884031 0
0.0110202 0.000935671 0
0.0104867 0.000789087 0
0.0115563 0.00107956 0
0.00961165 0.000884966 0
0.0110215 0.000934324 0
0.010584 0.000982264 0
0.0100492 0.000837026 0
0.010486 0.000789003 0
0.00931607 0.000493086 0
0.0114138 0.000735236 0
0.00990104 0.000641044 0
0.0103649 0.000614161 0
0.0109499 0.000762119 0
0.0104863 0.000788699 0
0.00955365 0.00082696 0
0.00930618 0.000502974 0
0.01002 0.00080783 0
0.00942992 0.000664967 0
0.00989624 0.000645837 0
0.0122233 0.000925125 0
0.0114963 0.00108195 0
0.0114141 0.000686111 0
0.0118598 0.00100354 0
0.0114552 0.000884031 0
0.0118187 0.000805618 0
0.0122234 0.000925214 0
0.0128968 0.00111891 0
0.0115416 0.00112723 0
0.0125601 0.00102206 0
0.0122192 0.00112307 0
0.0118825 0.00102622 0
0.0122233 0.000925133 0
0.0114074 0.000692833 0
0.0129686 0.000763327 0
0.0118153 0.000808983 0
0.012188 0.00072808 0
0.0125959 0.00084423 0
0.0122234 0.000925222 0
0.0129313 0.000726009 0
0.0129113 0.00110442 0
0.0125773 0.000825615 0
0.0129213 0.000915213 0
0.0125673 0.00101482 0
0.00789804 0.000331084 0
0.00931801 0.000491964 0
0.00667348 0.000296558 0
0.00860802 0.000411524 0
0.00799574 0.000394261 0
0.00728576 0.000313821 0
0.00789767 0.000331457 0
0.00907731 0.000374742 0
0.00929955 0.000510418 0
0.00848749 0.0003531 0
0.00918843 0.00044258 0
0.00859861 0.000420938 0
0.00789766 0.000330705 0
0.00664046 0.000263537 0
0.0064402 0.000197617 0
0.00726906 0.000297121 0
0.00654033 0.000230577 0
0.00716893 0.000264161 0
0.00789729 0.000331078 0
0.00645847 0.000179348 0
0.00910901 0.000406444 0
0.00717788 0.000255213 0
0.00778374 0.000292896 0
0.00850315 0.000368761 0
0.010298 0.000530421 0
0.0114138 0.000684919 0
0.00931607 0.000550977 0
0.0108559 0.00060767 0
0.0103649 0.000617948 0
0.00980701 0.000540699 0
0.0102977 0.000530141 0
0.00927551 0.000510418 0
0.00910039 0.000374742 0
0.0097866 0.000520279 0
0.00918795 0.00044258 0
0.00969903 0.000452441 0
0.0102977 0.000530665 0
0.0112674 0.000506902 0
0.0114058 0.000692878 0
0.0107825 0.000518784 0
0.0113366 0.00059989 0
0.0108518 0.000611772 0
0.0102974 0.000530385 0
0.00911124 0.000363899 0
0.011304 0.000543526 0
0.00970433 0.000447142 0
0.0102076 0.000453713 0
0.0108007 0.000536956 0
0.00182187 8.89346e-06 0
2.02728e-05 0 0
2.48588e-06 0 0
0.00092107 4.44673e-06 0
1.13793e-05 0 0
0.000912177 4.44673e-06 0
0.00182156 8.58577e-06 0
0.00370391 8.37199e-05 0
2.15993e-05 1.32654e-06 0
0.00276274 4.61528e-05 0
0.00186276 4.25232e-05 0
0.00092158 4.95615e-06 0
0.00182209 8.66646e-06 0
2.45903e-05 -2.21045e-05 0
0.00352243 7.50621e-05 0
0.000923343 -6.719e-06 0
0.00177351 2.64788e-05 0
0.00267226 4.18643e-05 0
0.00182179 8.35876e-06 0
0.00351274 6.53741e-05 0
0.00367452 0.000113116 0
0.00266727 3.68664e-05 0
0.00359363 8.92453e-05 0
0.00274815 6.07376e-05 0
0.00502257 0.000125569 0
0.00666721 0.000239978 0
0.00353413 8.37754e-05 0
0.00584489 0.000182774 0
0.00510067 0.000161877 0
0.00427835 0.000104672 0
0.0050223 0.000125304 0
0.00351698 6.66247e-05 0
0.00338598 5.29823e-05 0
0.00426964 9.59643e-05 0
0.00345148 5.98035e-05 0
0.00420414 8.91431e-05 0
0.00502228 0.00012586 0
0.00643421 0.000197617 0
0.00664365 0.000263537 0
0.00572825 0.000161739 0
0.00653893 0.000230577 0
0.00583296 0.000194698 0
0.00502201 0.000125595 0
0.00340655 3.24084e-05 0
0.00645324 0.000216641 0
0.00421428 7.90015e-05 0
0.0049299 0.000124525 0
0.00573762 0.000171118 0
0.00175181 6.25653e-06 0
0.00352243 4.69902e-05 0
2.45903e-05 3.58867e-06 0
0.00263712 2.66234e-05 0
0.00177351 2.52894e-05 0
0.000888201 4.9226e-06 0
0.0017519 6.16663e-06 0
0.00339552 5.29823e-05 0
0.0035028 6.66247e-05 0
0.00257371 2.95745e-05 0
0.00344916 5.98035e-05 0
0.00262735 3.63957e-05 0
0.00175193 6.37321e-06 0
2.10017e-05 0 0
8.25524e-06 0 0
0.000886465 3.18661e-06 0
1.46285e-05 0 0
0.000880091 3.18661e-06 0
0.00175202 6.28331e-06 0
2.5499e-05 -1.72437e-05 0
0.00340192 5.93748e-05 0
0.000888758 -5.48022e-06 0
0.00171371 2.10655e-05 0
0.00257697 3.28291e-05 0
0.00926222 0.00086701 0
0.00838566 8.74741e-06 0
0.00838932 0.00175821 0
0.00882394 0.000437879 0
0.00838749 0.000883477 0
0.00882577 0.00131261 0
0.00926223 0.000867023 0
0.00841217 0.00178106 0
0.0101289 0.00166977 0
0.0088372 0.00132404 0
0.00927056 0.00172541 0
0.00969559 0.0012684 0
0.00926222 0.000867009 0
0.0101284 0 0
0.00839441 0 0
0.00969532 0.000433505 0
0.00926142 0 0
0.00882832 0.000433505 0
0.00926223 0.000867022 0
0.0101191 0.00167963 0
0.0101067 -2.17042e-05 0
0.00969066 0.00127333 0
0.0101129 0.000828965 0
0.00968448 0.000422659 0
0.0109055 0.0007672 0
0.0116757 0 0
0.0101413 0 0
0.0112906 0.0003836 0
0.0109085 0 0
0.0105234 0.0003836 0
0.0109053 0.000767362 0
0.0101067 3.45418e-05 0
0.0101191 0.00161931 0
0.010506 0.000400952 0
0.0101129 0.000826927 0
0.0105122 0.00119334 0
0.0109056 0.000767396 0
0.0116308 0.00141838 0
0.0116373 -3.83955e-05 0
0.0112682 0.00109289 0
0.011634 0.000689994 0
0.0112715 0.0003645 0
0.0109055 0.000767558 0
0.0101611 0.00166129 0
0.0116682 0.00138098 0
0.0105333 0.00121442 0
0.0109146 0.00152113 0
0.0112868 0.00107427 0
0.00926222 -0.000867009 0
0.00839441 0 0
0.0101284 0 0
0.00882832 -0.000433505 0
0.00926142 0 0
0.00969532 -0.000433505 0
0.00926223 -0.000867022 0
0.0101067 2.17042e-05 0
0.0101191 -0.00167963 0
0.00968448 -0.000422659 0
0.0101129 -0.000828965 0
0.00969066 -0.00127333 0
0.00926222 -0.00086701 0
0.00838932 -0.00175821 0
0.00838566 -8.74741e-06 0
0.00882577 -0.00131261 0
0.00838749 -0.000883477 0
0.00882394 -0.000437879 0
0.00926223 -0.000867023 0
0.0101289 -0.00166977 0
0.00841217 -0.00178106 0
0.00969559 -0.0012684 0
0.00927056 -0.00172541 0
0.0088372 -0.00132404 0
0.0109055 -0.0007672 0
0.0101413 0 0
0.0116757 0 0
0.0105234 -0.0003836 0
0.0109085 0 0
0.0112906 -0.0003836 0
0.0109053 -0.000767362 0
0.0101191 -0.00161931 0
0.0101067 -3.45418e-05 0
0.0105122 -0.00119334 0
0.0101129 -0.000826927 0
0.010506 -0.000400952 0
0.0109056 -0.000767396 0
0.0116373 3.83955e-05 0
0.0116308 -0.00141838 0
0.0112715 -0.0003645 0
0.011634 -0.000689994 0
0.0112682 -0.00109289 0
0.0109055 -0.000767558 0
0.0116682 -0.00138098 0
0.0101611 -0.00166129 0
0.0112868 -0.00107427 0
0.0109146 -0.00152113 0
0.0105333 -0.00121442 0
0.0122774 0.000611815 0
0.0116373 4.48254e-05 0
0.0116308 0.00133148 0
0.0119573 0.00032832 0
0.011634 0.000688154 0
0.0119541 0.000971649 0
0.0122777 0.000612153 0
0.011673 0.00137368 0
0.0128607 0.0010383 0
0.0119754 0.000992918 0
0.0122668 0.00120599 0
0.0125692 0.000825226 0
0.0122777 0.000611498 0
0.0129051 0 0
0.0116821 0 0
0.0125914 0.000305749 0
0.0122936 0 0
0.0119799 0.000305749 0
0.012278 0.000611835 0
0.0128145 0.00108447 0
0.0128655 -3.95441e-05 0
0.0125463 0.000848153 0
0.01284 0.000522463 0
0.0125718 0.000286146 0
0.0133211 0.00044906 0
0.0138044 0 0
0.0129062 0 0
0.0135627 0.00022453 0
0.0133553 0 0
0.0131137 0.00022453 0
0.0133207 0.000449442 0
0.0128655 4.06938e-05 0
0.0128145 0.00100213 0
0.0130931 0.000245068 0
0.01284 0.000521413 0
0.0130676 0.000725787 0
0.0133215 0.000449446 0
0.0136676 0.000768305 0
0.013774 -3.03295e-05 0
0.0134946 0.000608876 0
0.0137208 0.000368988 0
0.0135478 0.000209558 0
0.0133211 0.000449828 0
0.012846 0.00103367 0
0.013708 0.000727942 0
0.0130836 0.000741749 0
0.013277 0.000880805 0
0.0135146 0.000588885 0
0.0133211 -0.00044906 0
0.0129062 0 0
0.0138044 0 0
0.0131137 -0.00022453 0
0.0133553 0 0
0.0135627 -0.00022453 0
0.0133207 -0.000449442 0
0.0128145 -0.00100213 0
0.0128655 -4.06938e-05 0
0.0130676 -0.000725787 0
0.01284 -0.000521413 0
0.0130931 -0.000245068 0
0.0133215 -0.000449446 0
0.013774 3.03295e-05 0
0.0136676 -0.000768305 0
0.0135478 -0.000209558 0
0.0137208 -0.000368988 0
0.0134946 -0.000608876 0
0.0133211 -0.000449828 0
0.013708 -0.000727942 0
0.012846 -0.00103367 0
0.0135146 -0.000588885 0
0.013277 -0.000880806 0
0.0130836 -0.000741749 0
0.0122777 -0.000611498 0
0.0116821 0 0
0.0129051 0 0
0.0119799 -0.000305749 0
0.0122936 0 0
0.0125914 -0.000305749 0
0.012278 -0.000611835 0
0.0128655 3.95441e-05 0
0.0128145 -0.00108447 0
0.0125718 -0.000286146 0
0.01284 -0.000522463 0
0.0125463 -0.000848153 0
0.0122774 -0.000611815 0
0.0116308 -0.00133148 0
0.0116373 -4.48254e-05 0
0.0119541 -0.000971649 0
0.011634 -0.000688154 0
0.0119573 -0.00032832 0
0.0122777 -0.000612153 0
0.0128607 -0.0010383 0
0.011673 -0.00137368 0
0.0125692 -0.000825226 0
0.0122668 -0.00120599 0
0.0119754 -0.000992918 0
0.0140612 0.000312515 0
0.013774 2.83855e-05 0
0.0136676 0.000709079 0
0.0139176 0.00017045 0
0.0137208 0.000368732 0
0.0138644 0.000510797 0
0.0140615 0.000312872 0
0.0136847 0.000726193 0
0.0142775 0.000492306 0
0.0138731 0.000519533 0
0.0139811 0.00060925 0
0.0141695 0.000402589 0
0.0140615 0.000312151 0
0.0144267 0 0
0.0138024 0 0
0.0142441 0.000156076 0
0.0141146 0 0
0.013932 0.000156076 0
0.0140619 0.000312509 0
0.0142504 0.000519392 0
0.0144097 -1.69709e-05 0
0.0141562 0.000415951 0
0.0143301 0.000251211 0
0.0142358 0.000147769 0
0.013789 0.000884685 0
0.0136699 0.00076315 0
0.0133329 0.00133825 0
0.0137294 0.000823918 0
0.0135014 0.0010507 0
0.0135609 0.00111147 0
0.0137893 0.000884327 0
0.014257 0.000492306 0
0.0137069 0.000726193 0
0.0140232 0.000688317 0
0.0139819 0.00060925 0
0.0137481 0.00080526 0
0.0137893 0.00088502 0
0.0133349 0.00134027 0
0.013793 0.000887886 0
0.0135621 0.00111264 0
0.013564 0.00111408 0
0.0137912 0.000886453 0
0.0137896 0.000884661 0
0.0137591 0.000921822 0
0.0142534 0.000488655 0
0.0137744 0.000903242 0
0.0140062 0.000705238 0
0.0140215 0.000686658 0
0.0109165 -0.00228341 0
0.0116273 -0.0013341 0
0.0116077 -0.00273621 0
0.0112719 -0.00180875 0
0.0116175 -0.00203516 0
0.0112621 -0.00250981 0
0.0109162 -0.00228311 0
0.0101502 -0.00166129 0
0.0116742 -0.00138098 0
0.0105332 -0.0019722 0
0.0109122 -0.00152113 0
0.0112952 -0.00183204 0
0.0109163 -0.0022836 0
0.0116544 -0.00268957 0
0.0102183 -0.00331373 0
0.0112853 -0.00248658 0
0.0109363 -0.00300165 0
0.0105673 -0.00279867 0
0.010916 -0.0022833 0
0.0101605 -0.00325596 0
0.0101135 -0.00169802 0
0.0105382 -0.00276963 0
0.010137 -0.00247699 0
0.0105147 -0.00199066 0
0.0122195 -0.00179093 0
0.0116077 -0.00263136 0
0.0116273 -0.00142739 0
0.0119136 -0.00221114 0
0.0116175 -0.00202937 0
0.0119234 -0.00160916 0
0.0122199 -0.00179056 0
0.011681 -0.00137368 0
0.0128501 -0.0010383 0
0.0119504 -0.00158212 0
0.0122656 -0.00120599 0
0.012535 -0.00141443 0
0.0122199 -0.00179136 0
0.012708 -0.00196694 0
0.0116501 -0.0026737 0
0.012464 -0.00187915 0
0.012179 -0.00232032 0
0.011935 -0.00223253 0
0.0122203 -0.00179099 0
0.0128144 -0.00100251 0
0.0126493 -0.0020256 0
0.0125173 -0.00139675 0
0.0127318 -0.00151405 0
0.0124348 -0.00190829 0
0.00928042 -0.0026141 0
0.00839802 -0.00357084 0
0.00837587 -0.00178389 0
0.00883922 -0.00309247 0
0.00838695 -0.00267736 0
0.00882814 -0.00219899 0
0.00928039 -0.00261412 0
0.0083787 -0.00178106 0
0.0101561 -0.00166977 0
0.00882954 -0.00219759 0
0.00926741 -0.00172541 0
0.00971826 -0.00214195 0
0.00928043 -0.00261411 0
0.0101675 -0.00333334 0
0.00844478 -0.00361759 0
0.00972396 -0.00297372 0
0.00930614 -0.00347547 0
0.00886261 -0.00311585 0
0.00928041 -0.00261414 0
0.0101135 -0.00162715 0
0.0101605 -0.00334033 0
0.00969695 -0.00212064 0
0.010137 -0.00248374 0
0.00972045 -0.00297723 0
0.0109473 -0.00373247 0
0.0102002 -0.00331373 0
0.0116618 -0.00268957 0
0.0105737 -0.0035231 0
0.010931 -0.00300165 0
0.0113046 -0.00321102 0
0.010947 -0.00373278 0
0.0102601 -0.00485195 0
0.0101479 -0.00336604 0
0.0106035 -0.00429237 0
0.010204 -0.00410899 0
0.0105474 -0.00354941 0
0.0109478 -0.00373299 0
0.0116011 -0.00262882 0
0.0115623 -0.00389664 0
0.0112744 -0.0031809 0
0.0115817 -0.00326273 0
0.0112551 -0.00381482 0
0.0109475 -0.0037333 0
0.0116338 -0.00382511 0
0.0103418 -0.00493358 0
0.0112907 -0.00377921 0
0.0109878 -0.00437935 0
0.0106446 -0.00433344 0
0.00933915 -0.00439989 0
0.00837449 -0.00361759 0
0.0102233 -0.00333334 0
0.00885682 -0.00400874 0
0.00929891 -0.00347547 0
0.00978125 -0.00386661 0
0.00933918 -0.00439992 0
0.0101479 -0.00325789 0
0.0102601 -0.00498756 0
0.00974354 -0.00382891 0
0.010204 -0.00412273 0
0.00979965 -0.00469374 0
0.00933922 -0.00439982 0
0.00844681 -0.00548736 0
0.00836818 -0.0036239 0
0.00889302 -0.00494359 0
0.00840749 -0.00455563 0
0.0088537 -0.00401186 0
0.00933925 -0.00439985 0
0.0102766 -0.0049711 0
0.00853232 -0.00557287 0
0.00980792 -0.00468547 0
0.00940446 -0.00527198 0
0.00893579 -0.00498636 0
0.0131592 -0.00129307 0
0.0136699 -0.000708938 0
0.0133329 -0.0013933 0
0.0134146 -0.001001 0
0.0135014 -0.00105112 0
0.0132461 -0.00134318 0
0.0131588 -0.00129264 0
0.0128652 -0.00103367 0
0.0136889 -0.000727942 0
0.013012 -0.00116316 0
0.0132771 -0.000880806 0
0.0134239 -0.00101029 0
0.0131588 -0.00129348 0
0.0133835 -0.0013427 0
0.0126697 -0.00195802 0
0.0132711 -0.00131809 0
0.0130266 -0.00165036 0
0.0129143 -0.00162575 0
0.0131584 -0.00129306 0
0.0126493 -0.00193763 0
0.0128144 -0.00108455 0
0.0129039 -0.00161534 0
0.0127318 -0.00151109 0
0.0129864 -0.00118881 0
0.0140612 -0.000312515 0
0.0136676 -0.000709079 0
0.013774 -2.83855e-05 0
0.0138644 -0.000510797 0
0.0137208 -0.000368732 0
0.0139176 -0.00017045 0
0.0140615 -0.000312872 0
0.0142775 -0.000492306 0
0.0136847 -0.000726193 0
0.0141695 -0.000402589 0
0.0139811 -0.00060925 0
0.0138731 -0.000519533 0
0.0140615 -0.000312151 0
0.0138024 0 0
0.0144267 0 0
0.013932 -0.000156076 0
0.0141146 0 0
0.0142441 -0.000156076 0
0.0140619 -0.000312509 0
0.0144097 1.69709e-05 0
0.0142504 -0.000519392 0
0.0142358 -0.000147769 0
0.0143301 -0.000251211 0
0.0141562 -0.000415951 0
0.013789 -0.000884685 0
0.0133329 -0.00133825 0
0.0136699 -0.00076315 0
0.0135609 -0.00111147 0
0.0135014 -0.0010507 0
0.0137294 -0.000823918 0
0.0137893 -0.000884327 0
0.0137069 -0.000726193 0
0.014257 -0.000492306 0
0.0137481 -0.00080526 0
0.0139819 -0.00060925 0
0.0140232 -0.000688317 0
0.0137893 -0.00088502 0
0.013793 -0.000887886 0
0.0133349 -0.00134027 0
0.0137912 -0.000886453 0
0.013564 -0.00111408 0
0.0135621 -0.00111264 0
0.0137896 -0.000884661 0
0.0142534 -0.000488655 0
0.0137591 -0.000921822 0
0.0140215 -0.000686658 0
0.0140062 -0.000705238 0
0.0137744 -0.000903242 0
0.0120889 -0.00282429 0
0.0116729 -0.0026737 0
0.0126809 -0.00196694 0
0.0118809 -0.002749 0
0.0121769 -0.00232032 0
0.0123849 -0.00239562 0
0.0120895 -0.0028249 0
0.012651 -0.00193709 0
0.0123258 -0.00273489 0
0.0123703 -0.00238099 0
0.0124884 -0.00233599 0
0.0122077 -0.00277989 0
0.0120884 -0.00282482 0
0.0115623 -0.00375891 0
0.0116011 -0.00274554 0
0.0118254 -0.00329187 0
0.0115817 -0.00325223 0
0.0118447 -0.00278518 0
0.012089 -0.00282543 0
0.0124045 -0.00265625 0
0.0116012 -0.00379783 0
0.0122467 -0.00274084 0
0.0120029 -0.00322704 0
0.0118451 -0.00331163 0
0.0128006 -0.00196451 0
0.0127133 -0.00195802 0
0.0133416 -0.0013427 0
0.012757 -0.00196127 0
0.0130275 -0.00165036 0
0.0130711 -0.00165361 0
0.0128002 -0.00196498 0
0.0123258 -0.00264379 0
0.012651 -0.00202032 0
0.012563 -0.00230439 0
0.0124884 -0.00233206 0
0.0127256 -0.00199265 0
0.0128011 -0.00196496 0
0.0133392 -0.00134029 0
0.0127111 -0.0017884 0
0.0130702 -0.00165263 0
0.0130251 -0.00156434 0
0.0127561 -0.00187668 0
0.0128006 -0.00196543 0
0.0127704 -0.0017291 0
0.0123271 -0.00264505 0
0.0127855 -0.00184726 0
0.0125487 -0.00218707 0
0.0125639 -0.00230524 0
0.0134363 0.00085515 0
0.0140082 0.000600241 0
0.0137873 0.000889161 0
0.0137222 0.000727696 0
0.0138977 0.000744701 0
0.0136118 0.000872156 0
0.0134361 0.000855331 0
0.0137658 0.000910655 0
0.0128854 0.00113167 0
0.013601 0.000882993 0
0.0133256 0.00102116 0
0.0131608 0.000993499 0
0.0134364 0.000855275 0
0.012962 0.000741713 0
0.0140303 0.000622313 0
0.0131992 0.000798494 0
0.0134961 0.000682013 0
0.0137333 0.000738794 0
0.0134362 0.000855456 0
0.0128582 0.00110442 0
0.0129777 0.000726009 0
0.0131472 0.000979936 0
0.0129179 0.000915213 0
0.013207 0.000790732 0
0.0141997 0.000597922 0
0.0137489 0.000889161 0
0.0140424 0.000600241 0
0.0139743 0.000743542 0
0.0138956 0.000744701 0
0.0141211 0.000599082 0
0.0141994 0.000597681 0
0.0142534 0.000512964 0
0.0137591 0.000899395 0
0.0142264 0.000555322 0
0.0140062 0.000706179 0
0.0139793 0.000748538 0
0.0142 0.00059765 0
0.0140255 0.000617193 0
0.014646 0.00034564 0
0.0141127 0.000607422 0
0.0143357 0.000481417 0
0.014423 0.000471645 0
0.0141997 0.000597408 0
0.0146382 0.000337859 0
0.0142738 0.000492531 0
0.014419 0.000467634 0
0.014456 0.000415195 0
0.0142368 0.00054497 0
0.0135712 0.000597661 0
0.0140303 0.00060935 0
0.012962 0.000759533 0
0.0138007 0.000603505 0
0.0134961 0.000684441 0
0.0132666 0.000678597 0
0.0135713 0.000597727 0
0.0129332 0.000730759 0
0.0130051 0.000536632 0
0.0132522 0.000664243 0
0.0129692 0.000633695 0
0.0132882 0.000567179 0
0.0135713 0.000597555 0
0.0141835 0.000445201 0
0.0140366 0.000602992 0
0.0138774 0.000521378 0
0.0141101 0.000524097 0
0.013804 0.000600273 0
0.0135714 0.000597621 0
0.0130028 0.000538935 0
0.0142086 0.000470265 0
0.0132871 0.000568278 0
0.0136057 0.0005046 0
0.01389 0.000533943 0
0.0121873 0.000634593 0
0.0129686 0.000732284 0
0.0114074 0.000730791 0
0.0125779 0.000683438 0
0.012188 0.000731538 0
0.0117973 0.000682692 0
0.0121872 0.000634644 0
0.012972 0.000536632 0
0.0129701 0.000730759 0
0.0125796 0.000585638 0
0.0129711 0.000633695 0
0.0125787 0.000682702 0
0.0121872 0.000634495 0
0.0113695 0.000692878 0
0.0113003 0.000506902 0
0.0117783 0.000663686 0
0.0113349 0.00059989 0
0.0117437 0.000570698 0
0.0121871 0.000634547 0
0.0113031 0.000504127 0
0.0130053 0.000569946 0
0.0117451 0.000569337 0
0.0121542 0.000537036 0
0.0125962 0.000602246 0
0.0145679 0.00021358 0
0.0148509 0 0
0.0144237 0 0
0.0147094 0.00010679 0
0.0146373 0 0
0.0144958 0.00010679 0
0.0145676 0.000213883 0
0.0144097 1.39755e-05 0
0.0142504 0.000488914 0
0.0144886 0.000113929 0
0.0143301 0.000251445 0
0.014409 0.000351399 0
0.0145681 0.000213874 0
0.0146436 0.000350324 0
0.014847 -3.93328e-06 0
0.0146059 0.000282099 0
0.0147453 0.000173196 0
0.0147075 0.00010497 0
0.0145678 0.000214177 0
0.014254 0.000492531 0
0.0146561 0.000337859 0
0.0144109 0.000353354 0
0.0144551 0.000415195 0
0.014612 0.000276018 0
0.0145679 -0.00021358 0
0.0144237 0 0
0.0148509 0 0
0.0144958 -0.00010679 0
0.0146373 0 0
0.0147094 -0.00010679 0
0.0145676 -0.000213883 0
0.0142504 -0.000488914 0
0.0144097 -1.39755e-05 0
0.014409 -0.000351399 0
0.0143301 -0.000251445 0
0.0144886 -0.000113929 0
0.0145681 -0.000213874 0
0.014847 3.93328e-06 0
0.0146436 -0.000350324 0
0.0147075 -0.00010497 0
0.0147453 -0.000173196 0
0.0146059 -0.000282099 0
0.0145678 -0.000214177 0
0.0146561 -0.000337859 0
0.014254 -0.000492531 0
0.014612 -0.000276018 0
0.0144551 -0.000415195 0
0.0144109 -0.000353354 0
0.0144734 0.000423299 0
0.014646 0.000345062 0
0.0140255 0.000620473 0
0.0145597 0.00038418 0
0.0143357 0.000482767 0
0.0142495 0.000521886 0
0.0144736 0.000423098 0
0.0149078 0.000251372 0
0.014652 0.00033907 0
0.0146907 0.000337235 0
0.0147799 0.000295221 0
0.0145628 0.000381084 0
0.0144736 0.000423474 0
0.014008 0.000602992 0
0.0142092 0.000445201 0
0.0142408 0.000513233 0
0.0141086 0.000524097 0
0.0143414 0.000434338 0
0.0144738 0.000423273 0
0.0142061 0.000448317 0
0.0149231 0.000266729 0
0.01434 0.000435795 0
0.0145646 0.000357523 0
0.0146985 0.000345001 0
0.0149177 0.000152542 0
0.014847 1.22557e-06 0
0.0146436 0.000346015 0
0.0148823 7.68836e-05 0
0.0147453 0.00017362 0
0.0147806 0.000249278 0
0.0149179 0.000152772 0
0.0146367 0.00033907 0
0.0149216 0.000251372 0
0.0147773 0.000245921 0
0.0147791 0.000295221 0
0.0149197 0.000202072 0
0.0149179 0.000152303 0
0.0151528 0 0
0.0148482 0 0
0.0150353 7.61514e-05 0
0.0150005 0 0
0.014883 7.61514e-05 0
0.0149181 0.000152533 0
0.0149216 0.00025128 0
0.0151593 6.56496e-06 0
0.0149199 0.000201907 0
0.0150405 0.000128923 0
0.0150387 7.95489e-05 0
0.0151783 0.000120003 0
0.0153911 0 0
0.0151511 0 0
0.0152847 6.00014e-05 0
0.0152711 0 0
0.0151647 6.00014e-05 0
0.0151781 0.00012019 0
0.0151593 -8.23791e-06 0
0.0149216 0.000267021 0
0.0151687 5.5976e-05 0
0.0150405 0.000129391 0
0.0150499 0.000193605 0
0.0151785 0.000120183 0
0.0151407 0.000202125 0
0.0154048 1.36425e-05 0
0.0151596 0.000161154 0
0.0152727 0.000107884 0
0.0152916 6.69126e-05 0
0.0151783 0.00012037 0
0.0149077 0.000253036 0
0.0151314 0.000211438 0
0.015043 0.000186703 0
0.0150195 0.000232237 0
0.0151549 0.000165904 0
0.0151783 -0.000120003 0
0.0151511 0 0
0.0153911 0 0
0.0151647 -6.00014e-05 0
0.0152711 0 0
0.0152847 -6.00014e-05 0
0.0151781 -0.00012019 0
0.0149216 -0.000267021 0
0.0151593 8.23791e-06 0
0.0150499 -0.000193605 0
0.0150405 -0.000129391 0
0.0151687 -5.5976e-05 0
0.0151785 -0.000120183 0
0.0154048 -1.36425e-05 0
0.0151407 -0.000202125 0
0.0152916 -6.69126e-05 0
0.0152727 -0.000107884 0
0.0151596 -0.000161154 0
0.0151783 -0.00012037 0
0.0151314 -0.000211438 0
0.0149077 -0.000253036 0
0.0151549 -0.000165904 0
0.0150195 -0.000232237 0
0.015043 -0.000186703 0
0.0149179 -0.000152303 0
0.0148482 0 0
0.0151528 0 0
0.014883 -7.61514e-05 0
0.0150005 0 0
0.0150353 -7.61514e-05 0
0.0149181 -0.000152533 0
0.0151593 -6.56496e-06 0
0.0149216 -0.00025128 0
0.0150387 -7.95489e-05 0
0.0150405 -0.000128923 0
0.0149199 -0.000201907 0
0.0149177 -0.000152542 0
0.0146436 -0.000346015 0
0.014847 -1.22557e-06 0
0.0147806 -0.000249278 0
0.0147453 -0.00017362 0
0.0148823 -7.68836e-05 0
0.0149179 -0.000152772 0
0.0149216 -0.000251372 0
0.0146367 -0.00033907 0
0.0149197 -0.000202072 0
0.0147791 -0.000295221 0
0.0147773 -0.000245921 0
0.0146756 0.000334223 0
0.0143506 0.000371739 0
0.0151415 0.000230988 0
0.0145131 0.000352981 0
0.014746 0.000301363 0
0.0149086 0.000282605 0
0.0146755 0.000334086 0
0.0151219 0.000211438 0
0.0149182 0.000253036 0
0.0148987 0.000272762 0
0.0150201 0.000232237 0
0.0147969 0.000293561 0
0.0146755 0.00033438 0
0.0141849 0.000448445 0
0.0143435 0.000378853 0
0.0144302 0.000391412 0
0.0142642 0.000413649 0
0.0145095 0.000356616 0
0.0146754 0.000334243 0
0.0149231 0.00024814 0
0.0142061 0.000469626 0
0.0147992 0.000291191 0
0.0145646 0.000358883 0
0.0144407 0.000401934 0
0.0153949 0.00010503 0
0.0154048 -1.37821e-05 0
0.0151407 0.000230579 0
0.0153998 4.56238e-05 0
0.0152727 0.000108398 0
0.0152678 0.000167804 0
0.0153951 0.000105168 0
0.0151236 0.000213506 0
0.015319 0.00019224 0
0.0152593 0.000159337 0
0.0152213 0.000202873 0
0.0153571 0.000148704 0
0.0153951 0.000104884 0
0.0156007 0 0
0.015391 0 0
0.0154979 5.24419e-05 0
0.0154959 0 0
0.015393 5.24419e-05 0
0.0153952 0.000105022 0
0.0153338 0.000177454 0
0.0156174 1.6639e-05 0
0.0153645 0.000141238 0
0.0154756 9.70467e-05 0
0.0155063 6.08307e-05 0
0.0148476 0.000295611 0
0.0151415 0.000201232 0
0.0143506 0.000404342 0
0.0149945 0.000248421 0
0.014746 0.000302787 0
0.0145991 0.000349976 0
0.0148477 0.000295477 0
0.0153144 0.00019224 0
0.0151292 0.000213506 0
0.0150811 0.000243858 0
0.0152218 0.000202873 0
0.0149885 0.000254492 0
0.0148477 0.000295725 0
0.0143289 0.000382647 0
0.0144731 0.000353061 0
0.0145883 0.000339186 0
0.014401 0.000367854 0
0.0146604 0.000324393 0
0.0148478 0.000295592 0
0.0144875 0.00033868 0
0.0153345 0.000212322 0
0.0146677 0.000317136 0
0.014911 0.000275501 0
0.0150912 0.000253957 0
0.0136683 0.000474383 0
0.0143258 0.000378853 0
0.0142043 0.000448445 0
0.013997 0.000426618 0
0.0142651 0.000413649 0
0.0139363 0.000461414 0
0.0136682 0.000474465 0
0.0142086 0.000444178 0
0.0130028 0.000569169 0
0.0139384 0.000459322 0
0.0136057 0.000506674 0
0.0133355 0.000521817 0
0.0136684 0.000474439 0
0.0130403 0.000459511 0
0.0143514 0.000404477 0
0.0133543 0.000466975 0
0.0136959 0.000431994 0
0.0140099 0.000439458 0
0.0136683 0.000474521 0
0.0129748 0.000541154 0
0.0130334 0.000466445 0
0.0133215 0.000507838 0
0.0130041 0.0005038 0
0.0133508 0.000470483 0
0.0144734 -0.000423299 0
0.0140255 -0.000620473 0
0.014646 -0.000345062 0
0.0142495 -0.000521886 0
0.0143357 -0.000482767 0
0.0145597 -0.00038418 0
0.0144736 -0.000423098 0
0.014652 -0.00033907 0
0.0149078 -0.000251372 0
0.0145628 -0.000381084 0
0.0147799 -0.000295221 0
0.0146907 -0.000337235 0
0.0144736 -0.000423474 0
0.0142092 -0.000445201 0
0.014008 -0.000602992 0
0.0143414 -0.000434338 0
0.0141086 -0.000524097 0
0.0142408 -0.000513233 0
0.0144738 -0.000423273 0
0.0149231 -0.000266729 0
0.0142061 -0.000448317 0
0.0146985 -0.000345001 0
0.0145646 -0.000357523 0
0.01434 -0.000435795 0
0.0142 -0.00059765 0
0.014646 -0.00034564 0
0.0140255 -0.000617193 0
0.014423 -0.000471645 0
0.0143357 -0.000481417 0
0.0141127 -0.000607422 0
0.0141997 -0.000597408 0
0.0142738 -0.000492531 0
0.0146382 -0.000337859 0
0.0142368 -0.00054497 0
0.014456 -0.000415195 0
0.014419 -0.000467634 0
0.0141997 -0.000597922 0
0.0140424 -0.000600241 0
0.0137489 -0.000889161 0
0.0141211 -0.000599082 0
0.0138956 -0.000744701 0
0.0139743 -0.000743542 0
0.0141994 -0.000597681 0
0.0137591 -0.000899395 0
0.0142534 -0.000512964 0
0.0139793 -0.000748538 0
0.0140062 -0.000706179 0
0.0142264 -0.000555322 0
0.0146756 -0.000334223 0
0.0151415 -0.000230988 0
0.0143506 -0.000371739 0
0.0149086 -0.000282605 0
0.014746 -0.000301363 0
0.0145131 -0.000352981 0
0.0146755 -0.000334086 0
0.0149182 -0.000253036 0
0.0151219 -0.000211438 0
0.0147969 -0.000293561 0
0.0150201 -0.000232237 0
0.0148987 -0.000272762 0
0.0146755 -0.00033438 0
0.0143435 -0.000378853 0
0.0141849 -0.000448445 0
0.0145095 -0.000356616 0
0.0142642 -0.000413649 0
0.0144302 -0.000391412 0
0.0146754 -0.000334243 0
0.0142061 -0.000469626 0
0.0149231 -0.00024814 0
0.0144407 -0.000401934 0
0.0145646 -0.000358883 0
0.0147992 -0.000291191 0
0.0153949 -0.00010503 0
0.0151407 -0.000230579 0
0.0154048 1.37821e-05 0
0.0152678 -0.000167804 0
0.0152727 -0.000108398 0
0.0153998 -4.56238e-05 0
0.0153951 -0.000105168 0
0.015319 -0.00019224 0
0.0151236 -0.000213506 0
0.0153571 -0.000148704 0
0.0152213 -0.000202873 0
0.0152593 -0.000159337 0
0.0153951 -0.000104884 0
0.015391 0 0
0.0156007 0 0
0.015393 -5.24419e-05 0
0.0154959 0 0
0.0154979 -5.24419e-05 0
0.0153952 -0.000105022 0
0.0156174 -1.6639e-05 0
0.0153338 -0.000177454 0
0.0155063 -6.08307e-05 0
0.0154756 -9.70467e-05 0
0.0153645 -0.000141238 0
0.0148476 -0.000295611 0
0.0143506 -0.000404342 0
0.0151415 -0.000201232 0
0.0145991 -0.000349976 0
0.014746 -0.000302787 0
0.0149945 -0.000248421 0
0.0148477 -0.000295477 0
0.0151292 -0.000213506 0
0.0153144 -0.00019224 0
0.0149885 -0.000254492 0
0.0152218 -0.000202873 0
0.0150811 -0.000243858 0
0.0148477 -0.000295725 0
0.0144731 -0.000353061 0
0.0143289 -0.000382647 0
0.0146604 -0.000324393 0
0.014401 -0.000367854 0
0.0145883 -0.000339186 0
0.0148478 -0.000295592 0
0.0153345 -0.000212322 0
0.0144875 -0.00033868 0
0.0150912 -0.000253957 0
0.014911 -0.000275501 0
0.0146677 -0.000317136 0
0.0135713 -0.000597555 0
0.0140366 -0.000602992 0
0.0141835 -0.000445201 0
0.013804 -0.000600273 0
0.0141101 -0.000524097 0
0.0138774 -0.000521378 0
0.0135714 -0.000597621 0
0.0142086 -0.000470265 0
0.0130028 -0.000538935 0
0.01389 -0.000533943 0
0.0136057 -0.0005046 0
0.0132871 -0.000568278 0
0.0135712 -0.000597661 0
0.012962 -0.000759533 0
0.0140303 -0.00060935 0
0.0132666 -0.000678597 0
0.0134961 -0.000684441 0
0.0138007 -0.000603505 0
0.0135713 -0.000597727 0
0.0130051 -0.000536632 0
0.0129332 -0.000730759 0
0.0132882 -0.000567179 0
0.0129692 -0.000633695 0
0.0132522 -0.000664243 0
0.0136683 -0.000474383 0
0.0142043 -0.000448445 0
0.0143258 -0.000378853 0
0.0139363 -0.000461414 0
0.0142651 -0.000413649 0
0.013997 -0.000426618 0
0.0136682 -0.000474465 0
0.0130028 -0.000569169 0
0.0142086 -0.000444178 0
0.0133355 -0.000521817 0
0.0136057 -0.000506674 0
0.0139384 -0.000459322 0
0.0136684 -0.000474439 0
0.0143514 -0.000404477 0
0.0130403 -0.000459511 0
0.0140099 -0.000439458 0
0.0136959 -0.000431994 0
0.0133543 -0.000466975 0
0.0136683 -0.000474521 0
0.0130334 -0.000466445 0
0.0129748 -0.000541154 0
0.0133508 -0.000470483 0
0.0130041 -0.0005038 0
0.0133215 -0.000507838 0
0.0134363 -0.00085515 0
0.0137873 -0.000889161 0
0.0140082 -0.000600241 0
0.0136118 -0.000872156 0
0.0138977 -0.000744701 0
0.0137222 -0.000727696 0
0.0134361 -0.000855331 0
0.0128854 -0.00113167 0
0.0137658 -0.000910655 0
0.0131608 -0.000993499 0
0.0133256 -0.00102116 0
0.013601 -0.000882993 0
0.0134364 -0.000855275 0
0.0140303 -0.000622313 0
0.012962 -0.000741713 0
0.0137333 -0.000738794 0
0.0134961 -0.000682013 0
0.0131992 -0.000798494 0
0.0134362 -0.000855456 0
0.0129777 -0.000726009 0
0.0128582 -0.00110442 0
0.013207 -0.000790732 0
0.0129179 -0.000915213 0
0.0131472 -0.000979936 0
0.0132086 -0.00129951 0
0.0133807 -0.00134027 0
0.0137516 -0.000887886 0
0.0132947 -0.00131989 0
0.0135661 -0.00111408 0
0.0134801 -0.0010937 0
0.0132089 -0.00129977 0
0.0137658 -0.000902116 0
0.0128854 -0.00113554 0
0.0134873 -0.00110094 0
0.0133256 -0.00101883 0
0.0130472 -0.00121765 0
0.0132083 -0.00129983 0
0.0127111 -0.00174813 0
0.0133392 -0.00138176 0
0.0129597 -0.00152398 0
0.0130251 -0.00156494 0
0.0132738 -0.00134079 0
0.0132086 -0.00130008 0
0.0129205 -0.00110042 0
0.0126916 -0.00172867 0
0.0130646 -0.00120025 0
0.0128061 -0.00141455 0
0.0129501 -0.00151437 0
0.0121585 0.00050937 0
0.0112284 0.000447526 0
0.0130401 0.000495982 0
0.0116934 0.000478448 0
0.0121342 0.000471754 0
0.0125993 0.000502676 0
0.0121585 0.000509429 0
0.0130105 0.000466445 0
0.0129993 0.000541154 0
0.0125845 0.000487937 0
0.0130049 0.0005038 0
0.0125789 0.000525292 0
0.0121585 0.000509334 0
0.0112713 0.00051197 0
0.0112202 0.000455664 0
0.0117149 0.000510652 0
0.0112458 0.000483817 0
0.0116894 0.000482499 0
0.0121586 0.000509393 0
0.0130053 0.000535082 0
0.0113031 0.000543764 0
0.0125819 0.000522237 0
0.0121542 0.000539423 0
0.0117308 0.000526578 0
0.0121486 0.000480374 0
0.0130401 0.000459338 0
0.0112284 0.000488044 0
0.0125943 0.000469856 0
0.0121342 0.000473691 0
0.0116885 0.000484209 0
0.0121486 0.000480362 0
0.0130646 0.000453053 0
0.0130282 0.000471231 0
0.0126066 0.000466708 0
0.0130464 0.000462142 0
0.0125884 0.000475797 0
0.0121486 0.000480373 0
0.0112007 0.000460333 0
0.0111692 0.000468948 0
0.0116746 0.000470353 0
0.0111849 0.000464641 0
0.0116589 0.000474661 0
0.0121486 0.000480361 0
0.0111824 0.000455758 0
0.0130911 0.00047949 0
0.0116655 0.00046806 0
0.0121367 0.000467624 0
0.0126198 0.000479926 0
0.0137592 0.000430191 0
0.0143514 0.000370616 0
0.0130403 0.00049731 0
0.0140553 0.000400403 0
0.0136959 0.000433963 0
0.0133998 0.00046375 0
0.0137593 0.000430261 0
0.0130142 0.000471231 0
0.013078 0.000453053 0
0.0133868 0.000450746 0
0.0130461 0.000462142 0
0.0134186 0.000441657 0
0.0137593 0.000430098 0
0.0144639 0.000353061 0
0.0143394 0.000382647 0
0.0141116 0.00039158 0
0.0144016 0.000367854 0
0.0140494 0.000406373 0
0.0137594 0.000430168 0
0.0130923 0.000438702 0
0.014488 0.000377145 0
0.0134259 0.000434435 0
0.0137902 0.000407923 0
0.0141237 0.000403657 0
0.0101605 0.000435117 0
0.0111973 0.000455664 0
0.0112947 0.00051197 0
0.0106789 0.00044539 0
0.011246 0.000483817 0
0.0107276 0.000473543 0
0.0101607 0.000434939 0
0.011304 0.000502642 0
0.00911124 0.000408857 0
0.0107324 0.000468791 0
0.0102076 0.00045575 0
0.00963598 0.000421898 0
0.0101604 0.000434931 0
0.00895499 0.000344385 0
0.0112259 0.000484254 0
0.00955768 0.000389658 0
0.0100904 0.000414319 0
0.0106931 0.000459592 0
0.0101605 0.000434753 0
0.0090815 0.000379124 0
0.00894525 0.000354128 0
0.00962102 0.000406938 0
0.00901338 0.000366626 0
0.00955289 0.000394441 0
0.0150097 0.000265365 0
0.0144697 0.0003581 0
0.014606 0.000308945 0
0.0147397 0.000311733 0
0.0145378 0.000333523 0
0.0148079 0.000287155 0
0.0150097 0.000265278 0
0.0153345 0.000178672 0
0.0144875 0.000375974 0
0.0151721 0.000221975 0
0.014911 0.000277323 0
0.0147486 0.000320626 0
0.0150099 0.00026525 0
0.0146251 0.000289772 0
0.0155076 0.000176743 0
0.0148175 0.000277511 0
0.0150664 0.000233258 0
0.0152587 0.000220997 0
0.0150098 0.000265163 0
0.0154922 0.000161326 0
0.0153182 0.000194985 0
0.015251 0.000213245 0
0.0154052 0.000178155 0
0.015164 0.000230074 0
0.0138611 0.000402798 0
0.014608 0.000308945 0
0.0144695 0.0003581 0
0.0142346 0.000355872 0
0.0145387 0.000333523 0
0.0141653 0.000380449 0
0.013861 0.000402919 0
0.014488 0.0003396 0
0.0130923 0.000481255 0
0.0141745 0.00037126 0
0.0137902 0.000410428 0
0.0134767 0.000442087 0
0.0138612 0.000402885 0
0.0131694 0.000401637 0
0.0146268 0.000327753 0
0.0135153 0.000402261 0
0.0138981 0.000364695 0
0.014244 0.000365319 0
0.0138611 0.000403006 0
0.0130705 0.000459403 0
0.0131475 0.000423597 0
0.0134658 0.000431204 0
0.013109 0.0004415 0
0.0135043 0.000413301 0
0.0155881 9.21356e-05 0
0.015787 0 0
0.0156027 0 0
0.0156875 4.60678e-05 0
0.0156948 0 0
0.0155954 4.60678e-05 0
0.015588 9.22363e-05 0
0.0156174 -1.46944e-05 0
0.0153338 0.000210107 0
0.0156027 3.8771e-05 0
0.0154756 9.77065e-05 0
0.0154609 0.000151172 0
0.0155882 9.2226e-05 0
0.0155063 0.000145438 0
0.0158013 1.43105e-05 0
0.0155472 0.000118832 0
0.0156538 7.9874e-05 0
0.0156947 5.32683e-05 0
0.0155881 9.23267e-05 0
0.0153187 0.000194985 0
0.0154904 0.000161326 0
0.0154534 0.000143656 0
0.0154045 0.000178155 0
0.0155392 0.000126827 0
0.0155881 -9.21356e-05 0
0.0156027 0 0
0.015787 0 0
0.0155954 -4.60678e-05 0
0.0156948 0 0
0.0156875 -4.60678e-05 0
0.015588 -9.22363e-05 0
0.0153338 -0.000210107 0
0.0156174 1.46944e-05 0
0.0154609 -0.000151172 0
0.0154756 -9.77065e-05 0
0.0156027 -3.8771e-05 0
0.0155882 -9.2226e-05 0
0.0158013 -1.43105e-05 0
0.0155063 -0.000145438 0
0.0156947 -5.32683e-05 0
0.0156538 -7.9874e-05 0
0.0155472 -0.000118832 0
0.0155881 -9.23267e-05 0
0.0154904 -0.000161326 0
0.0153187 -0.000194985 0
0.0155392 -0.000126827 0
0.0154045 -0.000178155 0
0.0154534 -0.000143656 0
0.0151536 0.000187428 0
0.0155076 0.000148714 0
0.0146251 0.000323139 0
0.0153306 0.000168071 0
0.0150664 0.000235926 0
0.0148894 0.000255283 0
0.0151537 0.000187353 0
0.0156265 7.43034e-05 0
0.0154912 0.000165113 0
0.0153901 0.000130828 0
0.0155588 0.000119708 0
0.0153224 0.000176233 0
0.0151536 0.000187457 0
0.0146182 0.000316172 0
0.0147236 0.00016415 0
0.0148859 0.000251815 0
0.0146709 0.000240161 0
0.0149386 0.000175804 0
0.0151537 0.000187382 0
0.0147445 0.000143229 0
0.0156291 7.6958e-05 0
0.0149491 0.000165306 0
0.0151868 0.000110093 0
0.0153914 0.00013217 0
0.0157441 6.21779e-05 0
0.0158013 -9.52801e-06 0
0.0155063 0.000171149 0
0.0157727 2.6325e-05 0
0.0156538 8.08105e-05 0
0.0156252 0.000116663 0
0.0157441 6.21926e-05 0
0.0155002 0.000165113 0
0.0156153 7.43034e-05 0
0.0156222 0.000113653 0
0.0155577 0.000119708 0
0.0156797 6.8248e-05 0
0.0157441 6.21471e-05 0
0.015916 0 0
0.0157917 0 0
0.0158301 3.10735e-05 0
0.0158539 0 0
0.0157679 3.10735e-05 0
0.0157441 6.21617e-05 0
0.0156264 6.31579e-05 0
0.0159205 4.50981e-06 0
0.0156853 6.26598e-05 0
0.0157735 3.38339e-05 0
0.0158323 3.33358e-05 0
0.0121663 0.000479054 0
0.0111579 0.000475092 0
0.0111524 0.000477545 0
0.0116621 0.000477073 0
0.0111552 0.000476319 0
0.0116594 0.0004783 0
0.0121663 0.000478983 0
0.0130911 0.000440497 0
0.0111824 0.000499585 0
0.0126287 0.00045974 0
0.0121367 0.000470041 0
0.0116743 0.000489284 0
0.0121664 0.000478961 0
0.0111737 0.000456268 0
0.0131694 0.000446046 0
0.0116701 0.000467614 0
0.0121715 0.000451157 0
0.0126679 0.000462503 0
0.0121664 0.00047889 0
0.0131469 0.000423597 0
0.0130721 0.000459403 0
0.0126566 0.000451243 0
0.0131095 0.0004415 0
0.0126193 0.000469146 0
0.0100563 0.000433828 0
0.0111535 0.000468948 0
0.0112152 0.000460333 0
0.0106049 0.000451388 0
0.0111843 0.000464641 0
0.0106357 0.000447081 0
0.0100562 0.000433724 0
0.00882329 0.000382087 0
0.0111779 0.000493291 0
0.00943974 0.000407905 0
0.0100006 0.000437689 0
0.010617 0.000463507 0
0.0100564 0.000433719 0
0.0112259 0.000449633 0
0.00895499 0.000381584 0
0.0106411 0.000441676 0
0.0100904 0.000415608 0
0.0095057 0.000407651 0
0.0100563 0.000433614 0
0.00893092 0.000357507 0
0.00881329 0.000392094 0
0.00949361 0.000395561 0
0.0088721 0.0003748 0
0.00943479 0.000412854 0
0.00998005 0.000468314 0
0.0111465 0.000477545 0
0.0111625 0.000475092 0
0.0105633 0.00047293 0
0.0111545 0.000476319 0
0.0105713 0.000471703 0
0.00998005 0.000468306 0
0.0111779 0.000459727 0
0.00882329 0.000418663 0
0.010579 0.000464016 0
0.0100006 0.000439195 0
0.00940167 0.000443484 0
0.00998004 0.000468309 0
0.00871592 0.000425126 0
0.0111691 0.000500164 0
0.00934798 0.000446718 0
0.00994252 0.000462645 0
0.0105746 0.000484237 0
0.00998005 0.000468301 0
0.00880104 0.000396404 0
0.00870094 0.000440107 0
0.00939054 0.000432353 0
0.00875099 0.000418255 0
0.0093405 0.000454204 0
0.0139749 0.000310602 0
0.0146268 0.000291822 0
0.0131694 0.000445397 0
0.0143009 0.000301212 0
0.0138981 0.00036861 0
0.0135722 0.000377999 0
0.013975 0.00031068 0
0.0131574 0.000433323 0
0.0132417 0.000272346 0
0.0135662 0.000372001 0
0.0131995 0.000352834 0
0.0136083 0.000291513 0
0.0139751 0.00031046 0
0.0147431 0.00016415 0
0.0146025 0.000316172 0
0.0143591 0.000237305 0
0.0146728 0.000240161 0
0.0142888 0.000313316 0
0.0139751 0.000310538 0
0.0132724 0.000241583 0
0.0147492 0.000170252 0
0.0136238 0.00027606 0
0.0140108 0.000205918 0
0.0143622 0.000240395 0
0.0122232 0.00041466 0
0.0131694 0.000403726 0
0.0111737 0.000506983 0
0.0126963 0.000409193 0
0.0121715 0.000455354 0
0.0116984 0.000460821 0
0.0122234 0.000414456 0
0.013263 0.000272346 0
0.0131398 0.000433323 0
0.0127432 0.000343401 0
0.0132014 0.000352834 0
0.0126816 0.000423889 0
0.0122233 0.000414805 0
0.0111546 0.000487864 0
0.0111889 0.000376014 0
0.011689 0.000451334 0
0.0111717 0.000431939 0
0.0117061 0.000395409 0
0.0122235 0.000414601 0
0.0112246 0.000340317 0
0.0132767 0.000286062 0
0.011724 0.000377459 0
0.0122506 0.00031319 0
0.0127501 0.000350331 0
0.00771038 0.000282387 0
0.00628481 0.000189614 0
0.00895005 0.00037551 0
0.00699759 0.000236001 0
0.00761743 0.000282562 0
0.00833021 0.000328949 0
0.00771065 0.000282658 0
0.00892867 0.000354128 0
0.0090966 0.000379124 0
0.00831966 0.000318393 0
0.00901264 0.000366626 0
0.00840363 0.000330891 0
0.00771066 0.000282107 0
0.00643746 0.000200089 0
0.00627388 0.000200543 0
0.00707406 0.000241098 0
0.00635567 0.000200316 0
0.00699227 0.000241325 0
0.00771093 0.000282378 0
0.00910901 0.000366718 0
0.00645847 0.000221097 0
0.00840997 0.000324548 0
0.00778374 0.000293907 0
0.0070847 0.000251737 0
0.00755129 0.000303476 0
0.00895005 0.000349065 0
0.00628481 0.000216782 0
0.00825067 0.000326271 0
0.00761743 0.000282923 0
0.00691805 0.000260129 0
0.00755104 0.000303725 0
0.00879946 0.000392094 0
0.00894161 0.000357507 0
0.00817525 0.000347909 0
0.00887053 0.0003748 0
0.00824632 0.000330616 0
0.00755106 0.000303247 0
0.00627007 0.000202038 0
0.0061075 0.00024189 0
0.00691056 0.000252643 0
0.00618878 0.000221964 0
0.00682928 0.000272569 0
0.00755081 0.000303496 0
0.00611354 0.000235854 0
0.00881565 0.000408286 0
0.00683217 0.000269675 0
0.00746459 0.00032207 0
0.00818323 0.000355891 0
0.00486795 0.000115346 0
0.00626933 0.000200543 0
0.00643927 0.000200089 0
0.00556864 0.000157945 0
0.0063543 0.000200316 0
0.00565361 0.000157718 0
0.00486821 0.000115083 0
0.00645324 0.000186118 0
0.00340655 6.27476e-05 0
0.00566072 0.0001506 0
0.0049299 0.000124433 0
0.00413738 8.89151e-05 0
0.0048677 0.000115098 0
0.00329228 4.73046e-05 0
0.0062796 0.00021082 0
0.00407999 8.12012e-05 0
0.00478594 0.000129063 0
0.00557365 0.000162959 0
0.00486796 0.000114834 0
0.00339723 5.34236e-05 0
0.00328028 5.92978e-05 0
0.00413259 8.41288e-05 0
0.00333876 5.63607e-05 0
0.00407412 8.70659e-05 0
0.0122388 -0.00146311 0
0.0116821 -0.00183608 0
0.0127251 -0.00176572 0
0.0119604 -0.0016496 0
0.0122036 -0.0018009 0
0.0124819 -0.00161441 0
0.0122389 -0.00146295 0
0.0127621 -0.00172867 0
0.0128589 -0.00110042 0
0.0125005 -0.00159581 0
0.0128105 -0.00141455 0
0.0125489 -0.00128169 0
0.0122388 -0.00146315 0
0.0115671 -0.00107328 0
0.0116331 -0.00178704 0
0.0119029 -0.00126821 0
0.0116001 -0.00143016 0
0.0119359 -0.00162509 0
0.012239 -0.00146299 0
0.0128968 -0.00113827 0
0.0115416 -0.00109873 0
0.0125679 -0.00130063 0
0.0122192 -0.0011185 0
0.0118903 -0.00128086 0
0.0121615 -0.00233452 0
0.0127251 -0.00175486 0
0.0116821 -0.001839 0
0.0124433 -0.00204469 0
0.0122036 -0.00179693 0
0.0119218 -0.00208676 0
0.0121611 -0.00233413 0
0.0124052 -0.00264505 0
0.0126993 -0.0017291 0
0.0122832 -0.00248959 0
0.0125522 -0.00218707 0
0.0124302 -0.00203162 0
0.012161 -0.00233501 0
0.0117411 -0.00178003 0
0.0116985 -0.00293254 0
0.011951 -0.00205752 0
0.0117198 -0.00235629 0
0.0119298 -0.00263377 0
0.0121606 -0.00233463 0
0.0117341 -0.00296809 0
0.0123347 -0.00271555 0
0.0119474 -0.00265136 0
0.0120344 -0.00284182 0
0.0122477 -0.00252509 0
0.0122233 -0.000925125 0
0.0114141 -0.000686111 0
0.0114963 -0.00108195 0
0.0118187 -0.000805618 0
0.0114552 -0.000884031 0
0.0118598 -0.00100354 0
0.0122234 -0.000925214 0
0.0115416 -0.00112723 0
0.0128968 -0.00111891 0
0.0118825 -0.00102622 0
0.0122192 -0.00112307 0
0.0125601 -0.00102206 0
0.0122233 -0.000925133 0
0.0129686 -0.000763327 0
0.0114074 -0.000692833 0
0.0125959 -0.00084423 0
0.012188 -0.00072808 0
0.0118153 -0.000808983 0
0.0122234 -0.000925222 0
0.0129113 -0.00110442 0
0.0129313 -0.000726009 0
0.0125673 -0.00101482 0
0.0129213 -0.000915213 0
0.0125773 -0.000825615 0
0.0107465 -0.00131481 0
0.0117227 -0.00178704 0
0.011492 -0.00107328 0
0.0112346 -0.00155093 0
0.0116073 -0.00143016 0
0.0111192 -0.00119405 0
0.0107461 -0.00131439 0
0.0115563 -0.00113763 0
0.00961165 -0.00081346 0
0.0111512 -0.00122601 0
0.010584 -0.000975546 0
0.0101789 -0.00106392 0
0.0107468 -0.00131455 0
0.0100453 -0.00154292 0
0.0117075 -0.00180218 0
0.010396 -0.00142874 0
0.0108764 -0.00167255 0
0.0112271 -0.00155837 0
0.0107463 -0.00131413 0
0.00961143 -0.000813684 0
0.00996417 -0.00146183 0
0.0101789 -0.00106391 0
0.0097878 -0.00113776 0
0.0103553 -0.00138798 0
0.0104864 -0.000789391 0
0.0115539 -0.00108195 0
0.0113647 -0.000686111 0
0.0110202 -0.000935671 0
0.0114593 -0.000884031 0
0.0109255 -0.000737751 0
0.0104867 -0.000789087 0
0.00961165 -0.000884966 0
0.0115563 -0.00107956 0
0.0100492 -0.000837026 0
0.010584 -0.000982264 0
0.0110215 -0.000934324 0
0.010486 -0.000789003 0
0.0114138 -0.000735236 0
0.00931607 -0.000493086 0
0.0109499 -0.000762119 0
0.0103649 -0.000614161 0
0.00990104 -0.000641044 0
0.0104863 -0.000788699 0
0.00930618 -0.000502974 0
0.00955365 -0.00082696 0
0.00989624 -0.000645837 0
0.00942992 -0.000664967 0
0.01002 -0.00080783 0
0.0121873 -0.000634593 0
0.0114074 -0.000730791 0
0.0129686 -0.000732284 0
0.0117973 -0.000682692 0
0.012188 -0.000731538 0
0.0125779 -0.000683438 0
0.0121872 -0.000634644 0
0.0129701 -0.000730759 0
0.012972 -0.000536632 0
0.0125787 -0.000682702 0
0.0129711 -0.000633695 0
0.0125796 -0.000585638 0
0.0121872 -0.000634495 0
0.0113003 -0.000506902 0
0.0113695 -0.000692878 0
0.0117437 -0.000570698 0
0.0113349 -0.00059989 0
0.0117783 -0.000663686 0
0.0121871 -0.000634547 0
0.0130053 -0.000569946 0
0.0113031 -0.000504127 0
0.0125962 -0.000602246 0
0.0121542 -0.000537036 0
0.0117451 -0.000569337 0
0.0118342 -0.00357365 0
0.0118373 -0.00294 0
0.0114713 -0.00457332 0
0.0118358 -0.00325682 0
0.0116543 -0.00375666 0
0.0116527 -0.00407349 0
0.011835 -0.00357285 0
0.0123347 -0.00264451 0
0.0117341 -0.00304322 0
0.0120848 -0.00310868 0
0.0120344 -0.00284387 0
0.0117845 -0.00330803 0
0.0118334 -0.00357281 0
0.011454 -0.00455604 0
0.0115555 -0.0038988 0
0.0116437 -0.00406442 0
0.0115048 -0.00422742 0
0.0116944 -0.0037358 0
0.0118342 -0.003572 0
0.0116565 -0.00379783 0
0.0123464 -0.00265625 0
0.0117453 -0.00368492 0
0.0120015 -0.00322704 0
0.0120903 -0.00311413 0
0.0110657 -0.00226298 0
0.0118226 -0.00293254 0
0.011636 -0.00178003 0
0.0114442 -0.00259776 0
0.0117293 -0.00235629 0
0.0113508 -0.00202151 0
0.0110655 -0.00226317 0
0.0106185 -0.00274174 0
0.011763 -0.00299216 0
0.010842 -0.00250246 0
0.0111907 -0.00286695 0
0.0114142 -0.00262766 0
0.0110656 -0.00226289 0
0.0117075 -0.00185158 0
0.0100453 -0.0014731 0
0.0113866 -0.00205724 0
0.0108764 -0.00166234 0
0.0105554 -0.001868 0
0.0110654 -0.00226309 0
0.0100777 -0.00144061 0
0.01052 -0.00264329 0
0.0105716 -0.00185185 0
0.0102989 -0.00204195 0
0.0107927 -0.00245319 0
0.0113095 -0.00382238 0
0.0115927 -0.00457332 0
0.0117241 -0.00294 0
0.0114511 -0.00419785 0
0.0116584 -0.00375666 0
0.0115168 -0.00338119 0
0.0113105 -0.00382341 0
0.011763 -0.00297883 0
0.0106185 -0.00273923 0
0.0115368 -0.00340112 0
0.0111907 -0.00285903 0
0.0109645 -0.00328132 0
0.0113082 -0.00382365 0
0.0111372 -0.00473448 0
0.0114554 -0.0047106 0
0.0112227 -0.00427906 0
0.0112963 -0.00472254 0
0.0113818 -0.00426712 0
0.0113093 -0.00382468 0
0.0107309 -0.00262675 0
0.0110781 -0.00467542 0
0.0110201 -0.00322571 0
0.0109045 -0.00365109 0
0.0111937 -0.00425005 0
0.0110125 -0.00503191 0
0.0115555 -0.00375037 0
0.011454 -0.00473493 0
0.011284 -0.00439114 0
0.0115048 -0.00424265 0
0.0112332 -0.00488342 0
0.0110114 -0.00503086 0
0.0103272 -0.00493358 0
0.0116303 -0.00382511 0
0.0106693 -0.00498222 0
0.0109788 -0.00437935 0
0.0113208 -0.00442799 0
0.0110118 -0.00503262 0
0.0115769 -0.00461198 0
0.0105836 -0.00644657 0
0.0112944 -0.0048223 0
0.0110803 -0.00552927 0
0.0107977 -0.0057396 0
0.0110107 -0.00503157 0
0.0104737 -0.00633668 0
0.0102359 -0.00502492 0
0.0107422 -0.00568412 0
0.0103548 -0.0056808 0
0.0106233 -0.00502824 0
0.0121585 -0.00050937 0
0.0130401 -0.000495982 0
0.0112284 -0.000447526 0
0.0125993 -0.000502676 0
0.0121342 -0.000471754 0
0.0116934 -0.000478448 0
0.0121585 -0.000509429 0
0.0129993 -0.000541154 0
0.0130105 -0.000466445 0
0.0125789 -0.000525292 0
0.0130049 -0.0005038 0
0.0125845 -0.000487937 0
0.0121585 -0.000509334 0
0.0112202 -0.000455664 0
0.0112713 -0.00051197 0
0.0116894 -0.000482499 0
0.0112458 -0.000483817 0
0.0117149 -0.000510652 0
0.0121586 -0.000509393 0
0.0113031 -0.000543764 0
0.0130053 -0.000535082 0
0.0117308 -0.000526578 0
0.0121542 -0.000539423 0
0.0125819 -0.000522237 0
0.0121486 -0.000480374 0
0.0112284 -0.000488044 0
0.0130401 -0.000459338 0
0.0116885 -0.000484209 0
0.0121342 -0.000473691 0
0.0125943 -0.000469856 0
0.0121486 -0.000480362 0
0.0130282 -0.000471231 0
0.0130646 -0.000453053 0
0.0125884 -0.000475797 0
0.0130464 -0.000462142 0
0.0126066 -0.000466708 0
0.0121486 -0.000480373 0
0.0111692 -0.000468948 0
0.0112007 -0.000460333 0
0.0116589 -0.000474661 0
0.0111849 -0.000464641 0
0.0116746 -0.000470353 0
0.0121486 -0.000480361 0
0.0130911 -0.00047949 0
0.0111824 -0.000455758 0
0.0126198 -0.000479926 0
0.0121367 -0.000467624 0
0.0116655 -0.00046806 0
0.0137592 -0.000430191 0
0.0130403 -0.00049731 0
0.0143514 -0.000370616 0
0.0133998 -0.00046375 0
0.0136959 -0.000433963 0
0.0140553 -0.000400403 0
0.0137593 -0.000430261 0
0.013078 -0.000453053 0
0.0130142 -0.000471231 0
0.0134186 -0.000441657 0
0.0130461 -0.000462142 0
0.0133868 -0.000450746 0
0.0137593 -0.000430098 0
0.0143394 -0.000382647 0
0.0144639 -0.000353061 0
0.0140494 -0.000406373 0
0.0144016 -0.000367854 0
0.0141116 -0.00039158 0
0.0137594 -0.000430168 0
0.014488 -0.000377145 0
0.0130923 -0.000438702 0
0.0141237 -0.000403657 0
0.0137902 -0.000407923 0
0.0134259 -0.000434435 0
0.0101605 -0.000435117 0
0.0112947 -0.00051197 0
0.0111973 -0.000455664 0
0.0107276 -0.000473543 0
0.011246 -0.000483817 0
0.0106789 -0.00044539 0
0.0101607 -0.000434939 0
0.00911124 -0.000408857 0
0.011304 -0.000502642 0
0.00963598 -0.000421898 0
0.0102076 -0.00045575 0
0.0107324 -0.000468791 0
0.0101604 -0.000434931 0
0.0112259 -0.000484254 0
0.00895499 -0.000344385 0
0.0106931 -0.000459592 0
0.0100904 -0.000414319 0
0.00955768 -0.000389658 0
0.0101605 -0.000434753 0
0.00894525 -0.000354128 0
0.0090815 -0.000379124 0
0.00955289 -0.000394441 0
0.00901338 -0.000366626 0
0.00962102 -0.000406938 0
0.0102977 -0.000530665 0
0.0114058 -0.000692878 0
0.0112674 -0.000506902 0
0.0108518 -0.000611772 0
0.0113366 -0.00059989 0
0.0107825 -0.000518784 0
0.0102974 -0.000530385 0
0.011304 -0.000543526 0
0.00911124 -0.000363899 0
0.0108007 -0.000536956 0
0.0102076 -0.000453713 0
0.00970433 -0.000447142 0
0.010298 -0.000530421 0
0.00931607 -0.000550977 0
0.0114138 -0.000684919 0
0.00980701 -0.000540699 0
0.0103649 -0.000617948 0
0.0108559 -0.00060767 0
0.0102977 -0.000530141 0
0.00910039 -0.000374742 0
0.00927551 -0.000510418 0
0.00969903 -0.000452441 0
0.00918795 -0.00044258 0
0.0097866 -0.000520279 0
0.0150097 -0.000265365 0
0.014606 -0.000308945 0
0.0144697 -0.0003581 0
0.0148079 -0.000287155 0
0.0145378 -0.000333523 0
0.0147397 -0.000311733 0
0.0150097 -0.000265278 0
0.0144875 -0.000375974 0
0.0153345 -0.000178672 0
0.0147486 -0.000320626 0
0.014911 -0.000277323 0
0.0151721 -0.000221975 0
0.0150099 -0.00026525 0
0.0155076 -0.000176743 0
0.0146251 -0.000289772 0
0.0152587 -0.000220997 0
0.0150664 -0.000233258 0
0.0148175 -0.000277511 0
0.0150098 -0.000265163 0
0.0153182 -0.000194985 0
0.0154922 -0.000161326 0
0.015164 -0.000230074 0
0.0154052 -0.000178155 0
0.015251 -0.000213245 0
0.0138611 -0.000402798 0
0.0144695 -0.0003581 0
0.014608 -0.000308945 0
0.0141653 -0.000380449 0
0.0145387 -0.000333523 0
0.0142346 -0.000355872 0
0.013861 -0.000402919 0
0.0130923 -0.000481255 0
0.014488 -0.0003396 0
0.0134767 -0.000442087 0
0.0137902 -0.000410428 0
0.0141745 -0.00037126 0
0.0138612 -0.000402885 0
0.0146268 -0.000327753 0
0.0131694 -0.000401637 0
0.014244 -0.000365319 0
0.0138981 -0.000364695 0
0.0135153 -0.000402261 0
0.0138611 -0.000403006 0
0.0131475 -0.000423597 0
0.0130705 -0.000459403 0
0.0135043 -0.000413301 0
0.013109 -0.0004415 0
0.0134658 -0.000431204 0
0.0151536 -0.000187428 0
0.0146251 -0.000323139 0
0.0155076 -0.000148714 0
0.0148894 -0.000255283 0
0.0150664 -0.000235926 0
0.0153306 -0.000168071 0
0.0151537 -0.000187353 0
0.0154912 -0.000165113 0
0.0156265 -7.43034e-05 0
0.0153224 -0.000176233 0
0.0155588 -0.000119708 0
0.0153901 -0.000130828 0
0.0151536 -0.000187457 0
0.0147236 -0.00016415 0
0.0146182 -0.000316172 0
0.0149386 -0.000175804 0
0.0146709 -0.000240161 0
0.0148859 -0.000251815 0
0.0151537 -0.000187382 0
0.0156291 -7.6958e-05 0
0.0147445 -0.000143229 0
0.0153914 -0.00013217 0
0.0151868 -0.000110093 0
0.0149491 -0.000165306 0
0.0157441 -6.21779e-05 0
0.0155063 -0.000171149 0
0.0158013 9.52801e-06 0
0.0156252 -0.000116663 0
0.0156538 -8.08105e-05 0
0.0157727 -2.6325e-05 0
0.0157441 -6.21926e-05 0
0.0156153 -7.43034e-05 0
0.0155002 -0.000165113 0
0.0156797 -6.8248e-05 0
0.0155577 -0.000119708 0
0.0156222 -0.000113653 0
0.0157441 -6.21471e-05 0
0.0157917 0 0
0.015916 0 0
0.0157679 -3.10735e-05 0
0.0158539 0 0
0.0158301 -3.10735e-05 0
0.0157441 -6.21617e-05 0
0.0159205 -4.50981e-06 0
0.0156264 -6.31579e-05 0
0.0158323 -3.33358e-05 0
0.0157735 -3.38339e-05 0
0.0156853 -6.26598e-05 0
0.0121663 -0.000479054 0
0.0111524 -0.000477545 0
0.0111579 -0.000475092 0
0.0116594 -0.0004783 0
0.0111552 -0.000476319 0
0.0116621 -0.000477073 0
0.0121663 -0.000478983 0
0.0111824 -0.000499585 0
0.0130911 -0.000440497 0
0.0116743 -0.000489284 0
0.0121367 -0.000470041 0
0.0126287 -0.00045974 0
0.0121664 -0.000478961 0
0.0131694 -0.000446046 0
0.0111737 -0.000456268 0
0.0126679 -0.000462503 0
0.0121715 -0.000451157 0
0.0116701 -0.000467614 0
0.0121664 -0.00047889 0
0.0130721 -0.000459403 0
0.0131469 -0.000423597 0
0.0126193 -0.000469146 0
0.0131095 -0.0004415 0
0.0126566 -0.000451243 0
0.0100563 -0.000433828 0
0.0112152 -0.000460333 0
0.0111535 -0.000468948 0
0.0106357 -0.000447081 0
0.0111843 -0.000464641 0
0.0106049 -0.000451388 0
0.0100562 -0.000433724 0
0.0111779 -0.000493291 0
0.00882329 -0.000382087 0
0.010617 -0.000463507 0
0.0100006 -0.000437689 0
0.00943974 -0.000407905 0
0.0100564 -0.000433719 0
0.00895499 -0.000381584 0
0.0112259 -0.000449633 0
0.0095057 -0.000407651 0
0.0100904 -0.000415608 0
0.0106411 -0.000441676 0
0.0100563 -0.000433614 0
0.00881329 -0.000392094 0
0.00893092 -0.000357507 0
0.00943479 -0.000412854 0
0.0088721 -0.0003748 0
0.00949361 -0.000395561 0
0.00998005 -0.000468314 0
0.0111625 -0.000475092 0
0.0111465 -0.000477545 0
0.0105713 -0.000471703 0
0.0111545 -0.000476319 0
0.0105633 -0.00047293 0
0.00998005 -0.000468306 0
0.00882329 -0.000418663 0
0.0111779 -0.000459727 0
0.00940167 -0.000443484 0
0.0100006 -0.000439195 0
0.010579 -0.000464016 0
0.00998004 -0.000468309 0
0.0111691 -0.000500164 0
0.00871592 -0.000425126 0
0.0105746 -0.000484237 0
0.00994252 -0.000462645 0
0.00934798 -0.000446718 0
0.00998005 -0.000468301 0
0.00870094 -0.000440107 0
0.00880104 -0.000396404 0
0.0093405 -0.000454204 0
0.00875099 -0.000418255 0
0.00939054 -0.000432353 0
0.0139749 -0.000310602 0
0.0131694 -0.000445397 0
0.0146268 -0.000291822 0
0.0135722 -0.000377999 0
0.0138981 -0.00036861 0
0.0143009 -0.000301212 0
0.013975 -0.00031068 0
0.0132417 -0.000272346 0
0.0131574 -0.000433323 0
0.0136083 -0.000291513 0
0.0131995 -0.000352834 0
0.0135662 -0.000372001 0
0.0139751 -0.00031046 0
0.0146025 -0.000316172 0
0.0147431 -0.00016415 0
0.0142888 -0.000313316 0
0.0146728 -0.000240161 0
0.0143591 -0.000237305 0
0.0139751 -0.000310538 0
0.0147492 -0.000170252 0
0.0132724 -0.000241583 0
0.0143622 -0.000240395 0
0.0140108 -0.000205918 0
0.0136238 -0.00027606 0
0.0122232 -0.00041466 0
0.0111737 -0.000506983 0
0.0131694 -0.000403726 0
0.0116984 -0.000460821 0
0.0121715 -0.000455354 0
0.0126963 -0.000409193 0
0.0122234 -0.000414456 0
0.0131398 -0.000433323 0
0.013263 -0.000272346 0
0.0126816 -0.000423889 0
0.0132014 -0.000352834 0
0.0127432 -0.000343401 0
0.0122233 -0.000414805 0
0.0111889 -0.000376014 0
0.0111546 -0.000487864 0
0.0117061 -0.000395409 0
0.0111717 -0.000431939 0
0.011689 -0.000451334 0
0.0122235 -0.000414601 0
0.0132767 -0.000286062 0
0.0112246 -0.000340317 0
0.0127501 -0.000350331 0
0.0122506 -0.00031319 0
0.011724 -0.000377459 0
0.00815693 -0.000499716 0
0.00931801 -0.000552865 0
0.00667348 -0.000230486 0
0.00873747 -0.000526291 0
0.00799574 -0.000391676 0
0.00741521 -0.000365101 0
0.00815755 -0.000500337 0
0.00959738 -0.00082696 0
0.00926812 -0.000502974 0
0.00887746 -0.000663649 0
0.00943275 -0.000664967 0
0.00871283 -0.000501656 0
0.00815751 -0.000499135 0
0.0066457 -0.000258263 0
0.00694444 -0.000441271 0
0.00740161 -0.000378699 0
0.00679507 -0.000349767 0
0.00755098 -0.000470203 0
0.00815813 -0.000499756 0
0.00699943 -0.000496262 0
0.00962246 -0.000801878 0
0.00757878 -0.000498009 0
0.00831094 -0.00064907 0
0.0088903 -0.000650817 0
0.00789804 -0.000331084 0
0.00667348 -0.000296558 0
0.00931801 -0.000491964 0
0.00728576 -0.000313821 0
0.00799574 -0.000394261 0
0.00860802 -0.000411524 0
0.00789767 -0.000331457 0
0.00929955 -0.000510418 0
0.00907731 -0.000374742 0
0.00859861 -0.000420938 0
0.00918843 -0.00044258 0
0.00848749 -0.0003531 0
0.00789766 -0.000330705 0
0.0064402 -0.000197617 0
0.00664046 -0.000263537 0
0.00716893 -0.000264161 0
0.00654033 -0.000230577 0
0.00726906 -0.000297121 0
0.00789729 -0.000331078 0
0.00910901 -0.000406444 0
0.00645847 -0.000179348 0
0.00850315 -0.000368761 0
0.00778374 -0.000292896 0
0.00717788 -0.000255213 0
0.0085642 -0.000883271 0
0.00755216 -0.000935708 0
0.0100758 -0.00143525 0
0.00805818 -0.00090949 0
0.00881397 -0.00118548 0
0.00931999 -0.00115926 0
0.00856327 -0.000884198 0
0.0100492 -0.00146183 0
0.00954207 -0.000813684 0
0.00930623 -0.00117302 0
0.00979563 -0.00113776 0
0.00905267 -0.000848941 0
0.00856314 -0.000882213 0
0.00696207 -0.000428884 0
0.00745703 -0.000840578 0
0.00776261 -0.000655548 0
0.00720955 -0.000634731 0
0.00801009 -0.000861396 0
0.00856222 -0.00088314 0
0.00962246 -0.00089407 0
0.00699943 -0.000391526 0
0.00909234 -0.000888605 0
0.00831094 -0.000642798 0
0.00778082 -0.000637333 0
0.00920885 -0.0016749 0
0.0100758 -0.00156586 0
0.00755216 -0.000776105 0
0.00964231 -0.00162038 0
0.00881397 -0.00117098 0
0.00838051 -0.0012255 0
0.00921035 -0.0016764 0
0.0106816 -0.00264329 0
0.00995053 -0.00144061 0
0.00994599 -0.00215984 0
0.0103161 -0.00204195 0
0.00958044 -0.00155851 0
0.00921001 -0.00167373 0
0.00751851 -0.000809757 0
0.00834156 -0.00171466 0
0.00836426 -0.00124174 0
0.00793004 -0.00126221 0
0.00877579 -0.00169419 0
0.00921151 -0.00167524 0
0.00850251 -0.00187561 0
0.0106849 -0.00264 0
0.00885701 -0.00177542 0
0.00959371 -0.00225781 0
0.00994821 -0.00215762 0
0.00523165 -0.00018908 0
0.00695459 -0.000441271 0
0.00663322 -0.000258263 0
0.00609312 -0.000315176 0
0.00679391 -0.000349767 0
0.00593243 -0.000223672 0
0.00523216 -0.000188574 0
0.00372882 -0.000144236 0
0.00699356 -0.000402304 0
0.00448049 -0.000166405 0
0.00536119 -0.00027327 0
0.00611286 -0.000295439 0
0.00523118 -0.000188613 0
0.00666721 -0.000292252 0
0.00353413 -3.12217e-05 0
0.0059492 -0.000240433 0
0.00510067 -0.000161737 0
0.00438266 -0.000109917 0
0.00523169 -0.000188107 0
0.00349998 -6.53741e-05 0
0.0036977 -0.000113116 0
0.00436583 -0.000126741 0
0.00359884 -8.92453e-05 0
0.0044647 -0.000150612 0
0.00558346 -0.000353311 0
0.00749226 -0.000840578 0
0.00692942 -0.000428884 0
0.00653786 -0.000596945 0
0.00721084 -0.000634731 0
0.00625644 -0.000391097 0
0.00558234 -0.000352195 0
0.00699356 -0.000493023 0
0.00372882 -5.07159e-05 0
0.00628795 -0.000422609 0
0.00536119 -0.000271869 0
0.00465558 -0.000201455 0
0.00558462 -0.000352154 0
0.00409543 -0.000292273 0
0.00755719 -0.000775653 0
0.00484002 -0.000322214 0
0.00582631 -0.000533963 0
0.0065709 -0.000563904 0
0.0055835 -0.000351038 0
0.00367012 -0.000109415 0
0.00403297 -0.000229813 0
0.00462681 -0.000230227 0
0.00385155 -0.000169614 0
0.00480824 -0.000290425 0
0.00771038 -0.000282387 0
0.00895005 -0.00037551 0
0.00628481 -0.000189614 0
0.00833021 -0.000328949 0
0.00761743 -0.000282562 0
0.00699759 -0.000236001 0
0.00771065 -0.000282658 0
0.0090966 -0.000379124 0
0.00892867 -0.000354128 0
0.00840363 -0.000330891 0
0.00901264 -0.000366626 0
0.00831966 -0.000318393 0
0.00771066 -0.000282107 0
0.00627388 -0.000200543 0
0.00643746 -0.000200089 0
0.00699227 -0.000241325 0
0.00635567 -0.000200316 0
0.00707406 -0.000241098 0
0.00771093 -0.000282378 0
0.00645847 -0.000221097 0
0.00910901 -0.000366718 0
0.0070847 -0.000251737 0
0.00778374 -0.000293907 0
0.00840997 -0.000324548 0
0.00755129 -0.000303476 0
0.00628481 -0.000216782 0
0.00895005 -0.000349065 0
0.00691805 -0.000260129 0
0.00761743 -0.000282923 0
0.00825067 -0.000326271 0
0.00755104 -0.000303725 0
0.00894161 -0.000357507 0
0.00879946 -0.000392094 0
0.00824632 -0.000330616 0
0.00887053 -0.0003748 0
0.00817525 -0.000347909 0
0.00755106 -0.000303247 0
0.0061075 -0.00024189 0
0.00627007 -0.000202038 0
0.00682928 -0.000272569 0
0.00618878 -0.000221964 0
0.00691056 -0.000252643 0
0.00755081 -0.000303496 0
0.00881565 -0.000408286 0
0.00611354 -0.000235854 0
0.00818323 -0.000355891 0
0.00746459 -0.00032207 0
0.00683217 -0.000269675 0
0.00502228 -0.00012586 0
0.00664365 -0.000263537 0
0.00643421 -0.000197617 0
0.00583296 -0.000194698 0
0.00653893 -0.000230577 0
0.00572825 -0.000161739 0
0.00502201 -0.000125595 0
0.00645324 -0.000216641 0
0.00340655 -3.24084e-05 0
0.00573762 -0.000171118 0
0.0049299 -0.000124525 0
0.00421428 -7.90015e-05 0
0.00502257 -0.000125569 0
0.00353413 -8.37754e-05 0
0.00666721 -0.000239978 0
0.00427835 -0.000104672 0
0.00510067 -0.000161877 0
0.00584489 -0.000182774 0
0.0050223 -0.000125304 0
0.00338598 -5.29823e-05 0
0.00351698 -6.66247e-05 0
0.00420414 -8.91431e-05 0
0.00345148 -5.98035e-05 0
0.00426964 -9.59643e-05 0
0.00486795 -0.000115346 0
0.00643927 -0.000200089 0
0.00626933 -0.000200543 0
0.00565361 -0.000157718 0
0.0063543 -0.000200316 0
0.00556864 -0.000157945 0
0.00486821 -0.000115083 0
0.00340655 -6.27476e-05 0
0.00645324 -0.000186118 0
0.00413738 -8.89151e-05 0
0.0049299 -0.000124433 0
0.00566072 -0.0001506 0
0.0048677 -0.000115098 0
0.0062796 -0.00021082 0
0.00329228 -4.73046e-05 0
0.00557365 -0.000162959 0
0.00478594 -0.000129063 0
0.00407999 -8.12012e-05 0
0.00486796 -0.000114834 0
0.00328028 -5.92978e-05 0
0.00339723 -5.34236e-05 0
0.00407412 -8.70659e-05 0
0.00333876 -5.63607e-05 0
0.00413259 -8.41288e-05 0
0.00949044 -0.00624498 0
0.00860369 -0.00758095 0
0.0083932 -0.00559696 0
0.00904707 -0.00691297 0
0.00849844 -0.00658896 0
0.00894182 -0.00592097 0
0.00949028 -0.00624513 0
0.00841729 -0.00557287 0
0.0103636 -0.0049711 0
0.00895379 -0.005909 0
0.00939044 -0.00527198 0
0.00992694 -0.00560811 0
0.00949055 -0.00624509 0
0.0105236 -0.00652242 0
0.00875704 -0.00773431 0
0.0100071 -0.00638375 0
0.00964032 -0.00712837 0
0.0091238 -0.0069897 0
0.00949039 -0.00624524 0
0.0102359 -0.00484341 0
0.0104737 -0.00657228 0
0.00986315 -0.00554433 0
0.0103548 -0.00570784 0
0.00998207 -0.00640876 0
0.00983085 -0.00816239 0
0.00857773 -0.00773431 0
0.0106458 -0.00652242 0
0.00920429 -0.00794835 0
0.00961176 -0.00712837 0
0.0102383 -0.00734241 0
0.00983171 -0.00816324 0
0.0104339 -0.00631059 0
0.010852 -0.00793312 0
0.0101328 -0.00723692 0
0.010643 -0.00712185 0
0.0103419 -0.00804818 0
0.00983076 -0.00816249 0
0.00902877 -0.0099463 0
0.00849924 -0.0078128 0
0.00942976 -0.00905439 0
0.00876401 -0.00887955 0
0.009165 -0.00798764 0
0.00983161 -0.00816334 0
0.0110028 -0.0077823 0
0.00931484 -0.0102324 0
0.0104172 -0.00797282 0
0.0101588 -0.00900733 0
0.00957322 -0.00919785 0
0.0110949 -0.00598953 0
0.0106071 -0.00644657 0
0.0115276 -0.00461198 0
0.010851 -0.00621805 0
0.0110673 -0.00552927 0
0.0113113 -0.00530075 0
0.0110936 -0.00599091 0
0.010852 -0.00752088 0
0.0104339 -0.0066197 0
0.0109728 -0.00675589 0
0.010643 -0.00707029 0
0.0107638 -0.0063053 0
0.0110968 -0.00599138 0
0.0114554 -0.0045398 0
0.0111372 -0.00493881 0
0.0112761 -0.00526559 0
0.0112963 -0.00473931 0
0.011117 -0.0054651 0
0.0110954 -0.00599276 0
0.0113528 -0.00472322 0
0.0109731 -0.00764198 0
0.0112241 -0.00535799 0
0.0111629 -0.0061826 0
0.0110343 -0.00681737 0
0.0101459 -0.00325472 0
0.00999162 -0.00389689 0
0.0112023 -0.00479904 0
0.0100688 -0.00357581 0
0.0105969 -0.00434796 0
0.0106741 -0.00402688 0
0.0101465 -0.00325408 0
0.0113259 -0.00467542 0
0.0105319 -0.00262675 0
0.0107362 -0.00396475 0
0.0109289 -0.00365109 0
0.0103392 -0.00294042 0
0.0101456 -0.00325443 0
0.00853529 -0.001642 0
0.00974844 -0.00365371 0
0.00934044 -0.00244821 0
0.00914187 -0.00264785 0
0.00994701 -0.00345407 0
0.0101462 -0.00325379 0
0.0106849 -0.00277979 0
0.00850251 -0.00167478 0
0.0104156 -0.00301679 0
0.00959371 -0.00222728 0
0.00932437 -0.00246428 0
0.0110055 -0.00621908 0
0.0112023 -0.00473945 0
0.00999162 -0.00392236 0
0.0111039 -0.00547927 0
0.0105969 -0.00433091 0
0.0104986 -0.00507072 0
0.0110012 -0.00621483 0
0.0111216 -0.00764198 0
0.011186 -0.00472322 0
0.0110614 -0.00692841 0
0.0111538 -0.0061826 0
0.0110936 -0.00546903 0
0.0110006 -0.00622397 0
0.0102999 -0.00361409 0
0.011502 -0.00763171 0
0.0106503 -0.00491903 0
0.010901 -0.0056229 0
0.0112513 -0.00692784 0
0.0109964 -0.00621971 0
0.0115701 -0.00769979 0
0.0107432 -0.00802037 0
0.0112832 -0.00695975 0
0.0111566 -0.00786008 0
0.0108698 -0.00712004 0
0.0075396 -0.00173165 0
0.0101102 -0.00365371 0
0.00827784 -0.001642 0
0.00882493 -0.00269268 0
0.00919405 -0.00264785 0
0.00790872 -0.00168682 0
0.00753265 -0.0017247 0
0.00856325 -0.00192741 0
0.00486893 -0.00029428 0
0.00804795 -0.00182605 0
0.00671609 -0.00111084 0
0.00620079 -0.00100949 0
0.00754598 -0.00172527 0
0.00658403 -0.00179666 0
0.0102376 -0.00352634 0
0.00706501 -0.00176097 0
0.00841082 -0.0026615 0
0.0088918 -0.00262581 0
0.00753903 -0.00171832 0
0.00469963 -0.000463579 0
0.00623003 -0.00144266 0
0.00611933 -0.00109095 0
0.00546483 -0.000953121 0
0.00688453 -0.00158049 0
0.00624351 -0.000745309 0
0.00845968 -0.00171466 0
0.00742588 -0.000809757 0
0.00735159 -0.00122998 0
0.00794278 -0.00126221 0
0.00683469 -0.000777533 0
0.00624642 -0.000742394 0
0.00486893 -0.000671745 0
0.00856325 -0.00161108 0
0.00555768 -0.00070707 0
0.00671609 -0.00114141 0
0.00740484 -0.00117674 0
0.00624053 -0.000742333 0
0.00755719 -0.00094106 0
0.00409543 -0.000112615 0
0.00689886 -0.000841697 0
0.00582631 -0.000526838 0
0.00516798 -0.000427474 0
0.00624345 -0.000739417 0
0.00399181 -0.00021624 0
0.00472579 -0.000528608 0
0.00511763 -0.000477828 0
0.0043588 -0.000372424 0
0.00548462 -0.000634013 0
0.0105641 -0.010054 0
0.00993135 -0.012812 0
0.00882674 -0.0104419 0
0.0102477 -0.011433 0
0.00937904 -0.011627 0
0.00969544 -0.0102479 0
0.0105643 -0.0100538 0
0.00903623 -0.0102324 0
0.0111292 -0.0077823 0
0.00980027 -0.0101431 0
0.0100827 -0.00900733 0
0.0108468 -0.00891807 0
0.0105677 -0.0100576 0
0.0121031 -0.00804081 0
0.0106484 -0.0135291 0
0.0113354 -0.00904919 0
0.0113757 -0.0107849 0
0.010608 -0.0117933 0
0.0105679 -0.0100574 0
0.0107432 -0.00739624 0
0.0115701 -0.0085738 0
0.0106555 -0.00872681 0
0.0111566 -0.00798502 0
0.011069 -0.0093156 0
0.00990643 -0.00448296 0
0.0121156 -0.00763171 0
0.00983569 -0.00361409 0
0.011011 -0.00605734 0
0.0109756 -0.0056229 0
0.00987106 -0.00404852 0
0.00989874 -0.00449065 0
0.0104121 -0.00584711 0
0.0116428 -0.00810448 0
0.0101554 -0.00516888 0
0.0110274 -0.00697579 0
0.0107708 -0.00629756 0
0.00990932 -0.00448586 0
0.0102376 -0.00401601 0
0.00658403 -0.00101902 0
0.0100735 -0.00425093 0
0.00841082 -0.00251751 0
0.00824668 -0.00275244 0
0.00990163 -0.00449354 0
0.00658141 -0.00102164 0
0.0095559 -0.00499096 0
0.00824152 -0.00275759 0
0.00806866 -0.0030063 0
0.00972877 -0.00474225 0
0.0114848 -0.0118862 0
0.0100234 -0.0135291 0
0.012226 -0.00804081 0
0.0107541 -0.0127076 0
0.0111247 -0.0107849 0
0.0118554 -0.00996351 0
0.0114992 -0.0119007 0
0.0116428 -0.00745766 0
0.0104121 -0.00651405 0
0.011571 -0.00967916 0
0.0110274 -0.00698585 0
0.0109556 -0.00920735 0
0.0114691 -0.0119019 0
0.0149885 -0.0149139 0
0.00829414 -0.0152583 0
0.0132288 -0.0134079 0
0.0116413 -0.0150861 0
0.00988162 -0.0135801 0
0.0114836 -0.0119163 0
0.0119927 -0.0049334 0
0.0154833 -0.0154087 0
0.0117381 -0.00842487 0
0.013738 -0.010171 0
0.0134834 -0.0136625 0
0.00169576 6.97178e-06 0
2.24966e-05 0 0
8.55305e-06 0 0
0.000859128 3.48589e-06 0
1.55248e-05 0 0
0.000852157 3.48589e-06 0
0.00169585 7.06403e-06 0
0.00340192 3.87133e-05 0
2.5499e-05 3.00238e-06 0
0.00254888 2.28887e-05 0
0.00171371 2.08578e-05 0
0.000860676 5.03321e-06 0
0.00169567 7.0603e-06 0
2.34449e-05 -1.48919e-05 0
0.00329125 6.17571e-05 0
0.000859558 -3.9158e-06 0
0.00165735 2.34326e-05 0
0.00249346 3.44087e-05 0
0.00169576 7.15255e-06 0
0.00328879 5.92978e-05 0
0.00338721 5.34236e-05 0
0.00249228 3.32252e-05 0
0.003338 5.63607e-05 0
0.00254149 3.02881e-05 0
0.00163317 1.01232e-05 0
0.00329125 4.80051e-05 0
2.34449e-05 -3.4367e-07 0
0.00246221 2.90641e-05 0
0.00165735 2.38307e-05 0
0.000828309 4.88976e-06 0
0.00163284 1.046e-05 0
0.00316277 7.85832e-05 0
0.00327984 5.94123e-05 0
0.0023978 4.45216e-05 0
0.0032213 6.89978e-05 0
0.00245634 3.49362e-05 0
0.00163281 9.76357e-06 0
2.37886e-05 0 0
4.26147e-06 0 0
0.000828301 4.88179e-06 0
1.4025e-05 0 0
0.000818537 4.88179e-06 0
0.00163248 1.01004e-05 0
1.71797e-05 -1.29183e-05 0
0.00315952 7.53356e-05 0
0.000824828 -1.40891e-06 0
0.00158835 3.12087e-05 0
0.002396 4.2718e-05 0
0.00472018 0.000136469 0
0.0062796 0.000194682 0
0.00329228 6.31683e-05 0
0.00549989 0.000165575 0
0.00478594 0.000128925 0
0.00400623 9.98184e-05 0
0.00471986 0.000136143 0
0.00328852 5.94123e-05 0
0.00315423 7.85832e-05 0
0.00400419 9.77779e-05 0
0.00322137 6.89978e-05 0
0.00393704 0.000107363 0
0.00471984 0.000136807 0
0.00610193 0.00024189 0
0.00627225 0.000202038 0
0.00541089 0.000189349 0
0.00618709 0.000221964 0
0.00549605 0.000169423 0
0.00471952 0.000136482 0
0.00315964 7.31673e-05 0
0.0061063 0.00024626 0
0.00393958 0.000104825 0
0.00463297 0.000159713 0
0.00541291 0.000191371 0
0.00455105 0.000179124 0
0.00591797 0.000300301 0
0.00610363 0.000243601 0
0.00523451 0.000239712 0
0.0060108 0.000271951 0
0.00532734 0.000211362 0
0.00455153 0.000178641 0
0.0061063 0.000240924 0
0.00315964 7.80438e-05 0
0.00532892 0.000209783 0
0.00463297 0.000159484 0
0.00385559 0.000128342 0
0.00455059 0.000178664 0
0.00298929 0.000107831 0
0.0059187 0.000301029 0
0.00376994 0.000143247 0
0.00445399 0.00020443 0
0.00523464 0.000239846 0
0.00455107 0.000178181 0
0.00316018 7.85759e-05 0
0.00298975 0.000107364 0
0.00385562 0.000128379 0
0.00307496 9.29699e-05 0
0.00377041 0.000142773 0
0.00739853 0.000359142 0
0.00610067 0.000243601 0
0.00592629 0.000300301 0
0.0067496 0.000301372 0
0.00601348 0.000271951 0
0.00666241 0.000329721 0
0.00739872 0.000359331 0
0.00881565 0.000388221 0
0.00611354 0.000256467 0
0.00810718 0.000373776 0
0.00746459 0.000322344 0
0.00675613 0.000307899 0
0.00739831 0.00035936 0
0.00593122 0.000295373 0
0.00870536 0.000455411 0
0.00666477 0.000327366 0
0.00731829 0.000375392 0
0.00805183 0.000407386 0
0.0073985 0.000359549 0
0.00869005 0.000440107 0
0.00880747 0.000396404 0
0.00804428 0.000399828 0
0.00874876 0.000418255 0
0.00810298 0.000377977 0
0.00154893 1.45542e-05 0
2.38538e-05 0 0
-5.25458e-06 0 0
0.000786389 7.2771e-06 0
9.29961e-06 0 0
0.000771835 7.2771e-06 0
0.00154968 1.53126e-05 0
0.00315952 7.06582e-05 0
1.71797e-05 -6.67408e-06 0
0.0023546 4.29854e-05 0
0.00158835 3.19921e-05 0
0.000783432 4.31924e-06 0
0.0015482 1.52791e-05 0
4.42433e-06 -9.67891e-06 0
0.00298634 9.59619e-05 0
0.000776312 2.8001e-06 0
0.00149538 4.31415e-05 0
0.00226727 5.56205e-05 0
0.00154896 1.60375e-05 0
0.00299774 0.000107364 0
0.0031516 7.85759e-05 0
0.00227335 6.17007e-05 0
0.00307467 9.29699e-05 0
0.00235028 4.73067e-05 0
0.00435517 0.000229954 0
0.0059187 0.000302813 0
0.00298929 0.000105173 0
0.00513693 0.000266384 0
0.00445399 0.000203993 0
0.00367223 0.000167564 0
0.00435456 0.000229346 0
0.00299154 0.000107427 0
0.00278064 0.000140367 0
0.00367305 0.000168386 0
0.00288609 0.000123897 0
0.0035676 0.000184856 0
0.00435451 0.000230614 0
0.00573453 0.000340374 0
0.00591759 0.000303918 0
0.00504452 0.000285494 0
0.00582606 0.000322146 0
0.00513605 0.000267266 0
0.0043539 0.000230005 0
0.00277556 0.000145444 0
0.00573592 0.000341767 0
0.00356473 0.000187725 0
0.00425574 0.000243605 0
0.00504491 0.000285886 0
0.00143477 2.28926e-05 0
0.00298634 0.000104666 0
4.42433e-06 -1.65445e-05 0
0.00221055 6.37792e-05 0
0.00149538 4.40606e-05 0
0.000719599 3.17401e-06 0
0.00143338 2.42858e-05 0
0.00278435 0.000140367 0
0.00298357 0.000107427 0
0.00210887 8.23263e-05 0
0.00288396 0.000123897 0
0.00220848 6.58562e-05 0
0.00143335 2.14692e-05 0
2.09689e-05 0 0
-2.19695e-05 0 0
0.00072716 1.07346e-05 0
-5.00314e-07 0 0
0.000705691 1.07346e-05 0
0.00143196 2.28624e-05 0
-1.90978e-05 -2.87172e-06 0
0.00276206 0.000118078 0
0.00070643 9.99533e-06 0
0.00137148 5.76033e-05 0
0.00209701 7.04704e-05 0
0.00726206 0.000406492 0
0.00870536 0.000432585 0
0.00593122 0.000320127 0
0.00798371 0.000419538 0
0.00731829 0.000376356 0
0.00659664 0.000363309 0
0.00726197 0.000406586 0
0.00863447 0.000420255 0
0.00868975 0.000448196 0
0.00794822 0.00041342 0
0.00866211 0.000434225 0
0.00797586 0.000427391 0
0.007262 0.000406431 0
0.00591501 0.000303918 0
0.00574644 0.000340374 0
0.00658851 0.000355175 0
0.00583073 0.000322146 0
0.00650422 0.000373403 0
0.00726191 0.000406526 0
0.0057586 0.000328219 0
0.00865382 0.00043961 0
0.00651025 0.000367372 0
0.00720621 0.000383914 0
0.00795787 0.000423068 0
0.00994785 0.000462633 0
0.0111691 0.000460424 0
0.00871592 0.000471073 0
0.0105585 0.000461529 0
0.00994252 0.000465748 0
0.00933189 0.000466853 0
0.009948 0.000462787 0
0.00869305 0.000448196 0
0.00863592 0.000420255 0
0.00932052 0.000455491 0
0.00866449 0.000434225 0
0.00929196 0.000441521 0
0.00994802 0.000462457 0
0.0112027 0.000376014 0
0.0111417 0.000487864 0
0.0105754 0.000419236 0
0.0111722 0.000431939 0
0.0105449 0.000475161 0
0.00994818 0.000462611 0
0.00866586 0.000390316 0
0.0112238 0.000397051 0
0.00930702 0.000426464 0
0.00994481 0.000393684 0
0.010586 0.000429831 0
0.0123293 0.000142978 0
0.0112195 0.000394315 0
0.0113063 -2.14932e-05 0
0.0117744 0.000268646 0
0.0112629 0.000186411 0
0.0118178 6.07423e-05 0
0.0123292 0.000142812 0
0.0132767 0.000242394 0
0.0112246 0.000399398 0
0.0128029 0.000192603 0
0.0122506 0.000320896 0
0.0117769 0.000271105 0
0.0123296 0.000142678 0
0.0113647 -7.98249e-05 0
0.0133888 -0.000174021 0
0.0118471 3.14264e-05 0
0.0123767 -0.000126923 0
0.0128592 -1.56714e-05 0
0.0123295 0.000142512 0
0.0133962 -0.000166562 0
0.0132319 0.000287252 0
0.0128628 -1.2025e-05 0
0.013314 6.03451e-05 0
0.0127807 0.000214882 0
0.010004 0.000281551 0
0.0113618 -2.14932e-05 0
0.0111715 0.000394315 0
0.0106829 0.000130029 0
0.0112667 0.000186411 0
0.0105878 0.000337933 0
0.0100036 0.000282029 0
0.0112238 0.000342107 0
0.00866586 0.000459604 0
0.0106137 0.000312068 0
0.00994481 0.000400855 0
0.00933471 0.000370817 0
0.0100044 0.000281928 0
0.00875342 0.000111102 0
0.0113749 -8.40392e-06 0
0.00937892 0.000196515 0
0.0100642 5.13491e-05 0
0.0106897 0.000136762 0
0.0100039 0.000282407 0
0.00864382 0.000437561 0
0.00869054 0.000173977 0
0.00932388 0.000359984 0
0.00866718 0.000305769 0
0.00934724 0.000228192 0
0.0140771 3.20711e-05 0
0.0133769 -0.000205704 0
0.0147915 -0.000219963 0
0.013727 -8.68165e-05 0
0.0140842 -0.000212834 0
0.0144343 -9.39461e-05 0
0.014077 3.21826e-05 0
0.0132815 0.000287252 0
0.0133378 -0.000166562 0
0.0136792 0.000159717 0
0.0133096 6.03451e-05 0
0.0137074 -6.71895e-05 0
0.0140771 3.20711e-05 0
0.0148112 -0.000200246 0
0.014721 0.000174168 0
0.0144441 -8.40876e-05 0
0.0147661 -1.30392e-05 0
0.014399 0.000103119 0
0.014077 3.21826e-05 0
0.0147492 0.000145945 0
0.0132724 0.000278232 0
0.0144131 8.9064e-05 0
0.0140108 0.000212089 0
0.0136747 0.000155207 0
0.0124689 -0.000573284 0
0.0133888 -0.000206397 0
0.0113647 -2.20138e-05 0
0.0129288 -0.000389841 0
0.0123767 -0.000114205 0
0.0119168 -0.000297649 0
0.0124692 -0.000573529 0
0.0134677 -0.00113975 0
0.0133287 -0.000146307 0
0.0129684 -0.000856637 0
0.0133982 -0.000643027 0
0.0128989 -0.000359918 0
0.0124689 -0.00057328 0
0.0113952 8.47207e-06 0
0.0115122 -0.001038 0
0.011932 -0.000282404 0
0.0114537 -0.000514763 0
0.0119906 -0.000805639 0
0.0124692 -0.000573525 0
0.0115959 -0.00112169 0
0.0134141 -0.00119333 0
0.0120325 -0.000847606 0
0.012505 -0.00115751 0
0.0129416 -0.000883429 0
0.014093 -0.000607514 0
0.0147915 -0.000213165 0
0.0133769 -0.000195453 0
0.0144423 -0.00041034 0
0.0140842 -0.000204309 0
0.013735 -0.000401483 0
0.0140929 -0.000607702 0
0.0134261 -0.000146307 0
0.0133554 -0.00113975 0
0.0137595 -0.000377005 0
0.0133908 -0.000643027 0
0.0137241 -0.000873724 0
0.014093 -0.000607483 0
0.0146824 -0.000942766 0
0.0147664 -0.000188137 0
0.0143877 -0.000775124 0
0.0147244 -0.000565451 0
0.0144297 -0.00039781 0
0.0140928 -0.00060767 0
0.0133954 -0.0011797 0
0.0146179 -0.00100727 0
0.0137441 -0.000893684 0
0.0140066 -0.00109348 0
0.0143553 -0.000807472 0
0.0152319 -1.61631e-05 0
0.0147596 0.000174168 0
0.0147658 -0.000200246 0
0.0149957 7.90024e-05 0
0.0147627 -1.30392e-05 0
0.0149989 -0.000108205 0
0.015232 -1.60816e-05 0
0.0156291 6.87694e-05 0
0.0147445 0.000159072 0
0.0154306 2.63439e-05 0
0.0151868 0.000113921 0
0.0149882 7.14955e-05 0
0.0152319 -1.61507e-05 0
0.0147829 -0.000217348 0
0.0156152 -0.000151753 0
0.0150074 -0.000116749 0
0.0151991 -0.00018455 0
0.0154236 -8.39518e-05 0
0.015232 -1.60692e-05 0
0.0156371 -0.000129859 0
0.0156187 7.92602e-05 0
0.0154345 -7.2964e-05 0
0.0156279 -2.52993e-05 0
0.0154253 3.15955e-05 0
0.00719658 0.000358721 0
0.00568042 0.000237567 0
0.00874783 0.000202478 0
0.0064385 0.000298144 0
0.00721413 0.000220022 0
0.00797221 0.0002806 0
0.00719626 0.000358401 0
0.00871933 0.000173977 0
0.00861407 0.000437561 0
0.0079578 0.000266189 0
0.0086667 0.000305769 0
0.00790516 0.000397981 0
0.00719627 0.000359035 0
0.00573137 0.00035005 0
0.00564067 0.000277318 0
0.00646382 0.000354543 0
0.00568602 0.000313684 0
0.00641847 0.000318177 0
0.00719595 0.000358715 0
0.00865382 0.000397807 0
0.0057586 0.000377278 0
0.00792489 0.000378261 0
0.00720621 0.000387542 0
0.00647727 0.000367997 0
0.0102147 -0.000333175 0
0.0113749 -8.3663e-05 0
0.00875342 0.000217376 0
0.0107948 -0.000208419 0
0.0100642 6.68566e-05 0
0.00948405 -5.78996e-05 0
0.0102152 -0.000332694 0
0.00874691 0.000210866 0
0.00898574 -0.000637429 0
0.00948104 -6.09139e-05 0
0.00886632 -0.000213281 0
0.00960045 -0.000485062 0
0.0102155 -0.000333942 0
0.0116444 -0.001038 0
0.0112828 8.47207e-06 0
0.0109299 -0.00068597 0
0.0114636 -0.000514763 0
0.0107491 -0.000162735 0
0.0102159 -0.000333461 0
0.00910681 -0.000758501 0
0.0116245 -0.00105793 0
0.00966137 -0.000545981 0
0.0103656 -0.000908215 0
0.0109202 -0.000695695 0
0.00733305 1.18285e-05 0
0.00874783 0.000112974 0
0.00568042 0.00035083 0
0.00804044 6.24013e-05 0
0.00721413 0.000231902 0
0.00650674 0.000181329 0
0.00733434 1.05391e-05 0
0.00909758 -0.000637429 0
0.00864994 0.000210866 0
0.00821596 -0.000313445 0
0.00887376 -0.000213281 0
0.00799214 0.000110703 0
0.00733421 1.29853e-05 0
0.00563547 0.000305883 0
0.00579619 -0.000119194 0
0.00648484 0.000159434 0
0.00571583 9.33444e-05 0
0.0065652 -5.31042e-05 0
0.0073355 1.16959e-05 0
0.00590939 -0.000232394 0
0.00913211 -0.000602897 0
0.00662244 -0.000110349 0
0.00752075 -0.000417646 0
0.00823381 -0.000295601 0
0.00415679 0.000265063 0
0.00562986 0.000277318 0
0.00572711 0.00035005 0
0.00489333 0.00027119 0
0.00567849 0.000313684 0
0.00494195 0.000307557 0
0.00415751 0.000264342 0
0.00573592 0.000341237 0
0.00277556 0.000144779 0
0.00494672 0.000302789 0
0.00425574 0.000243008 0
0.00346654 0.00020456 0
0.00415618 0.000264452 0
0.00254452 0.000165557 0
0.00564297 0.000290427 0
0.00335035 0.000215005 0
0.00409375 0.000227992 0
0.00489958 0.00027744 0
0.0041569 0.000263731 0
0.00277182 0.000141037 0
0.00254774 0.00016234 0
0.00346436 0.000202384 0
0.00265978 0.000151689 0
0.00335232 0.000213036 0
0.0158045 -1.1858e-05 0
0.0159008 0 0
0.0159245 0 0
0.0158527 -5.92902e-06 0
0.0159127 0 0
0.0158645 -5.92902e-06 0
0.0158046 -1.19374e-05 0
0.0159205 4.00073e-06 0
0.0156264 6.62354e-05 0
0.0158626 -3.96834e-06 0
0.0157735 3.51181e-05 0
0.0157155 2.7149e-05 0
0.0158044 -1.19605e-05 0
0.015611 -0.000127916 0
0.0158854 -1.54462e-05 0
0.0157077 -6.99381e-05 0
0.0157482 -7.1681e-05 0
0.0158449 -1.37033e-05 0
0.0158045 -1.20399e-05 0
0.0156394 7.92602e-05 0
0.0156129 -0.000129859 0
0.015722 3.36102e-05 0
0.0156262 -2.52993e-05 0
0.0157087 -7.09494e-05 0
0.0158045 1.1858e-05 0
0.0159245 0 0
0.0159008 0 0
0.0158645 5.92902e-06 0
0.0159127 0 0
0.0158527 5.92902e-06 0
0.0158046 1.19374e-05 0
0.0156264 -6.62354e-05 0
0.0159205 -4.00073e-06 0
0.0157155 -2.7149e-05 0
0.0157735 -3.51181e-05 0
0.0158626 3.96834e-06 0
0.0158044 1.19605e-05 0
0.0158854 1.54462e-05 0
0.015611 0.000127916 0
0.0158449 1.37033e-05 0
0.0157482 7.1681e-05 0
0.0157077 6.99381e-05 0
0.0158045 1.20399e-05 0
0.0156129 0.000129859 0
0.0156394 -7.92602e-05 0
0.0157087 7.09494e-05 0
0.0156262 2.52993e-05 0
0.015722 -3.36102e-05 0
0.0156497 -0.000164652 0
0.0158854 2.83569e-05 0
0.015611 -0.000168683 0
0.0157675 -6.81475e-05 0
0.0157482 -7.01629e-05 0
0.0156303 -0.000166667 0
0.0156494 -0.000164905 0
0.0156554 -0.00012425 0
0.0153334 -0.000527569 0
0.0156524 -0.000144577 0
0.0154944 -0.000325909 0
0.0154914 -0.000346237 0
0.0156494 -0.000164425 0
0.0155849 0 0
0.0159137 0 0
0.0156172 -8.22127e-05 0
0.0157493 0 0
0.0157816 -8.22127e-05 0
0.0156492 -0.000164678 0
0.0153071 -0.000501297 0
0.0155374 -4.74774e-05 0
0.0154781 -0.000332988 0
0.0154223 -0.000274387 0
0.0155933 -0.000106078 0
0.0151385 -0.000449869 0
0.0156152 -0.000119192 0
0.0147829 -0.000240396 0
0.0153769 -0.00028453 0
0.0151991 -0.000179794 0
0.0149607 -0.000345132 0
0.0151383 -0.000449704 0
0.0153727 -0.000527569 0
0.0156203 -0.00012425 0
0.0152555 -0.000488636 0
0.0154965 -0.000325909 0
0.0153793 -0.000286977 0
0.0151382 -0.000450118 0
0.0148352 -0.000188137 0
0.0146045 -0.000942766 0
0.0149867 -0.000319128 0
0.0147199 -0.000565451 0
0.0148714 -0.000696442 0
0.0151381 -0.000449953 0
0.0146072 -0.000945472 0
0.0153118 -0.00058842 0
0.0148727 -0.000697712 0
0.0149595 -0.000766946 0
0.015225 -0.000519187 0
0.0152319 1.61507e-05 0
0.0156152 0.000151753 0
0.0147829 0.000217348 0
0.0154236 8.39518e-05 0
0.0151991 0.00018455 0
0.0150074 0.000116749 0
0.015232 1.60692e-05 0
0.0156187 -7.92602e-05 0
0.0156371 0.000129859 0
0.0154253 -3.15955e-05 0
0.0156279 2.52993e-05 0
0.0154345 7.2964e-05 0
0.0152319 1.61631e-05 0
0.0147658 0.000200246 0
0.0147596 -0.000174168 0
0.0149989 0.000108205 0
0.0147627 1.30392e-05 0
0.0149957 -7.90024e-05 0
0.015232 1.60816e-05 0
0.0147445 -0.000159072 0
0.0156291 -6.87694e-05 0
0.0149882 -7.14955e-05 0
0.0151868 -0.000113921 0
0.0154306 -2.63439e-05 0
0.0156497 0.000164652 0
0.015611 0.000168683 0
0.0158854 -2.83569e-05 0
0.0156303 0.000166667 0
0.0157482 7.01629e-05 0
0.0157675 6.81475e-05 0
0.0156494 0.000164905 0
0.0153334 0.000527569 0
0.0156554 0.00012425 0
0.0154914 0.000346237 0
0.0154944 0.000325909 0
0.0156524 0.000144577 0
0.0156494 0.000164425 0
0.0159137 0 0
0.0155849 0 0
0.0157816 8.22127e-05 0
0.0157493 0 0
0.0156172 8.22127e-05 0
0.0156492 0.000164678 0
0.0155374 4.74774e-05 0
0.0153071 0.000501297 0
0.0155933 0.000106078 0
0.0154223 0.000274387 0
0.0154781 0.000332988 0
0.0151385 0.000449869 0
0.0147829 0.000240396 0
0.0156152 0.000119192 0
0.0149607 0.000345132 0
0.0151991 0.000179794 0
0.0153769 0.00028453 0
0.0151383 0.000449704 0
0.0156203 0.00012425 0
0.0153727 0.000527569 0
0.0153793 0.000286977 0
0.0154965 0.000325909 0
0.0152555 0.000488636 0
0.0151382 0.000450118 0
0.0146045 0.000942766 0
0.0148352 0.000188137 0
0.0148714 0.000696442 0
0.0147199 0.000565451 0
0.0149867 0.000319128 0
0.0151381 0.000449953 0
0.0153118 0.00058842 0
0.0146072 0.000945472 0
0.015225 0.000519187 0
0.0149595 0.000766946 0
0.0148727 0.000697712 0
0.0140771 -3.20711e-05 0
0.014721 -0.000174168 0
0.0148112 0.000200246 0
0.014399 -0.000103119 0
0.0147661 1.30392e-05 0
0.0144441 8.40876e-05 0
0.014077 -3.21826e-05 0
0.0132724 -0.000278232 0
0.0147492 -0.000145945 0
0.0136747 -0.000155207 0
0.0140108 -0.000212089 0
0.0144131 -8.9064e-05 0
0.0140771 -3.20711e-05 0
0.0147915 0.000219963 0
0.0133769 0.000205704 0
0.0144343 9.39461e-05 0
0.0140842 0.000212834 0
0.013727 8.68165e-05 0
0.014077 -3.21826e-05 0
0.0133378 0.000166562 0
0.0132815 -0.000287252 0
0.0137074 6.71895e-05 0
0.0133096 -6.03451e-05 0
0.0136792 -0.000159717 0
0.0138589 -0.00183051 0
0.0141215 -0.00223858 0
0.0146124 -0.000931575 0
0.0139902 -0.00203455 0
0.014367 -0.00158508 0
0.0142356 -0.00138104 0
0.0138592 -0.00183082 0
0.0146179 -0.000937035 0
0.0133954 -0.00123189 0
0.0142385 -0.00138393 0
0.0140066 -0.00108446 0
0.0136273 -0.00153135 0
0.0138584 -0.00183097 0
0.0131157 -0.00297541 0
0.0139929 -0.00236719 0
0.0134871 -0.00240319 0
0.0135543 -0.0026713 0
0.0139257 -0.00209908 0
0.0138587 -0.00183127 0
0.0135088 -0.00111849 0
0.0130966 -0.00295625 0
0.0136838 -0.00147488 0
0.0133027 -0.00203737 0
0.0134777 -0.00239376 0
0.014685 -0.00123569 0
0.0147122 -0.000931575 0
0.0140134 -0.00223858 0
0.0146986 -0.00108363 0
0.0143628 -0.00158508 0
0.0143492 -0.00173713 0
0.0146855 -0.00123526 0
0.0153118 -0.000488339 0
0.0146072 -0.00103653 0
0.0149986 -0.000861799 0
0.0149595 -0.000762432 0
0.0146463 -0.00113589 0
0.0146847 -0.00123533 0
0.0139851 -0.00221027 0
0.0144842 -0.0013102 0
0.0143349 -0.0017228 0
0.0142346 -0.00176024 0
0.0145844 -0.00127276 0
0.0146851 -0.0012349 0
0.0145967 -0.00119762 0
0.0153462 -0.000522702 0
0.0146409 -0.00121626 0
0.0149715 -0.000860163 0
0.0150157 -0.000878803 0
0.0125409 -0.002082 0
0.0117012 -0.000999525 0
0.0116981 -0.00316757 0
0.0121211 -0.00154076 0
0.0116997 -0.00208355 0
0.0121195 -0.00262478 0
0.0125414 -0.00208158 0
0.0134141 -0.00117763 0
0.0115959 -0.00110487 0
0.0129777 -0.0016296 0
0.012505 -0.00114125 0
0.0120686 -0.00159322 0
0.0125408 -0.00208188 0
0.0117853 -0.00325479 0
0.0131323 -0.00309074 0
0.0121631 -0.00266833 0
0.0124588 -0.00317277 0
0.0128365 -0.00258631 0
0.0125412 -0.00208146 0
0.0132667 -0.00295625 0
0.0133549 -0.00111849 0
0.012904 -0.00251886 0
0.0133108 -0.00203737 0
0.0129481 -0.00159998 0
0.0106152 -0.00186277 0
0.0119358 -0.00316757 0
0.0114942 -0.000999525 0
0.0112755 -0.00251517 0
0.011715 -0.00208355 0
0.0110547 -0.00143115 0
0.0106147 -0.00186232 0
0.0116245 -0.0011298 0
0.00910681 -0.000631637 0
0.0111196 -0.00149606 0
0.0103656 -0.000880718 0
0.00986077 -0.00124698 0
0.0106151 -0.00186287 0
0.00981763 -0.0028749 0
0.0118205 -0.00328285 0
0.0102164 -0.00236889 0
0.0108191 -0.00307888 0
0.0112178 -0.00257286 0
0.0106146 -0.00186241 0
0.00916849 -0.000569953 0
0.00963305 -0.00269032 0
0.00989156 -0.00121618 0
0.00940077 -0.00163014 0
0.0101238 -0.00227637 0
0.0130824 -0.00385319 0
0.0139929 -0.00219407 0
0.0131157 -0.003138 0
0.0135376 -0.00302363 0
0.0135543 -0.00266604 0
0.013099 -0.0034956 0
0.0130817 -0.00385381 0
0.0133092 -0.00294452 0
0.0121878 -0.00588455 0
0.0131955 -0.00339916 0
0.0127485 -0.00441453 0
0.0126348 -0.00486918 0
0.0130818 -0.00385261 0
0.0127806 -0.00422103 0
0.0140318 -0.002233 0
0.0129312 -0.00403682 0
0.0134062 -0.00322701 0
0.0135568 -0.0030428 0
0.0130812 -0.00385323 0
0.0121523 -0.00584909 0
0.0125813 -0.00442038 0
0.0126167 -0.00485116 0
0.0123668 -0.00513473 0
0.0128312 -0.00413681 0
0.012259 -0.00477858 0
0.0131323 -0.00296136 0
0.0117853 -0.0033609 0
0.0126956 -0.00386997 0
0.0124588 -0.00316113 0
0.0120222 -0.00406974 0
0.0122583 -0.00477788 0
0.0123887 -0.00588455 0
0.0131154 -0.00294452 0
0.0123235 -0.00533121 0
0.0127521 -0.00441453 0
0.0126869 -0.0038612 0
0.0122582 -0.0047794 0
0.0120062 -0.00314008 0
0.0114742 -0.00695068 0
0.0121322 -0.00395974 0
0.0117402 -0.00504538 0
0.0118662 -0.00586504 0
0.0122575 -0.0047787 0
0.0115018 -0.00697831 0
0.0121541 -0.00611921 0
0.0118797 -0.00587851 0
0.0118279 -0.00654876 0
0.0122058 -0.00544896 0
0.0150842 -0.000434008 0
0.014734 0 0
0.0156021 0 0
0.0149091 -0.000217004 0
0.015168 0 0
0.0153431 -0.000217004 0
0.0150846 -0.000434385 0
0.0155374 6.46398e-05 0
0.0153071 -0.000610667 0
0.015311 -0.000184872 0
0.0154223 -0.000273014 0
0.0151959 -0.000522526 0
0.0150838 -0.000434406 0
0.0144809 -0.00113424 0
0.0146433 -9.07684e-05 0
0.0147824 -0.000784322 0
0.0145621 -0.000612504 0
0.0148636 -0.000262587 0
0.0150842 -0.000434782 0
0.0153951 -0.000522702 0
0.0145443 -0.00119762 0
0.0152396 -0.000478742 0
0.0149697 -0.000860163 0
0.0148143 -0.000816203 0
0.0150842 0.000434008 0
0.0156021 0 0
0.014734 0 0
0.0153431 0.000217004 0
0.015168 0 0
0.0149091 0.000217004 0
0.0150846 0.000434385 0
0.0153071 0.000610667 0
0.0155374 -6.46398e-05 0
0.0151959 0.000522526 0
0.0154223 0.000273014 0
0.015311 0.000184872 0
0.0150838 0.000434406 0
0.0146433 9.07684e-05 0
0.0144809 0.00113424 0
0.0148636 0.000262587 0
0.0145621 0.000612504 0
0.0147824 0.000784322 0
0.0150842 0.000434782 0
0.0145443 0.00119762 0
0.0153951 0.000522702 0
0.0148143 0.000816203 0
0.0149697 0.000860163 0
0.0152396 0.000478742 0
0.0135934 -0.00247998 0
0.0144842 -0.00111659 0
0.0139851 -0.00239904 0
0.0140388 -0.00179828 0
0.0142346 -0.00175781 0
0.0137893 -0.00243951 0
0.0135929 -0.00247948 0
0.0129956 -0.0021964 0
0.0145628 -0.00119528 0
0.0132942 -0.00233794 0
0.0137792 -0.00169584 0
0.0140779 -0.00183738 0
0.0135929 -0.00248051 0
0.0141512 -0.002233 0
0.0126581 -0.00422103 0
0.013872 -0.00235675 0
0.0134046 -0.00322701 0
0.0131255 -0.00335077 0
0.0135924 -0.00248001 0
0.0125804 -0.00414333 0
0.0128265 -0.00236549 0
0.0130864 -0.00331167 0
0.0127035 -0.00325441 0
0.0132094 -0.00242275 0
0.0138396 -0.00085396 0
0.0146433 0.000110717 0
0.0144809 -0.00133429 0
0.0142414 -0.000371622 0
0.0145621 -0.000611787 0
0.0141603 -0.00109413 0
0.0138391 -0.000854438 0
0.0146199 -0.00119528 0
0.0129371 -0.0021964 0
0.0142295 -0.00102486 0
0.0137785 -0.00169584 0
0.0133881 -0.00152542 0
0.0138391 -0.000853489 0
0.013047 0 0
0.014754 0 0
0.0134431 -0.000426745 0
0.0139005 0 0
0.0142966 -0.000426745 0
0.0138386 -0.000853967 0
0.0128261 -0.00208533 0
0.0129064 -0.000140558 0
0.0133324 -0.00146965 0
0.0128663 -0.00111295 0
0.0133725 -0.000497262 0
0.00128027 3.08511e-05 0
1.13635e-05 0 0
-5.03386e-05 0 0
0.000645815 1.54255e-05 0
-1.94876e-05 0 0
0.000614964 1.54255e-05 0
0.00128289 3.34788e-05 0
0.00276206 0.000146717 0
-1.90978e-05 -3.04613e-05 0
0.00202248 9.00977e-05 0
0.00137148 5.81276e-05 0
0.000631898 1.50876e-06 0
0.00127763 3.34859e-05 0
-6.19702e-05 1.16316e-05 0
0.00250156 0.000127306 0
0.000607831 2.25588e-05 0
0.00121979 6.94687e-05 0
0.0018896 8.03959e-05 0
0.00128026 3.61137e-05 0
0.00253659 0.00016234 0
0.00276774 0.000141037 0
0.00190843 9.92268e-05 0
0.00265217 0.000151689 0
0.002024 8.85755e-05 0
0.00110422 4.62693e-05 0
0.00250156 0.000183655 0
-6.19702e-05 -4.75028e-05 0
0.00180289 0.000114962 0
0.00121979 6.8076e-05 0
0.000521123 -6.16745e-07 0
0.00109898 5.15004e-05 0
0.00233611 0.000120006 0
0.00251917 0.000166048 0
0.00171755 8.57533e-05 0
0.00242764 0.000143027 0
0.00180907 0.000108774 0
0.00109915 4.1203e-05 0
-1.44675e-05 0 0
-9.68735e-05 0 0
0.000542341 2.06015e-05 0
-5.56705e-05 0 0
0.000501138 2.06015e-05 0
0.00109392 4.64342e-05 0
-0.000140771 4.3898e-05 0
0.00229431 7.82001e-05 0
0.000476573 4.51661e-05 0
0.00107677 6.1049e-05 0
0.00169411 6.23171e-05 0
0.00406341 0.000204989 0
0.00564297 0.000259264 0
0.00254452 0.000198594 0
0.00485319 0.000232127 0
0.00409375 0.000228929 0
0.00330397 0.000201791 0
0.00406361 0.000205186 0
0.00251197 0.000166048 0
0.00238766 0.000120006 0
0.00328779 0.000185617 0
0.00244982 0.000143027 0
0.00322563 0.000162596 0
0.00406343 0.000204971 0
0.00581961 -0.000119194 0
0.00559635 0.000305883 0
0.00494152 4.28889e-05 0
0.00570798 9.33444e-05 0
0.00482989 0.000255427 0
0.00406363 0.000205168 0
0.00241707 9.05951e-05 0
0.00586979 -6.90124e-05 0
0.00324035 0.000147882 0
0.00414343 1.07913e-05 0
0.00496671 6.8078e-05 0
0.00791402 -0.00112856 0
0.00586926 -3.04872e-05 0
0.00658025 -0.00151564 0
0.00689164 -0.000579523 0
0.00622475 -0.000773064 0
0.00724713 -0.0013221 0
0.0079124 -0.00113018 0
0.00913211 -0.00077365 0
0.00590939 9.64749e-06 0
0.00852226 -0.000951914 0
0.00752075 -0.000382001 0
0.00691089 -0.000560266 0
0.00791636 -0.0011309 0
0.0068576 -0.00179299 0
0.00989805 -0.00271592 0
0.00738698 -0.00146194 0
0.00837782 -0.00225446 0
0.0089072 -0.00192341 0
0.00791474 -0.00113252 0
0.00992365 -0.00269032 0
0.00892842 -0.000569953 0
0.0089192 -0.00191142 0
0.00942603 -0.00163014 0
0.00842158 -0.000851235 0
0.00438671 -0.000219606 0
0.00679217 -0.00151564 0
0.00568526 -3.04872e-05 0
0.00558944 -0.000867623 0
0.00623871 -0.000773064 0
0.00503598 -0.000125046 0
0.00438256 -0.000215461 0
0.00586979 -0.000215021 0
0.00241707 0.000263248 0
0.00512618 -0.000215241 0
0.00414343 2.41135e-05 0
0.00339982 2.38936e-05 0
0.004391 -0.000215312 0
0.00282354 -0.000403295 0
0.00693149 -0.00137632 0
0.00360727 -0.000309304 0
0.00487752 -0.000889809 0
0.00566125 -0.000795817 0
0.00438686 -0.000211167 0
0.00230063 0.000146808 0
0.00264501 -0.000224761 0
0.00334374 -3.21798e-05 0
0.00247282 -3.89768e-05 0
0.00351593 -0.000217964 0
0.00909381 -0.00422302 0
0.00989805 -0.00289711 0
0.0068576 -0.00146514 0
0.00949593 -0.00356006 0
0.00837782 -0.00218113 0
0.0079757 -0.00284408 0
0.00909387 -0.00422308 0
0.0108691 -0.00707274 0
0.00962172 -0.00262078 0
0.00998148 -0.00564791 0
0.0102454 -0.00484676 0
0.0093578 -0.00342193 0
0.00909228 -0.00422455 0
0.00701256 -0.00131018 0
0.00850423 -0.00564724 0
0.00805242 -0.00276736 0
0.0077584 -0.00347871 0
0.00879826 -0.00493589 0
0.00909234 -0.00422461 0
0.00893348 -0.00607648 0
0.0105583 -0.00738356 0
0.00901291 -0.00515054 0
0.00974588 -0.00673002 0
0.00982531 -0.00580408 0
0.0110153 -0.00500986 0
0.0118205 -0.00324726 0
0.00981763 -0.00285477 0
0.0114179 -0.00412856 0
0.0108191 -0.00305101 0
0.0104165 -0.00393231 0
0.0110142 -0.00501099 0
0.0100516 -0.00262078 0
0.0103801 -0.00707274 0
0.0105329 -0.00381588 0
0.0102158 -0.00484676 0
0.0106971 -0.00604186 0
0.0110146 -0.00500915 0
0.0117858 -0.00695068 0
0.0117133 -0.00314008 0
0.0114002 -0.00597992 0
0.0117495 -0.00504538 0
0.011364 -0.00407462 0
0.0110135 -0.00501028 0
0.0105267 -0.00721937 0
0.0115087 -0.00722778 0
0.0107701 -0.00611482 0
0.0110177 -0.00722357 0
0.0112611 -0.00611903 0
0.000957015 4.70407e-05 0
-8.48333e-05 0 0
-0.000178915 0 0
0.000436091 2.35203e-05 0
-0.000131874 0 0
0.00038905 2.35203e-05 0
0.000966894 5.69197e-05 0
0.00229431 0.000163807 0
-0.000140771 -5.59382e-05 0
0.0016306 0.000110364 0
0.00107677 5.39346e-05 0
0.000413061 4.90797e-07 0
0.000946326 5.77296e-05 0
-0.000295033 0.000116119 0
0.00252652 -0.000222716 0
0.000325647 8.69241e-05 0
0.00111574 -5.32988e-05 0
0.00173642 -8.24934e-05 0
0.000956206 6.76086e-05 0
0.00252448 -0.000224761 0
0.00231131 0.000146808 0
0.00174034 -7.85763e-05 0
0.00241789 -3.89768e-05 0
0.00163376 0.000107208 0
0.00592569 -0.00203116 0
0.00693149 -0.00183022 0
0.00282354 0.000266123 0
0.00642859 -0.00193069 0
0.00487752 -0.000782048 0
0.00437462 -0.000882517 0
0.00593496 -0.00202188 0
0.00258787 3.04444e-05 0
0.00434104 -0.00232103 0
0.00426141 -0.000995719 0
0.00346445 -0.00114529 0
0.005138 -0.00217146 0
0.00593825 -0.00204372 0
0.00928143 -0.00564724 0
0.00641145 -0.00131018 0
0.00760984 -0.00384548 0
0.00784644 -0.00347871 0
0.00617485 -0.00167695 0
0.00594752 -0.00203445 0
0.00520196 -0.00318196 0
0.0092199 -0.00570877 0
0.00557474 -0.0026082 0
0.00721093 -0.00444536 0
0.00758371 -0.00387161 0
0.00126757 7.29082e-06 0
0.00252652 -0.000231561 0
-0.000295033 7.20826e-05 0
0.00189704 -0.000112135 0
0.00111574 -7.9739e-05 0
0.000486266 3.96867e-05 0
0.00124525 2.96042e-05 0
0.00461431 -0.00232103 0
0.00226452 3.04444e-05 0
0.00292978 -0.00114571 0
0.00343941 -0.00114529 0
0.00175488 3.00243e-05 0
0.00125098 -9.29051e-06 0
-0.000367116 0 0
-0.000348535 0 0
0.000441934 -4.64526e-06 0
-0.000357825 0 0
0.000451225 -4.64526e-06 0
0.00122867 1.30229e-05 0
-0.000681433 0.000332898 0
0.00520351 -0.00173184 0
0.000273619 0.00017296 0
0.00226104 -0.00069947 0
0.00321609 -0.000859407 0
0.0132038 -0.00585994 0
0.0223737 -0.0158703 0
0.0106968 -0.0225332 0
0.0177888 -0.0108651 0
0.0165352 -0.0192018 0
0.0119503 -0.0141966 0
0.0126258 -0.00643793 0
0.0178213 -0.0154087 0
0.0103551 -0.0049334 0
0.0152236 -0.0109233 0
0.0140882 -0.010171 0
0.0114905 -0.00568566 0
0.0124941 -0.00515018 0
-0.00379696 0 0
0.00650341 0 0
0.00434855 -0.00257509 0
0.00135322 0 0
0.00949873 -0.00257509 0
0.0119161 -0.00572817 0
0.012156 -0.00673427 0
0.000572475 0.00436943 0
0.012036 -0.00623122 0
0.00636421 -0.00118242 0
0.00624427 -0.000679368 0
0.00472337 -0.000354942 0
-0.000659359 0 0
5.05247e-05 0 0
0.002032 -0.000177471 0
-0.000304417 0 0
0.00238695 -0.000177471 0
0.00477409 -0.000405666 0
0.000572475 -0.000521951 0
0.012156 -0.0037022 0
0.00267328 -0.000463808 0
0.00636421 -0.00211207 0
0.00846502 -0.00205393 0
0.00466832 -0.000409988 0
0.00661146 -0.00185708 0
0.000104367 0.000763726 0
0.00563989 -0.00113353 0
0.00335792 -0.000546678 0
0.00238634 0.000176869 0
0.00471904 -0.000460713 0
0.0108672 -0.00499096 0
0.00577602 -0.00102164 0
0.00779312 -0.00272584 0
0.0083216 -0.0030063 0
0.00524753 -0.000741174 0
0.00279845 -0.00013408 0
0.000104367 1.75908e-05 0
0.00661146 -0.00110134 0
0.00145141 -5.82447e-05 0
0.00335792 -0.000541874 0
0.00470496 -0.000617709 0
0.00279378 -0.00013875 0
0.00627014 -0.00144266 0
0.0046414 -0.000463579 0
0.00453196 -0.000790706 0
0.00545577 -0.000953121 0
0.00371759 -0.000301165 0
0.0027955 -0.000131133 0
-0.000140308 0 0
0.000121958 0 0
0.0013276 -6.55663e-05 0
-9.17486e-06 0 0
0.00145873 -6.55663e-05 0
0.00279083 -0.000135803 0
0.00478328 -0.000605464 0
2.63061e-05 0.000166614 0
0.00378706 -0.000370633 0
0.00240479 -0.000219425 0
0.00140857 1.54054e-05 0
0.00219298 -4.10165e-05 0
-4.90958e-05 0 0
3.29371e-05 0 0
0.00107194 -2.05082e-05 0
-8.07938e-06 0 0
0.00111296 -2.05082e-05 0
0.00219289 -4.09291e-05 0
2.63061e-05 6.63099e-06 0
0.00478328 -0.000417172 0
0.0011096 -1.71491e-05 0
0.00240479 -0.000205271 0
0.00348809 -0.000229051 0
0.00219262 -4.13789e-05 0
0.0040463 -0.000252956 0
1.84424e-05 6.75383e-05 0
0.00311946 -0.000147168 0
0.00203237 -9.27091e-05 0
0.00110553 1.30797e-05 0
0.00219253 -4.12915e-05 0
0.00467185 -0.000528608 0
0.00400958 -0.00021624 0
0.00343219 -0.00028495 0
0.00434072 -0.000372424 0
0.00310106 -0.000128766 0
0.0019414 -1.71474e-05 0
1.84424e-05 4.53796e-06 0
0.0040463 -0.000177413 0
0.000979919 -6.30474e-06 0
0.00203237 -8.64375e-05 0
0.00299385 -9.72802e-05 0
0.00194169 -1.6855e-05 0
0.0039939 -0.000229813 0
0.00368838 -0.000109415 0
0.00296779 -0.000123334 0
0.00384114 -0.000169614 0
0.00281503 -6.31352e-05 0
0.00194189 -1.76387e-05 0
-1.2297e-05 0 0
2.29804e-05 0 0
0.000964795 -8.81936e-06 0
5.34167e-06 0 0
0.000982434 -8.81936e-06 0
0.00194218 -1.73463e-05 0
0.00370391 -0.000124948 0
2.15993e-05 3.38964e-05 0
0.00282305 -7.11473e-05 0
0.00186276 -4.5526e-05 0
0.000981889 8.27504e-06 0
0.00182187 -8.89346e-06 0
2.48588e-06 0 0
2.02728e-05 0 0
0.000912177 -4.44673e-06 0
1.13793e-05 0 0
0.00092107 -4.44673e-06 0
0.00182156 -8.58577e-06 0
2.15993e-05 -1.32654e-06 0
0.00370391 -8.37199e-05 0
0.00092158 -4.95615e-06 0
0.00186276 -4.25232e-05 0
0.00276274 -4.61528e-05 0
0.00182209 -8.66646e-06 0
0.00352243 -7.50621e-05 0
2.45903e-05 2.21045e-05 0
0.00267226 -4.18643e-05 0
0.00177351 -2.64788e-05 0
0.000923343 6.719e-06 0
0.00182179 -8.35876e-06 0
0.00367452 -0.000113116 0
0.00351274 -6.53741e-05 0
0.00274815 -6.07376e-05 0
0.00359363 -8.92453e-05 0
0.00266727 -3.68664e-05 0
0.00175181 -6.25653e-06 0
2.45903e-05 -3.58867e-06 0
0.00352243 -4.69902e-05 0
0.000888201 -4.9226e-06 0
0.00177351 -2.52894e-05 0
0.00263712 -2.66234e-05 0
0.0017519 -6.16663e-06 0
0.0035028 -6.66247e-05 0
0.00339552 -5.29823e-05 0
0.00262735 -3.63957e-05 0
0.00344916 -5.98035e-05 0
0.00257371 -2.95745e-05 0
0.00175193 -6.37321e-06 0
8.25524e-06 0 0
2.10017e-05 0 0
0.000880091 -3.18661e-06 0
1.46285e-05 0 0
0.000886465 -3.18661e-06 0
0.00175202 -6.28331e-06 0
0.00340192 -5.93748e-05 0
2.5499e-05 1.72437e-05 0
0.00257697 -3.28291e-05 0
0.00171371 -2.10655e-05 0
0.000888758 5.48022e-06 0
0.00169576 -6.97178e-06 0
8.55305e-06 0 0
2.24966e-05 0 0
0.000852157 -3.48589e-06 0
1.55248e-05 0 0
0.000859128 -3.48589e-06 0
0.00169585 -7.06403e-06 0
2.5499e-05 -3.00238e-06 0
0.00340192 -3.87133e-05 0
0.000860676 -5.03321e-06 0
0.00171371 -2.08578e-05 0
0.00254888 -2.28887e-05 0
0.00169567 -7.0603e-06 0
0.00329125 -6.17571e-05 0
2.34449e-05 1.48919e-05 0
0.00249346 -3.44087e-05 0
0.00165735 -2.34326e-05 0
0.000859558 3.9158e-06 0
0.00169576 -7.15255e-06 0
0.00338721 -5.34236e-05 0
0.00328879 -5.92978e-05 0
0.00254149 -3.02881e-05 0
0.003338 -5.63607e-05 0
0.00249228 -3.32252e-05 0
0.00163317 -1.01232e-05 0
2.34449e-05 3.4367e-07 0
0.00329125 -4.80051e-05 0
0.000828309 -4.88976e-06 0
0.00165735 -2.38307e-05 0
0.00246221 -2.90641e-05 0
0.00163284 -1.046e-05 0
0.00327984 -5.94123e-05 0
0.00316277 -7.85832e-05 0
0.00245634 -3.49362e-05 0
0.0032213 -6.89978e-05 0
0.0023978 -4.45216e-05 0
0.00163281 -9.76357e-06 0
4.26147e-06 0 0
2.37886e-05 0 0
0.000818537 -4.88179e-06 0
1.4025e-05 0 0
0.000828301 -4.88179e-06 0
0.00163248 -1.01004e-05 0
0.00315952 -7.53356e-05 0
1.71797e-05 1.29183e-05 0
0.002396 -4.2718e-05 0
0.00158835 -3.12087e-05 0
0.000824828 1.40891e-06 0
0.00472018 -0.000136469 0
0.00329228 -6.31683e-05 0
0.0062796 -0.000194682 0
0.00400623 -9.98184e-05 0
0.00478594 -0.000128925 0
0.00549989 -0.000165575 0
0.00471986 -0.000136143 0
0.00315423 -7.85832e-05 0
0.00328852 -5.94123e-05 0
0.00393704 -0.000107363 0
0.00322137 -6.89978e-05 0
0.00400419 -9.77779e-05 0
0.00471984 -0.000136807 0
0.00627225 -0.000202038 0
0.00610193 -0.00024189 0
0.00549605 -0.000169423 0
0.00618709 -0.000221964 0
0.00541089 -0.000189349 0
0.00471952 -0.000136482 0
0.0061063 -0.00024626 0
0.00315964 -7.31673e-05 0
0.00541291 -0.000191371 0
0.00463297 -0.000159713 0
0.00393958 -0.000104825 0
0.00455105 -0.000179124 0
0.00610363 -0.000243601 0
0.00591797 -0.000300301 0
0.00532734 -0.000211362 0
0.0060108 -0.000271951 0
0.00523451 -0.000239712 0
0.00455153 -0.000178641 0
0.00315964 -7.80438e-05 0
0.0061063 -0.000240924 0
0.00385559 -0.000128342 0
0.00463297 -0.000159484 0
0.00532892 -0.000209783 0
0.00455059 -0.000178664 0
0.0059187 -0.000301029 0
0.00298929 -0.000107831 0
0.00523464 -0.000239846 0
0.00445399 -0.00020443 0
0.00376994 -0.000143247 0
0.00455107 -0.000178181 0
0.00298975 -0.000107364 0
0.00316018 -7.85759e-05 0
0.00377041 -0.000142773 0
0.00307496 -9.29699e-05 0
0.00385562 -0.000128379 0
0.00739853 -0.000359142 0
0.00592629 -0.000300301 0
0.00610067 -0.000243601 0
0.00666241 -0.000329721 0
0.00601348 -0.000271951 0
0.0067496 -0.000301372 0
0.00739872 -0.000359331 0
0.00611354 -0.000256467 0
0.00881565 -0.000388221 0
0.00675613 -0.000307899 0
0.00746459 -0.000322344 0
0.00810718 -0.000373776 0
0.00739831 -0.00035936 0
0.00870536 -0.000455411 0
0.00593122 -0.000295373 0
0.00805183 -0.000407386 0
0.00731829 -0.000375392 0
0.00666477 -0.000327366 0
0.0073985 -0.000359549 0
0.00880747 -0.000396404 0
0.00869005 -0.000440107 0
0.00810298 -0.000377977 0
0.00874876 -0.000418255 0
0.00804428 -0.000399828 0
0.00154893 -1.45542e-05 0
-5.25458e-06 0 0
2.38538e-05 0 0
0.000771835 -7.2771e-06 0
9.29961e-06 0 0
0.000786389 -7.2771e-06 0
0.00154968 -1.53126e-05 0
1.71797e-05 6.67408e-06 0
0.00315952 -7.06582e-05 0
0.000783432 -4.31924e-06 0
0.00158835 -3.19921e-05 0
0.0023546 -4.29854e-05 0
0.0015482 -1.52791e-05 0
0.00298634 -9.59619e-05 0
4.42433e-06 9.67891e-06 0
0.00226727 -5.56205e-05 0
0.00149538 -4.31415e-05 0
0.000776312 -2.8001e-06 0
0.00154896 -1.60375e-05 0
0.0031516 -7.85759e-05 0
0.00299774 -0.000107364 0
0.00235028 -4.73067e-05 0
0.00307467 -9.29699e-05 0
0.00227335 -6.17007e-05 0
0.00435517 -0.000229954 0
0.00298929 -0.000105173 0
0.0059187 -0.000302813 0
0.00367223 -0.000167564 0
0.00445399 -0.000203993 0
0.00513693 -0.000266384 0
0.00435456 -0.000229346 0
0.00278064 -0.000140367 0
0.00299154 -0.000107427 0
0.0035676 -0.000184856 0
0.00288609 -0.000123897 0
0.00367305 -0.000168386 0
0.00435451 -0.000230614 0
0.00591759 -0.000303918 0
0.00573453 -0.000340374 0
0.00513605 -0.000267266 0
0.00582606 -0.000322146 0
0.00504452 -0.000285494 0
0.0043539 -0.000230005 0
0.00573592 -0.000341767 0
0.00277556 -0.000145444 0
0.00504491 -0.000285886 0
0.00425574 -0.000243605 0
0.00356473 -0.000187725 0
0.00143477 -2.28926e-05 0
4.42433e-06 1.65445e-05 0
0.00298634 -0.000104666 0
0.000719599 -3.17401e-06 0
0.00149538 -4.40606e-05 0
0.00221055 -6.37792e-05 0
0.00143338 -2.42858e-05 0
0.00298357 -0.000107427 0
0.00278435 -0.000140367 0
0.00220848 -6.58562e-05 0
0.00288396 -0.000123897 0
0.00210887 -8.23263e-05 0
0.00143335 -2.14692e-05 0
-2.19695e-05 0 0
2.09689e-05 0 0
0.000705691 -1.07346e-05 0
-5.00314e-07 0 0
0.00072716 -1.07346e-05 0
0.00143196 -2.28624e-05 0
0.00276206 -0.000118078 0
-1.90978e-05 2.87172e-06 0
0.00209701 -7.04704e-05 0
0.00137148 -5.76033e-05 0
0.00070643 -9.99533e-06 0
0.00726206 -0.000406492 0
0.00593122 -0.000320127 0
0.00870536 -0.000432585 0
0.00659664 -0.000363309 0
0.00731829 -0.000376356 0
0.00798371 -0.000419538 0
0.00726197 -0.000406586 0
0.00868975 -0.000448196 0
0.00863447 -0.000420255 0
0.00797586 -0.000427391 0
0.00866211 -0.000434225 0
0.00794822 -0.00041342 0
0.007262 -0.000406431 0
0.00574644 -0.000340374 0
0.00591501 -0.000303918 0
0.00650422 -0.000373403 0
0.00583073 -0.000322146 0
0.00658851 -0.000355175 0
0.00726191 -0.000406526 0
0.00865382 -0.00043961 0
0.0057586 -0.000328219 0
0.00795787 -0.000423068 0
0.00720621 -0.000383914 0
0.00651025 -0.000367372 0
0.00994785 -0.000462633 0
0.00871592 -0.000471073 0
0.0111691 -0.000460424 0
0.00933189 -0.000466853 0
0.00994252 -0.000465748 0
0.0105585 -0.000461529 0
0.009948 -0.000462787 0
0.00863592 -0.000420255 0
0.00869305 -0.000448196 0
0.00929196 -0.000441521 0
0.00866449 -0.000434225 0
0.00932052 -0.000455491 0
0.00994802 -0.000462457 0
0.0111417 -0.000487864 0
0.0112027 -0.000376014 0
0.0105449 -0.000475161 0
0.0111722 -0.000431939 0
0.0105754 -0.000419236 0
0.00994818 -0.000462611 0
0.0112238 -0.000397051 0
0.00866586 -0.000390316 0
0.010586 -0.000429831 0
0.00994481 -0.000393684 0
0.00930702 -0.000426464 0
0.0123293 -0.000142978 0
0.0113063 2.14932e-05 0
0.0112195 -0.000394315 0
0.0118178 -6.07423e-05 0
0.0112629 -0.000186411 0
0.0117744 -0.000268646 0
0.0123292 -0.000142812 0
0.0112246 -0.000399398 0
0.0132767 -0.000242394 0
0.0117769 -0.000271105 0
0.0122506 -0.000320896 0
0.0128029 -0.000192603 0
0.0123296 -0.000142678 0
0.0133888 0.000174021 0
0.0113647 7.98249e-05 0
0.0128592 1.56714e-05 0
0.0123767 0.000126923 0
0.0118471 -3.14264e-05 0
0.0123295 -0.000142512 0
0.0132319 -0.000287252 0
0.0133962 0.000166562 0
0.0127807 -0.000214882 0
0.013314 -6.03451e-05 0
0.0128628 1.2025e-05 0
0.010004 -0.000281551 0
0.0111715 -0.000394315 0
0.0113618 2.14932e-05 0
0.0105878 -0.000337933 0
0.0112667 -0.000186411 0
0.0106829 -0.000130029 0
0.0100036 -0.000282029 0
0.00866586 -0.000459604 0
0.0112238 -0.000342107 0
0.00933471 -0.000370817 0
0.00994481 -0.000400855 0
0.0106137 -0.000312068 0
0.0100044 -0.000281928 0
0.0113749 8.40392e-06 0
0.00875342 -0.000111102 0
0.0106897 -0.000136762 0
0.0100642 -5.13491e-05 0
0.00937892 -0.000196515 0
0.0100039 -0.000282407 0
0.00869054 -0.000173977 0
0.00864382 -0.000437561 0
0.00934724 -0.000228192 0
0.00866718 -0.000305769 0
0.00932388 -0.000359984 0
0.0124689 0.000573284 0
0.0113647 2.20138e-05 0
0.0133888 0.000206397 0
0.0119168 0.000297649 0
0.0123767 0.000114205 0
0.0129288 0.000389841 0
0.0124692 0.000573529 0
0.0133287 0.000146307 0
0.0134677 0.00113975 0
0.0128989 0.000359918 0
0.0133982 0.000643027 0
0.0129684 0.000856637 0
0.0124689 0.00057328 0
0.0115122 0.001038 0
0.0113952 -8.47207e-06 0
0.0119906 0.000805639 0
0.0114537 0.000514763 0
0.011932 0.000282404 0
0.0124692 0.000573525 0
0.0134141 0.00119333 0
0.0115959 0.00112169 0
0.0129416 0.000883429 0
0.012505 0.00115751 0
0.0120325 0.000847606 0
0.014093 0.000607514 0
0.0133769 0.000195453 0
0.0147915 0.000213165 0
0.013735 0.000401483 0
0.0140842 0.000204309 0
0.0144423 0.00041034 0
0.0140929 0.000607702 0
0.0133554 0.00113975 0
0.0134261 0.000146307 0
0.0137241 0.000873724 0
0.0133908 0.000643027 0
0.0137595 0.000377005 0
0.014093 0.000607483 0
0.0147664 0.000188137 0
0.0146824 0.000942766 0
0.0144297 0.00039781 0
0.0147244 0.000565451 0
0.0143877 0.000775124 0
0.0140928 0.00060767 0
0.0146179 0.00100727 0
0.0133954 0.0011797 0
0.0143553 0.000807472 0
0.0140066 0.00109348 0
0.0137441 0.000893684 0
0.00719658 -0.000358721 0
0.00874783 -0.000202478 0
0.00568042 -0.000237567 0
0.00797221 -0.0002806 0
0.00721413 -0.000220022 0
0.0064385 -0.000298144 0
0.00719626 -0.000358401 0
0.00861407 -0.000437561 0
0.00871933 -0.000173977 0
0.00790516 -0.000397981 0
0.0086667 -0.000305769 0
0.0079578 -0.000266189 0
0.00719627 -0.000359035 0
0.00564067 -0.000277318 0
0.00573137 -0.00035005 0
0.00641847 -0.000318177 0
0.00568602 -0.000313684 0
0.00646382 -0.000354543 0
0.00719595 -0.000358715 0
0.0057586 -0.000377278 0
0.00865382 -0.000397807 0
0.00647727 -0.000367997 0
0.00720621 -0.000387542 0
0.00792489 -0.000378261 0
0.0102147 0.000333175 0
0.00875342 -0.000217376 0
0.0113749 8.3663e-05 0
0.00948405 5.78996e-05 0
0.0100642 -6.68566e-05 0
0.0107948 0.000208419 0
0.0102152 0.000332694 0
0.00898574 0.000637429 0
0.00874691 -0.000210866 0
0.00960045 0.000485062 0
0.00886632 0.000213281 0
0.00948104 6.09139e-05 0
0.0102155 0.000333942 0
0.0112828 -8.47207e-06 0
0.0116444 0.001038 0
0.0107491 0.000162735 0
0.0114636 0.000514763 0
0.0109299 0.00068597 0
0.0102159 0.000333461 0
0.0116245 0.00105793 0
0.00910681 0.000758501 0
0.0109202 0.000695695 0
0.0103656 0.000908215 0
0.00966137 0.000545981 0
0.00733305 -1.18285e-05 0
0.00568042 -0.00035083 0
0.00874783 -0.000112974 0
0.00650674 -0.000181329 0
0.00721413 -0.000231902 0
0.00804044 -6.24013e-05 0
0.00733434 -1.05391e-05 0
0.00864994 -0.000210866 0
0.00909758 0.000637429 0
0.00799214 -0.000110703 0
0.00887376 0.000213281 0
0.00821596 0.000313445 0
0.00733421 -1.29853e-05 0
0.00579619 0.000119194 0
0.00563547 -0.000305883 0
0.0065652 5.31042e-05 0
0.00571583 -9.33444e-05 0
0.00648484 -0.000159434 0
0.0073355 -1.16959e-05 0
0.00913211 0.000602897 0
0.00590939 0.000232394 0
0.00823381 0.000295601 0
0.00752075 0.000417646 0
0.00662244 0.000110349 0
0.00415679 -0.000265063 0
0.00572711 -0.00035005 0
0.00562986 -0.000277318 0
0.00494195 -0.000307557 0
0.00567849 -0.000313684 0
0.00489333 -0.00027119 0
0.00415751 -0.000264342 0
0.00277556 -0.000144779 0
0.00573592 -0.000341237 0
0.00346654 -0.00020456 0
0.00425574 -0.000243008 0
0.00494672 -0.000302789 0
0.00415618 -0.000264452 0
0.00564297 -0.000290427 0
0.00254452 -0.000165557 0
0.00489958 -0.00027744 0
0.00409375 -0.000227992 0
0.00335035 -0.000215005 0
0.0041569 -0.000263731 0
0.00254774 -0.00016234 0
0.00277182 -0.000141037 0
0.00335232 -0.000213036 0
0.00265978 -0.000151689 0
0.00346436 -0.000202384 0
0.0138589 0.00183051 0
0.0146124 0.000931575 0
0.0141215 0.00223858 0
0.0142356 0.00138104 0
0.014367 0.00158508 0
0.0139902 0.00203455 0
0.0138592 0.00183082 0
0.0133954 0.00123189 0
0.0146179 0.000937035 0
0.0136273 0.00153135 0
0.0140066 0.00108446 0
0.0142385 0.00138393 0
0.0138584 0.00183097 0
0.0139929 0.00236719 0
0.0131157 0.00297541 0
0.0139257 0.00209908 0
0.0135543 0.0026713 0
0.0134871 0.00240319 0
0.0138587 0.00183127 0
0.0130966 0.00295625 0
0.0135088 0.00111849 0
0.0134777 0.00239376 0
0.0133027 0.00203737 0
0.0136838 0.00147488 0
0.014685 0.00123569 0
0.0140134 0.00223858 0
0.0147122 0.000931575 0
0.0143492 0.00173713 0
0.0143628 0.00158508 0
0.0146986 0.00108363 0
0.0146855 0.00123526 0
0.0146072 0.00103653 0
0.0153118 0.000488339 0
0.0146463 0.00113589 0
0.0149595 0.000762432 0
0.0149986 0.000861799 0
0.0146847 0.00123533 0
0.0144842 0.0013102 0
0.0139851 0.00221027 0
0.0145844 0.00127276 0
0.0142346 0.00176024 0
0.0143349 0.0017228 0
0.0146851 0.0012349 0
0.0153462 0.000522702 0
0.0145967 0.00119762 0
0.0150157 0.000878803 0
0.0149715 0.000860163 0
0.0146409 0.00121626 0
0.0125409 0.002082 0
0.0116981 0.00316757 0
0.0117012 0.000999525 0
0.0121195 0.00262478 0
0.0116997 0.00208355 0
0.0121211 0.00154076 0
0.0125414 0.00208158 0
0.0115959 0.00110487 0
0.0134141 0.00117763 0
0.0120686 0.00159322 0
0.012505 0.00114125 0
0.0129777 0.0016296 0
0.0125408 0.00208188 0
0.0131323 0.00309074 0
0.0117853 0.00325479 0
0.0128365 0.00258631 0
0.0124588 0.00317277 0
0.0121631 0.00266833 0
0.0125412 0.00208146 0
0.0133549 0.00111849 0
0.0132667 0.00295625 0
0.0129481 0.00159998 0
0.0133108 0.00203737 0
0.012904 0.00251886 0
0.0106152 0.00186277 0
0.0114942 0.000999525 0
0.0119358 0.00316757 0
0.0110547 0.00143115 0
0.011715 0.00208355 0
0.0112755 0.00251517 0
0.0106147 0.00186232 0
0.00910681 0.000631637 0
0.0116245 0.0011298 0
0.00986077 0.00124698 0
0.0103656 0.000880718 0
0.0111196 0.00149606 0
0.0106151 0.00186287 0
0.0118205 0.00328285 0
0.00981763 0.0028749 0
0.0112178 0.00257286 0
0.0108191 0.00307888 0
0.0102164 0.00236889 0
0.0106146 0.00186241 0
0.00963305 0.00269032 0
0.00916849 0.000569953 0
0.0101238 0.00227637 0
0.00940077 0.00163014 0
0.00989156 0.00121618 0
0.0130824 0.00385319 0
0.0131157 0.003138 0
0.0139929 0.00219407 0
0.013099 0.0034956 0
0.0135543 0.00266604 0
0.0135376 0.00302363 0
0.0130817 0.00385381 0
0.0121878 0.00588455 0
0.0133092 0.00294452 0
0.0126348 0.00486918 0
0.0127485 0.00441453 0
0.0131955 0.00339916 0
0.0130818 0.00385261 0
0.0140318 0.002233 0
0.0127806 0.00422103 0
0.0135568 0.0030428 0
0.0134062 0.00322701 0
0.0129312 0.00403682 0
0.0130812 0.00385323 0
0.0125813 0.00442038 0
0.0121523 0.00584909 0
0.0128312 0.00413681 0
0.0123668 0.00513473 0
0.0126167 0.00485116 0
0.012259 0.00477858 0
0.0117853 0.0033609 0
0.0131323 0.00296136 0
0.0120222 0.00406974 0
0.0124588 0.00316113 0
0.0126956 0.00386997 0
0.0122583 0.00477788 0
0.0131154 0.00294452 0
0.0123887 0.00588455 0
0.0126869 0.0038612 0
0.0127521 0.00441453 0
0.0123235 0.00533121 0
0.0122582 0.0047794 0
0.0114742 0.00695068 0
0.0120062 0.00314008 0
0.0118662 0.00586504 0
0.0117402 0.00504538 0
0.0121322 0.00395974 0
0.0122575 0.0047787 0
0.0121541 0.00611921 0
0.0115018 0.00697831 0
0.0122058 0.00544896 0
0.0118279 0.00654876 0
0.0118797 0.00587851 0
0.0135934 0.00247998 0
0.0139851 0.00239904 0
0.0144842 0.00111659 0
0.0137893 0.00243951 0
0.0142346 0.00175781 0
0.0140388 0.00179828 0
0.0135929 0.00247948 0
0.0145628 0.00119528 0
0.0129956 0.0021964 0
0.0140779 0.00183738 0
0.0137792 0.00169584 0
0.0132942 0.00233794 0
0.0135929 0.00248051 0
0.0126581 0.00422103 0
0.0141512 0.002233 0
0.0131255 0.00335077 0
0.0134046 0.00322701 0
0.013872 0.00235675 0
0.0135924 0.00248001 0
0.0128265 0.00236549 0
0.0125804 0.00414333 0
0.0132094 0.00242275 0
0.0127035 0.00325441 0
0.0130864 0.00331167 0
0.0138396 0.00085396 0
0.0144809 0.00133429 0
0.0146433 -0.000110717 0
0.0141603 0.00109413 0
0.0145621 0.000611787 0
0.0142414 0.000371622 0
0.0138391 0.000854438 0
0.0129371 0.0021964 0
0.0146199 0.00119528 0
0.0133881 0.00152542 0
0.0137785 0.00169584 0
0.0142295 0.00102486 0
0.0138391 0.000853489 0
0.014754 0 0
0.013047 0 0
0.0142966 0.000426745 0
0.0139005 0 0
0.0134431 0.000426745 0
0.0138386 0.000853967 0
0.0129064 0.000140558 0
0.0128261 0.00208533 0
0.0133725 0.000497262 0
0.0128663 0.00111295 0
0.0133324 0.00146965 0
0.00128027 -3.08511e-05 0
-5.03386e-05 0 0
1.13635e-05 0 0
0.000614964 -1.54255e-05 0
-1.94876e-05 0 0
0.000645815 -1.54255e-05 0
0.00128289 -3.34788e-05 0
-1.90978e-05 3.04613e-05 0
0.00276206 -0.000146717 0
0.000631898 -1.50876e-06 0
0.00137148 -5.81276e-05 0
0.00202248 -9.00977e-05 0
0.00127763 -3.34859e-05 0
0.00250156 -0.000127306 0
-6.19702e-05 -1.16316e-05 0
0.0018896 -8.03959e-05 0
0.00121979 -6.94687e-05 0
0.000607831 -2.25588e-05 0
0.00128026 -3.61137e-05 0
0.00276774 -0.000141037 0
0.00253659 -0.00016234 0
0.002024 -8.85755e-05 0
0.00265217 -0.000151689 0
0.00190843 -9.92268e-05 0
0.00110422 -4.62693e-05 0
-6.19702e-05 4.75028e-05 0
0.00250156 -0.000183655 0
0.000521123 6.16745e-07 0
0.00121979 -6.8076e-05 0
0.00180289 -0.000114962 0
0.00109898 -5.15004e-05 0
0.00251917 -0.000166048 0
0.00233611 -0.000120006 0
0.00180907 -0.000108774 0
0.00242764 -0.000143027 0
0.00171755 -8.57533e-05 0
0.00109915 -4.1203e-05 0
-9.68735e-05 0 0
-1.44675e-05 0 0
0.000501138 -2.06015e-05 0
-5.56705e-05 0 0
0.000542341 -2.06015e-05 0
0.00109392 -4.64342e-05 0
0.00229431 -7.82001e-05 0
-0.000140771 -4.3898e-05 0
0.00169411 -6.23171e-05 0
0.00107677 -6.1049e-05 0
0.000476573 -4.51661e-05 0
0.00406341 -0.000204989 0
0.00254452 -0.000198594 0
0.00564297 -0.000259264 0
0.00330397 -0.000201791 0
0.00409375 -0.000228929 0
0.00485319 -0.000232127 0
0.00406361 -0.000205186 0
0.00238766 -0.000120006 0
0.00251197 -0.000166048 0
0.00322563 -0.000162596 0
0.00244982 -0.000143027 0
0.00328779 -0.000185617 0
0.00406343 -0.000204971 0
0.00559635 -0.000305883 0
0.00581961 0.000119194 0
0.00482989 -0.000255427 0
0.00570798 -9.33444e-05 0
0.00494152 -4.28889e-05 0
0.00406363 -0.000205168 0
0.00586979 6.90124e-05 0
0.00241707 -9.05951e-05 0
0.00496671 -6.8078e-05 0
0.00414343 -1.07913e-05 0
0.00324035 -0.000147882 0
0.00791402 0.00112856 0
0.00658025 0.00151564 0
0.00586926 3.04872e-05 0
0.00724713 0.0013221 0
0.00622475 0.000773064 0
0.00689164 0.000579523 0
0.0079124 0.00113018 0
0.00590939 -9.64749e-06 0
0.00913211 0.00077365 0
0.00691089 0.000560266 0
0.00752075 0.000382001 0
0.00852226 0.000951914 0
0.00791636 0.0011309 0
0.00989805 0.00271592 0
0.0068576 0.00179299 0
0.0089072 0.00192341 0
0.00837782 0.00225446 0
0.00738698 0.00146194 0
0.00791474 0.00113252 0
0.00892842 0.000569953 0
0.00992365 0.00269032 0
0.00842158 0.000851235 0
0.00942603 0.00163014 0
0.0089192 0.00191142 0
0.00438671 0.000219606 0
0.00568526 3.04872e-05 0
0.00679217 0.00151564 0
0.00503598 0.000125046 0
0.00623871 0.000773064 0
0.00558944 0.000867623 0
0.00438256 0.000215461 0
0.00241707 -0.000263248 0
0.00586979 0.000215021 0
0.00339982 -2.38936e-05 0
0.00414343 -2.41135e-05 0
0.00512618 0.000215241 0
0.004391 0.000215312 0
0.00693149 0.00137632 0
0.00282354 0.000403295 0
0.00566125 0.000795817 0
0.00487752 0.000889809 0
0.00360727 0.000309304 0
0.00438686 0.000211167 0
0.00264501 0.000224761 0
0.00230063 -0.000146808 0
0.00351593 0.000217964 0
0.00247282 3.89768e-05 0
0.00334374 3.21798e-05 0
0.00909381 0.00422302 0
0.0068576 0.00146514 0
0.00989805 0.00289711 0
0.0079757 0.00284408 0
0.00837782 0.00218113 0
0.00949593 0.00356006 0
0.00909387 0.00422308 0
0.00962172 0.00262078 0
0.0108691 0.00707274 0
0.0093578 0.00342193 0
0.0102454 0.00484676 0
0.00998148 0.00564791 0
0.00909228 0.00422455 0
0.00850423 0.00564724 0
0.00701256 0.00131018 0
0.00879826 0.00493589 0
0.0077584 0.00347871 0
0.00805242 0.00276736 0
0.00909234 0.00422461 0
0.0105583 0.00738356 0
0.00893348 0.00607648 0
0.00982531 0.00580408 0
0.00974588 0.00673002 0
0.00901291 0.00515054 0
0.0110153 0.00500986 0
0.00981763 0.00285477 0
0.0118205 0.00324726 0
0.0104165 0.00393231 0
0.0108191 0.00305101 0
0.0114179 0.00412856 0
0.0110142 0.00501099 0
0.0103801 0.00707274 0
0.0100516 0.00262078 0
0.0106971 0.00604186 0
0.0102158 0.00484676 0
0.0105329 0.00381588 0
0.0110146 0.00500915 0
0.0117133 0.00314008 0
0.0117858 0.00695068 0
0.011364 0.00407462 0
0.0117495 0.00504538 0
0.0114002 0.00597992 0
0.0110135 0.00501028 0
0.0115087 0.00722778 0
0.0105267 0.00721937 0
0.0112611 0.00611903 0
0.0110177 0.00722357 0
0.0107701 0.00611482 0
0.000957015 -4.70407e-05 0
-0.000178915 0 0
-8.48333e-05 0 0
0.00038905 -2.35203e-05 0
-0.000131874 0 0
0.000436091 -2.35203e-05 0
0.000966894 -5.69197e-05 0
-0.000140771 5.59382e-05 0
0.00229431 -0.000163807 0
0.000413061 -4.90797e-07 0
0.00107677 -5.39346e-05 0
0.0016306 -0.000110364 0
0.000946326 -5.77296e-05 0
0.00252652 0.000222716 0
-0.000295033 -0.000116119 0
0.00173642 8.24934e-05 0
0.00111574 5.32988e-05 0
0.000325647 -8.69241e-05 0
0.000956206 -6.76086e-05 0
0.00231131 -0.000146808 0
0.00252448 0.000224761 0
0.00163376 -0.000107208 0
0.00241789 3.89768e-05 0
0.00174034 7.85763e-05 0
0.00592569 0.00203116 0
0.00282354 -0.000266123 0
0.00693149 0.00183022 0
0.00437462 0.000882517 0
0.00487752 0.000782048 0
0.00642859 0.00193069 0
0.00593496 0.00202188 0
0.00434104 0.00232103 0
0.00258787 -3.04444e-05 0
0.005138 0.00217146 0
0.00346445 0.00114529 0
0.00426141 0.000995719 0
0.00593825 0.00204372 0
0.00641145 0.00131018 0
0.00928143 0.00564724 0
0.00617485 0.00167695 0
0.00784644 0.00347871 0
0.00760984 0.00384548 0
0.00594752 0.00203445 0
0.0092199 0.00570877 0
0.00520196 0.00318196 0
0.00758371 0.00387161 0
0.00721093 0.00444536 0
0.00557474 0.0026082 0
0.00126757 -7.29082e-06 0
-0.000295033 -7.20826e-05 0
0.00252652 0.000231561 0
0.000486266 -3.96867e-05 0
0.00111574 7.9739e-05 0
0.00189704 0.000112135 0
0.00124525 -2.96042e-05 0
0.00226452 -3.04444e-05 0
0.00461431 0.00232103 0
0.00175488 -3.00243e-05 0
0.00343941 0.00114529 0
0.00292978 0.00114571 0
0.00125098 9.29051e-06 0
-0.000348535 0 0
-0.000367116 0 0
0.000451225 4.64526e-06 0
-0.000357825 0 0
0.000441934 4.64526e-06 0
0.00122867 -1.30229e-05 0
0.00520351 0.00173184 0
-0.000681433 -0.000332898 0
0.00321609 0.000859407 0
0.00226104 0.00069947 0
0.000273619 -0.00017296 0
0.00486549 0.00217319 0
0.00134878 0 0
-0.00299759 0 0
0.00310713 0.00108659 0
-0.000824404 0 0
0.000933948 0.00108659 0
0.00465761 0.00238106 0
-0.000681433 -0.00231616 0
0.00520351 0.00247698 0
0.00198809 3.24534e-05 0
0.00226104 8.04127e-05 0
0.00493056 0.00242902 0
0.00514132 0.00244902 0
0.01 0.0183686 0
0.01 0.00865122 0
0.00757066 0.0104088 0
0.01 0.0135099 0
0.00757066 0.00555012 0
0.00493344 0.0026569 0
0.00362757 0.000901042 0
0.0137917 0.0145769 0
0.0042805 0.00177897 0
0.00870963 0.00773896 0
0.00936257 0.00861689 0
0.00910576 0.0094396 0
0.01 0.0163925 0
0.01 0.014604 0
0.00955288 0.0129161 0
0.01 0.0154983 0
0.00955288 0.0120218 0
0.00912701 0.00946085 0
0.00997284 0.0145769 0
0.00652907 0.000901042 0
0.00954993 0.0120189 0
0.00825096 0.00773896 0
0.00782804 0.00518095 0
0.00912281 0.00942254 0
0.00874735 0.00562186 0
0.0109583 0.0154342 0
0.00893508 0.0075222 0
0.00985283 0.010528 0
0.0100406 0.0124284 0
0.00914406 0.00944379 0
0.00520196 0.00222815 0
0.0092199 0.00609441 0
0.00717301 0.00583597 0
0.00721093 0.00416128 0
0.00918198 0.0077691 0
0.0101635 0.0107777 0
0.0101173 0.0154342 0
0.00961788 0.00562186 0
0.0101404 0.013106 0
0.00986757 0.010528 0
0.00989067 0.00819979 0
0.0101657 0.0107755 0
0.00893348 0.00630626 0
0.0105583 0.00714586 0
0.00954958 0.00854089 0
0.00974588 0.00672606 0
0.010362 0.00896069 0
0.0101595 0.0107738 0
0.01 0.0149979 0
0.01 0.0153169 0
0.0100798 0.0128858 0
0.01 0.0151574 0
0.0100798 0.0130454 0
0.0101617 0.0107716 0
0.0105029 0.00709054 0
0.0105241 0.0144738 0
0.0103323 0.00893106 0
0.0105135 0.0107822 0
0.0103429 0.0126227 0
0.0107199 0.0103481 0
0.01 0.012937 0
0.01 0.0143769 0
0.01036 0.0116426 0
0.01 0.013657 0
0.01036 0.0123625 0
0.0107215 0.0103497 0
0.0100969 0.0144738 0
0.0109619 0.00709054 0
0.0104092 0.0124117 0
0.0105294 0.0107822 0
0.0108417 0.00872009 0
0.0107208 0.0103472 0
0.0115372 0.0069637 0
0.0103718 0.0125652 0
0.011129 0.00865544 0
0.0109545 0.00976447 0
0.0105463 0.0114562 0
0.0107224 0.0103488 0
0.0105267 0.00752571 0
0.0115087 0.00693517 0
0.0106246 0.00893723 0
0.0110177 0.00723044 0
0.0111155 0.00864196 0
0.0110937 0.00890102 0
0.0100979 0.0125652 0
0.0118248 0.0069637 0
0.0105958 0.0107331 0
0.0109614 0.00976447 0
0.0114593 0.00793236 0
0.0110943 0.00890041 0
0.0115018 0.0072867 0
0.0121541 0.0058195 0
0.0112981 0.00809356 0
0.0118279 0.0065531 0
0.0116242 0.00735996 0
0.0110929 0.00890015 0
0.01 0.0102816 0
0.01 0.0124673 0
0.0105464 0.00959086 0
0.01 0.0113744 0
0.0105464 0.0106837 0
0.0110935 0.00889954 0
0.0122251 0.0058905 0
0.010299 0.00998254 0
0.0116593 0.00739502 0
0.0112621 0.00793652 0
0.0106963 0.00944104 0
0.0113493 0.00678593 0
0.01 0.00716903 0
0.01 0.0098676 0
0.0106746 0.00697748 0
0.01 0.00851832 0
0.0106746 0.00832676 0
0.0113499 0.00678656 0
0.0101149 0.00998254 0
0.0124149 0.0058905 0
0.0107324 0.00838455 0
0.0112649 0.00793652 0
0.0118824 0.00633853 0
0.0113498 0.00678541 0
0.0126845 0.00422351 0
0.0102531 0.00691592 0
0.0120172 0.00550446 0
0.0114688 0.00556972 0
0.0108015 0.00685066 0
0.0113504 0.00678604 0
0.0121523 0.00615304 0
0.0125813 0.0041203 0
0.0117514 0.00646954 0
0.0123668 0.00513667 0
0.0119659 0.00545317 0
0.0115127 0.00423734 0
0.0101376 0.00691592 0
0.0128023 0.00422351 0
0.0108252 0.00557663 0
0.01147 0.00556972 0
0.0121575 0.00423043 0
0.0115132 0.00423686 0
0.0125804 0.00444541 0
0.0128265 0.00206492 0
0.0120468 0.00434114 0
0.0127035 0.00325516 0
0.0121698 0.00315089 0
0.0115122 0.00423682 0
0.01 0.00375391 0
0.01 0.00677833 0
0.0107561 0.00399536 0
0.01 0.00526612 0
0.0107561 0.00550758 0
0.0115127 0.00423634 0
0.0129588 0.00219725 0
0.0102186 0.00353527 0
0.0122357 0.0032168 0
0.0115887 0.00286626 0
0.0108657 0.00388581 0
0.0115916 0.00143929 0
0.01 0.000189348 0
0.01 0.00337263 0
0.0107958 0.000814318 0
0.01 0.00178099 0
0.0107958 0.00240596 0
0.0115921 0.00143976 0
0.0101626 0.00353527 0
0.0130156 0.00219725 0
0.0108774 0.00248751 0
0.0115891 0.00286626 0
0.0123039 0.00181851 0
0.0115921 0.00143882 0
0.013067 0 0
0.0101893 0 0
0.0123295 0.000719412 0
0.0116282 0 0
0.0108907 0.000719412 0
0.0115926 0.0014393 0
0.0128261 0.00238681 0
0.0129064 -0.000160548 0
0.0122093 0.00191306 0
0.0128663 0.00111313 0
0.0122495 0.000639375 0
0.0115921 -0.00143882 0
0.0101893 0 0
0.013067 0 0
0.0108907 -0.000719412 0
0.0116282 0 0
0.0123295 -0.000719412 0
0.0115926 -0.0014393 0
0.0129064 0.000160548 0
0.0128261 -0.00238681 0
0.0122495 -0.000639375 0
0.0128663 -0.00111313 0
0.0122093 -0.00191306 0
0.0115916 -0.00143929 0
0.01 -0.00337263 0
0.01 -0.000189348 0
0.0107958 -0.00240596 0
0.01 -0.00178099 0
0.0107958 -0.000814318 0
0.0115921 -0.00143976 0
0.0130156 -0.00219725 0
0.0101626 -0.00353527 0
0.0123039 -0.00181851 0
0.0115891 -0.00286626 0
0.0108774 -0.00248751 0
0.0115122 -0.00423682 0
0.01 -0.00677833 0
0.01 -0.00375391 0
0.0107561 -0.00550758 0
0.01 -0.00526612 0
0.0107561 -0.00399536 0
0.0115127 -0.00423634 0
0.0102186 -0.00353527 0
0.0129588 -0.00219725 0
0.0108657 -0.00388581 0
0.0115887 -0.00286626 0
0.0122357 -0.0032168 0
0.0115127 -0.00423734 0
0.0128023 -0.00422351 0
0.0101376 -0.00691592 0
0.0121575 -0.00423043 0
0.01147 -0.00556972 0
0.0108252 -0.00557663 0
0.0115132 -0.00423686 0
0.0128265 -0.00206492 0
0.0125804 -0.00444541 0
0.0121698 -0.00315089 0
0.0127035 -0.00325516 0
0.0120468 -0.00434114 0
0.0113498 -0.00678541 0
0.0102531 -0.00691592 0
0.0126845 -0.00422351 0
0.0108015 -0.00685066 0
0.0114688 -0.00556972 0
0.0120172 -0.00550446 0
0.0113504 -0.00678604 0
0.0125813 -0.0041203 0
0.0121523 -0.00615304 0
0.0119659 -0.00545317 0
0.0123668 -0.00513667 0
0.0117514 -0.00646954 0
0.0113493 -0.00678593 0
0.01 -0.0098676 0
0.01 -0.00716903 0
0.0106746 -0.00832676 0
0.01 -0.00851832 0
0.0106746 -0.00697748 0
0.0113499 -0.00678656 0
0.0124149 -0.0058905 0
0.0101149 -0.00998254 0
0.0118824 -0.00633853 0
0.0112649 -0.00793652 0
0.0107324 -0.00838455 0
0.0110929 -0.00890015 0
0.01 -0.0124673 0
0.01 -0.0102816 0
0.0105464 -0.0106837 0
0.01 -0.0113744 0
0.0105464 -0.00959086 0
0.0110935 -0.00889954 0
0.010299 -0.00998254 0
0.0122251 -0.0058905 0
0.0106963 -0.00944104 0
0.0112621 -0.00793652 0
0.0116593 -0.00739502 0
0.0110937 -0.00890102 0
0.0118248 -0.0069637 0
0.0100979 -0.0125652 0
0.0114593 -0.00793236 0
0.0109614 -0.00976447 0
0.0105958 -0.0107331 0
0.0110943 -0.00890041 0
0.0121541 -0.0058195 0
0.0115018 -0.0072867 0
0.0116242 -0.00735996 0
0.0118279 -0.0065531 0
0.0112981 -0.00809356 0
0.0107208 -0.0103472 0
0.0103718 -0.0125652 0
0.0115372 -0.0069637 0
0.0105463 -0.0114562 0
0.0109545 -0.00976447 0
0.011129 -0.00865544 0
0.0107224 -0.0103488 0
0.0115087 -0.00693517 0
0.0105267 -0.00752571 0
0.0111155 -0.00864196 0
0.0110177 -0.00723044 0
0.0106246 -0.00893723 0
0.0107199 -0.0103481 0
0.01 -0.0143769 0
0.01 -0.012937 0
0.01036 -0.0123625 0
0.01 -0.013657 0
0.01036 -0.0116426 0
0.0107215 -0.0103497 0
0.0109619 -0.00709054 0
0.0100969 -0.0144738 0
0.0108417 -0.00872009 0
0.0105294 -0.0107822 0
0.0104092 -0.0124117 0
0.0101595 -0.0107738 0
0.01 -0.0153169 0
0.01 -0.0149979 0
0.0100798 -0.0130454 0
0.01 -0.0151574 0
0.0100798 -0.0128858 0
0.0101617 -0.0107716 0
0.0105241 -0.0144738 0
0.0105029 -0.00709054 0
0.0103429 -0.0126227 0
0.0105135 -0.0107822 0
0.0103323 -0.00893106 0
0.0101635 -0.0107777 0
0.00961788 -0.00562186 0
0.0101173 -0.0154342 0
0.00989067 -0.00819979 0
0.00986757 -0.010528 0
0.0101404 -0.013106 0
0.0101657 -0.0107755 0
0.0105583 -0.00714586 0
0.00893348 -0.00630626 0
0.010362 -0.00896069 0
0.00974588 -0.00672606 0
0.00954958 -0.00854089 0
0.00912281 -0.00942254 0
0.0109583 -0.0154342 0
0.00874735 -0.00562186 0
0.0100406 -0.0124284 0
0.00985283 -0.010528 0
0.00893508 -0.0075222 0
0.00914406 -0.00944379 0
0.0092199 -0.00609441 0
0.00520196 -0.00222815 0
0.00918198 -0.0077691 0
0.00721093 -0.00416128 0
0.00717301 -0.00583597 0
0.00910576 -0.0094396 0
0.01 -0.014604 0
0.01 -0.0163925 0
0.00955288 -0.0120218 0
0.01 -0.0154983 0
0.00955288 -0.0129161 0
0.00912701 -0.00946085 0
0.00652907 -0.000901042 0
0.00997284 -0.0145769 0
0.00782804 -0.00518095 0
0.00825096 -0.00773896 0
0.00954993 -0.0120189 0
0.00486549 -0.00217319 0
-0.00299759 0 0
0.00134878 0 0
0.000933948 -0.00108659 0
-0.000824404 0 0
0.00310713 -0.00108659 0
0.00465761 -0.00238106 0
0.00520351 -0.00247698 0
-0.000681433 0.00231616 0
0.00493056 -0.00242902 0
0.00226104 -8.04127e-05 0
0.00198809 -3.24534e-05 0
0.00514132 -0.00244902 0
0.01 -0.00865122 0
0.01 -0.0183686 0
0.00757066 -0.00555012 0
0.01 -0.0135099 0
0.00757066 -0.0104088 0
0.00493344 -0.0026569 0
0.0137917 -0.0145769 0
0.00362757 -0.000901042 0
0.00936257 -0.00861689 0
0.00870963 -0.00773896 0
0.0042805 -0.00177897 0

VECTORS disp float
0.000708274 0.000620787  0
-8.70557e-05 -6.81866e-05  0
7.41749e-05 7.41715e-05  0
0.000310609 0.0002763  0
-6.44041e-06 2.99244e-06  0
0.000391224 0.000347479  0
0.000712154 0.000589401  0
0.00120946 0.000988994  0
-3.81165e-05 -4.34037e-05  0
0.000960809 0.000789197  0
0.000585674 0.000472795  0
0.000337019 0.000272999  0
0.000664505 0.000603835  0
0.00024568 0.000194489  0
0.00196042 0.00147221  0
0.000455092 0.000399162  0
0.00110305 0.000833351  0
0.00131246 0.00103802  0
0.000728517 0.000604011  0
0.00185292 0.00141387  0
0.00116014 0.000980068  0
0.00129072 0.00100894  0
0.00150653 0.00119697  0
0.00094433 0.000792039  0
0.000488142 0.000375906  0
-1.85101e-05 -1.7554e-05  0
1.72191e-05 3.81097e-06  0
0.000234816 0.000179176  0
-6.45522e-07 -6.8715e-06  0
0.000252681 0.000189859  0
0.000488437 0.000384179  0
1.32476e-05 -1.66318e-05  0
0.00116594 0.000966972  0
0.000250842 0.000183774  0
0.000589594 0.00047517  0
0.000827189 0.000675576  0
0.000482532 0.000390311  0
0.000858624 0.000788331  0
-2.24015e-05 -4.08789e-05  0
0.000670578 0.000589321  0
0.000418111 0.000373726  0
0.000230065 0.000174716  0
0.00048405 0.000386421  0
0.00115755 0.000980619  0
0.00085166 0.000804433  0
0.0008208 0.00068352  0
0.0010046 0.000892526  0
0.000667855 0.000595427  0
0.00151239 0.00141594  0
0.00177134 0.00184618  0
0.000838686 0.000788261  0
0.00164186 0.00163106  0
0.00130501 0.00131722  0
0.00117554 0.0011021  0
0.00151619 0.00141819  0
0.00082188 0.000788672  0
0.00118894 0.000999697  0
0.00116904 0.00110343  0
0.00100541 0.000894184  0
0.00135257 0.00120895  0
0.00151865 0.00141676  0
0.00234409 0.00212808  0
0.00175217 0.00184723  0
0.00193137 0.00177242  0
0.00204813 0.00198766  0
0.00163541 0.001632  0
0.00150894 0.00141694  0
0.00121033 0.00100773  0
0.00236837 0.00213379  0
0.00135964 0.00121233  0
0.00178935 0.00157076  0
0.00193865 0.00177537  0
0.00112871 0.0012268  0
0.000866259 0.00079702  0
0.00174597 0.00183823  0
0.000997483 0.00101191  0
0.00130612 0.00131762  0
0.00143734 0.00153251  0
0.00113085 0.00122392  0
0.000629912 0.000703841  0
0.00086153 0.000804637  0
0.000880383 0.00096388  0
0.000745721 0.000754239  0
0.000996191 0.00101428  0
0.00113077 0.00122515  0
0.00173734 0.00184472  0
0.00132522 0.0016802  0
0.00143406 0.00153494  0
0.00153128 0.00176246  0
0.001228 0.00145268  0
0.00112881 0.00122774  0
0.00133264 0.00167144  0
0.000633879 0.000693737  0
0.00123072 0.00144959  0
0.000983257 0.00118259  0
0.000881343 0.000960741  0
0.000364831 0.000331612  0
4.0707e-06 -2.63201e-05  0
0.000836575 0.000774089  0
0.000184451 0.000152646  0
0.000420323 0.000373884  0
0.000600703 0.000552851  0
0.000362955 0.000326357  0
0.000838622 0.000793792  0
0.000652267 0.000713355  0
0.000600788 0.000560074  0
0.000745445 0.000753573  0
0.000507611 0.000519856  0
0.000363964 0.00032374  0
-1.03266e-05 -7.79283e-06  0
9.18871e-06 -1.31817e-06  0
0.000176819 0.000157973  0
-5.68954e-07 -4.5555e-06  0
0.000186576 0.000161211  0
0.000363615 0.000332801  0
0.000652499 0.000694782  0
-1.29789e-05 -3.04842e-05  0
0.000508057 0.000513792  0
0.00031976 0.000332149  0
0.000175318 0.000151159  0
0.00214298 0.00176278  0
0.00195124 0.00142911  0
0.00332023 0.00254313  0
0.00204711 0.00159595  0
0.00263573 0.00198612  0
0.00273161 0.00215296  0
0.00216179 0.0017666  0
0.001126 0.000986163  0
0.00188595 0.00141414  0
0.00164389 0.00137638  0
0.00150598 0.00120015  0
0.00202387 0.00159037  0
0.00216448 0.00176137  0
0.0032737 0.00253542  0
0.00235806 0.00213084  0
0.00271909 0.00214839  0
0.00281588 0.00233313  0
0.00226127 0.0019461  0
0.0021491 0.00175769  0
0.00239774 0.00213854  0
0.00117914 0.00100263  0
0.00227342 0.00194811  0
0.00178844 0.00157058  0
0.00166412 0.00138016  0
0.00254009 0.00256635  0
0.00172853 0.00184524  0
0.00236809 0.00213172  0
0.00213431 0.00220579  0
0.00204831 0.00198848  0
0.00245409 0.00234903  0
0.00253171 0.00256583  0
0.0023942 0.00213478  0
0.00345923 0.00332718  0
0.00246295 0.0023503  0
0.00292671 0.00273098  0
0.00299547 0.00294651  0
0.00253368 0.00256507  0
0.00265517 0.00303282  0
0.00175059 0.00184655  0
0.00259443 0.00279894  0
0.00220288 0.00243969  0
0.00214214 0.00220581  0
0.0025409 0.00256516  0
0.00343477 0.00332663  0
0.00263411 0.00303381  0
0.00298784 0.0029459  0
0.00303444 0.00318022  0
0.0025875 0.00279949  0
0.00339855 0.00290786  0
0.00234202 0.00213555  0
0.00328885 0.00253087  0
0.00287029 0.00252171  0
0.00281544 0.00233321  0
0.0033437 0.00271937  0
0.00338835 0.00290702  0
0.003477 0.00332597  0
0.00237601 0.00213633  0
0.00343268 0.00311649  0
0.00292651 0.00273115  0
0.00288218 0.00252168  0
0.0033877 0.00290843  0
0.00332455 0.0025304  0
0.00453338 0.00369217  0
0.00335613 0.00271942  0
0.00392896 0.00311128  0
0.00396054 0.0033003  0
0.00339912 0.0029071  0
0.00450281 0.00369406  0
0.00344776 0.0033272  0
0.00395097 0.00330058  0
0.00397529 0.00351063  0
0.00342344 0.00311715  0
0.000277396 0.000299113  0
-8.05707e-06 -5.14839e-06  0
7.59007e-06 -2.32899e-06  0
0.000134669 0.000146982  0
-2.33499e-07 -3.73869e-06  0
0.000142493 0.000148392  0
0.0002775 0.00030586  0
5.44344e-06 -2.4024e-05  0
0.000635077 0.000688416  0
0.000141472 0.000140918  0
0.00032026 0.000332196  0
0.000456289 0.000497138  0
0.000277089 0.000306654  0
0.000490707 0.000651122  0
-9.20112e-06 -2.53217e-05  0
0.000383898 0.000478888  0
0.000240753 0.0003129  0
0.000133944 0.000140666  0
0.000276621 0.000300085  0
0.000635674 0.000708065  0
0.000490349 0.000669513  0
0.000456148 0.000504075  0
0.000563012 0.000688789  0
0.000383485 0.000484799  0
0.000850708 0.00112928  0
0.000994547 0.00157032  0
0.000474952 0.000650291  0
0.000922628 0.0013498  0
0.00073475 0.0011103  0
0.00066283 0.000889786  0
0.000851616 0.00112432  0
0.000473379 0.000664177  0
0.000652783 0.000714174  0
0.000662497 0.000894248  0
0.000563081 0.000689175  0
0.000752199 0.000919246  0
0.000851447 0.00112514  0
0.0013105 0.00167665  0
0.000991163 0.00158277  0
0.00108097 0.00140089  0
0.00115083 0.00162971  0
0.000921305 0.00135396  0
0.000850778 0.00112876  0
0.000654017 0.000700755  0
0.00131371 0.00166482  0
0.000752398 0.00091476  0
0.000983861 0.00118279  0
0.00108224 0.00139679  0
0.000205373 0.00029439  0
5.65639e-06 -2.21791e-05  0
0.000476295 0.000647989  0
0.000105515 0.000136105  0
0.000240976 0.000312905  0
0.000340834 0.000471189  0
0.000204936 0.000288685  0
0.000476443 0.000666479  0
0.000353208 0.000647504  0
0.00034069 0.000477582  0
0.000414826 0.000656992  0
0.000279072 0.000468095  0
0.000205412 0.000288218  0
-6.83001e-06 -3.85676e-06  0
6.6258e-06 -2.69992e-06  0
9.92911e-05 0.000142181  0
-1.02106e-07 -3.27834e-06  0
0.000106019 0.000142759  0
0.000205182 0.000294844  0
0.000353543 0.000629945  0
-7.31834e-06 -2.23116e-05  0
0.000279362 0.000462394  0
0.000173112 0.000303817  0
9.89317e-05 0.000136266  0
0.000625412 0.00107614  0
0.000491078 0.000654766  0
0.000979078 0.00156603  0
0.000558245 0.000865455  0
0.000735078 0.0011104  0
0.000802245 0.00132109  0
0.000625873 0.00107123  0
0.000339046 0.000644532  0
0.000490639 0.000669861  0
0.00048246 0.000857878  0
0.000414843 0.000657196  0
0.000558256 0.000870543  0
0.000625649 0.00107177  0
0.000977454 0.00158002  0
0.000709454 0.00152735  0
0.000801551 0.00132589  0
0.000843454 0.00155368  0
0.000667551 0.00129956  0
0.000625309 0.00107653  0
0.000711352 0.00151334  0
0.000339848 0.000629533  0
0.00066833 0.00129493  0
0.0005256 0.00107144  0
0.000482579 0.000853029  0
0.00191861 0.00232235  0
0.0013042 0.0016748  0
0.00175888 0.00185135  0
0.0016114 0.00199858  0
0.00153154 0.00176308  0
0.00183874 0.00208685  0
0.00191519 0.00232338  0
0.00201933 0.00282255  0
0.0013153 0.0016704  0
0.00196726 0.00257297  0
0.00166732 0.00224647  0
0.00161524 0.00199689  0
0.00191409 0.00232341  0
0.00177196 0.00184931  0
0.00263469 0.00303034  0
0.00184302 0.00208636  0
0.00220332 0.00243982  0
0.00227439 0.00267687  0
0.00191913 0.00232209  0
0.00262031 0.00303315  0
0.00200695 0.00282739  0
0.00226972 0.00267762  0
0.00231363 0.00293027  0
0.00196304 0.00257474  0
0.00144531 0.0021666  0
0.000973739 0.00157823  0
0.00132822 0.00168196  0
0.00120952 0.00187241  0
0.00115098 0.00163009  0
0.00138676 0.00192428  0
0.00144297 0.00216926  0
0.00133445 0.00167442  0
0.00200104 0.00281886  0
0.00138871 0.00192184  0
0.00166774 0.00224664  0
0.001722 0.00249406  0
0.00144332 0.00216954  0
0.00150822 0.00268376  0
0.00097931 0.00156943  0
0.00147577 0.00242665  0
0.00124376 0.0021266  0
0.00121132 0.00186949  0
0.00144541 0.00216688  0
0.00199325 0.00282609  0
0.0015012 0.00269216  0
0.00171933 0.00249648  0
0.00174723 0.00275912  0
0.00147331 0.00242952  0
0.00203371 0.00337742  0
0.00201375 0.00395539  0
0.00149365 0.00268347  0
0.00202373 0.00366641  0
0.0017537 0.00331943  0
0.00176368 0.00303044  0
0.00203659 0.00337545  0
0.00148481 0.00268974  0
0.00200988 0.00282915  0
0.0017607 0.0030326  0
0.00174734 0.00275944  0
0.00202324 0.0031023  0
0.00203678 0.00337541  0
0.00265484 0.00411503  0
0.00200413 0.00396184  0
0.00234581 0.00374522  0
0.00232949 0.00403843  0
0.00202045 0.00366862  0
0.00203317 0.00337735  0
0.00201977 0.00282392  0
0.00266551 0.00410953  0
0.00202647 0.00310063  0
0.00234264 0.00346672  0
0.00234934 0.00374344  0
0.00149283 0.00325724  0
0.0015089 0.00268539  0
0.00199901 0.00395365  0
0.00150087 0.00297131  0
0.00175396 0.00331952  0
0.00174592 0.00360544  0
0.00149497 0.00325452  0
0.00105819 0.00260517  0
0.00150294 0.00269329  0
0.00127658 0.00292984  0
0.00128056 0.00264923  0
0.00149895 0.00297391  0
0.00149504 0.00325465  0
0.00199222 0.00396141  0
0.00143386 0.00385887  0
0.00174363 0.00360803  0
0.00171304 0.00391014  0
0.00146445 0.00355676  0
0.00149312 0.00325738  0
0.00144008 0.00385045  0
0.00106363 0.00259657  0
0.0014666 0.00355392  0
0.00125186 0.00322351  0
0.00127837 0.00292697  0
0.00105777 0.00207583  0
0.000995517 0.00157296  0
0.00149264 0.00268046  0
0.00102664 0.0018244  0
0.00124408 0.00212671  0
0.0012752 0.00237815  0
0.00105905 0.00207256  0
0.00148829 0.00269059  0
0.00107267 0.00260737  0
0.00127367 0.00238157  0
0.00128048 0.00264898  0
0.00106586 0.00233996  0
0.00105907 0.00207221  0
0.000694761 0.00152417  0
0.000992297 0.00158371  0
0.000876915 0.00179819  0
0.000843529 0.00155394  0
0.00102568 0.00182796  0
0.00105789 0.00207608  0
0.00107681 0.00259666  0
0.000697854 0.00151286  0
0.00106735 0.00233637  0
0.00088733 0.00205476  0
0.000877872 0.00179447  0
0.00268563 0.0035554  0
0.00345012 0.00433018  0
0.00266721 0.00411506  0
0.00306787 0.00394279  0
0.00305866 0.00422262  0
0.00267642 0.00383523  0
0.00268085 0.00355663  0
0.00268164 0.00411079  0
0.00200307 0.00282248  0
0.00268124 0.00383371  0
0.00234236 0.00346664  0
0.00234196 0.00318955  0
0.00267998 0.00355676  0
0.00265459 0.003033  0
0.00346622 0.00432688  0
0.00266729 0.00329488  0
0.0030604 0.00367994  0
0.0030731 0.00394182  0
0.00268532 0.00355575  0
0.00198889 0.00282593  0
0.0026386 0.00303538  0
0.0023371 0.00319084  0
0.00231374 0.00293066  0
0.00266196 0.00329556  0
0.00260482 0.00472181  0
0.00198937 0.00396121  0
0.00266975 0.00411615  0
0.0022971 0.00434151  0
0.00232956 0.00403868  0
0.00263729 0.00441898  0
0.00260083 0.00472347  0
0.00268154 0.00411153  0
0.00328894 0.0055198  0
0.00264119 0.0044175  0
0.00298524 0.00481566  0
0.00294488 0.00512163  0
0.00260133 0.00472347  0
0.00249569 0.00536247  0
0.00200012 0.00395593  0
0.00254851 0.00504297  0
0.00224791 0.0046592  0
0.00230073 0.0043397  0
0.00260497 0.0047217  0
0.00327681 0.00552482  0
0.00248457 0.00536809  0
0.00294089 0.00512326  0
0.00288069 0.00544645  0
0.00254477 0.00504489  0
0.00340567 0.00490644  0
0.00265193 0.0041155  0
0.00346547 0.00433023  0
0.0030288 0.00451097  0
0.0030587 0.00422286  0
0.00343557 0.00461834  0
0.00340081 0.00490755  0
0.00330296 0.00551956  0
0.00266709 0.00411168  0
0.00335189 0.00521356  0
0.00298503 0.00481562  0
0.00303395 0.00450962  0
0.0034002 0.00490768  0
0.00348194 0.00432693  0
0.00423114 0.00572887  0
0.00344107 0.0046173  0
0.00385654 0.0050279  0
0.00381567 0.00531828  0
0.00340585 0.00490619  0
0.00421484 0.00573286  0
0.00328788 0.00552401  0
0.00381035 0.00531953  0
0.00375136 0.00562844  0
0.00334687 0.0052151  0
0.00348324 0.00380726  0
0.00348256 0.00432666  0
0.00263774 0.0030332  0
0.0034829 0.00406696  0
0.00306015 0.00367993  0
0.00306049 0.00342023  0
0.00348982 0.00380705  0
0.00261652 0.00303489  0
0.00345234 0.00332616  0
0.00305317 0.00342097  0
0.00303443 0.00318053  0
0.00347108 0.0035666  0
0.00349018 0.00380651  0
0.00442349 0.00461019  0
0.0034624 0.00432966  0
0.00395683 0.00420835  0
0.00394294 0.00446992  0
0.00347629 0.00406808  0
0.00348233 0.00380773  0
0.00347563 0.0033249  0
0.00444542 0.00460761  0
0.00347898 0.00356632  0
0.00396053 0.00396626  0
0.00396388 0.00420767  0
0.000725622 0.00201697  0
0.000446597 0.0014949  0
0.000710119 0.0015278  0
0.000586109 0.00175594  0
0.000578358 0.00151135  0
0.00071787 0.00177239  0
0.000724866 0.0020211  0
0.000711877 0.00151541  0
0.00106324 0.00259425  0
0.000718372 0.00176825  0
0.000887557 0.00205483  0
0.000894051 0.00230768  0
0.000724905 0.00202129  0
0.000695355 0.00254508  0
0.000448384 0.00148228  0
0.00071013 0.00228319  0
0.000571869 0.00201368  0
0.000586644 0.00175179  0
0.00072557 0.00201728  0
0.00106074 0.00260605  0
0.000692886 0.00255714  0
0.000893155 0.00231167  0
0.000876813 0.0025816  0
0.000709228 0.00228721  0
0.000429856 0.00104368  0
0.000697123 0.00152546  0
0.000459517 0.00149688  0
0.00056349 0.00128457  0
0.00057832 0.00151117  0
0.000444687 0.00127028  0
0.000429739 0.00104838  0
0.000353541 0.000632236  0
0.000698058 0.00151073  0
0.00039164 0.00084031  0
0.000525799 0.00107148  0
0.000563899 0.00127956  0
0.000429666 0.00104863  0
0.000460667 0.00148227  0
0.000218331 0.000619934  0
0.000445167 0.00126545  0
0.000339499 0.0010511  0
0.000323999 0.000834281  0
0.000430029 0.00104332  0
0.000217822 0.000635215  0
0.000353288 0.000647716  0
0.000323925 0.000839268  0
0.000285555 0.000641465  0
0.000391658 0.000845518  0
0.00102415 0.00317824  0
0.00142264 0.00385832  0
0.000925859 0.00379445  0
0.0012234 0.00351828  0
0.00117425 0.00382638  0
0.000975005 0.00348634  0
0.00102282 0.00318135  0
0.00107734 0.00259828  0
0.00142681 0.00384888  0
0.00105008 0.00288981  0
0.00125208 0.00322358  0
0.00122482 0.00351511  0
0.00102298 0.00318147  0
0.000929731 0.0037846  0
0.00068321 0.00254538  0
0.000976357 0.00348304  0
0.00080647 0.00316499  0
0.000853097 0.00286343  0
0.00102413 0.00317805  0
0.000679925 0.00255555  0
0.00107381 0.00260804  0
0.000852028 0.0028668  0
0.000876866 0.0025818  0
0.00104897 0.00289304  0
0.00191993 0.00458978  0
0.0014202 0.00385789  0
0.00200601 0.00396284  0
0.00167007 0.00422383  0
0.00171311 0.00391036  0
0.00196297 0.00427631  0
0.00191753 0.00459204  0
0.00179035 0.00525126  0
0.00142748 0.00385096  0
0.00185394 0.00492165  0
0.00160891 0.00455111  0
0.0016725 0.0042215  0
0.00191717 0.00459198  0
0.00201399 0.00395649  0
0.00248226 0.00536203  0
0.00196558 0.00427424  0
0.00224813 0.00465926  0
0.00219972 0.00497701  0
0.00192002 0.00458979  0
0.00247378 0.00536848  0
0.00178257 0.00525825  0
0.0021969 0.00497914  0
0.00212817 0.00531337  0
0.0018513 0.00492402  0
0.00131754 0.00450159  0
0.0009133 0.00379358  0
0.0014353 0.00385959  0
0.00111542 0.00414758  0
0.0011743 0.00382658  0
0.00137642 0.00418059  0
0.00131574 0.00450427  0
0.0014404 0.00385172  0
0.00177783 0.0052506  0
0.00137807 0.004178  0
0.00160912 0.00455116  0
0.00154679 0.00487744  0
0.001316 0.00450435  0
0.00115722 0.0051787  0
0.00091793 0.0037853  0
0.00123661 0.00484152  0
0.00103757 0.004482  0
0.00111696 0.00414483  0
0.00131759 0.00450169  0
0.00177227 0.00525838  0
0.00115215 0.00518686  0
0.00154493 0.00488003  0
0.00146221 0.00522262  0
0.00123487 0.00484427  0
0.000423548 0.00199121  0
0.000460963 0.00148388  0
0.000683123 0.00254357  0
0.000442256 0.00173754  0
0.000572043 0.00201372  0
0.000553336 0.00226739  0
0.000423911 0.00198708  0
0.000681806 0.00255624  0
0.000342173 0.00253086  0
0.000552859 0.00227166  0
0.000511989 0.00254355  0
0.000383042 0.00225897  0
0.000423954 0.00198681  0
0.000216202 0.00148075  0
0.000460061 0.00149706  0
0.000320078 0.00173378  0
0.000338132 0.00148891  0
0.000442008 0.00174194  0
0.000423562 0.00199133  0
0.000343512 0.00251809  0
0.000217166 0.00146749  0
0.000383537 0.00225471  0
0.000280339 0.00199279  0
0.000320364 0.00172941  0
0.000597289 0.00313744  0
0.000695728 0.00254659  0
0.00091759 0.00378348  0
0.000646509 0.00284201  0
0.000806659 0.00316504  0
0.00075744 0.00346046  0
0.000598014 0.00313378  0
0.000330205 0.00252997  0
0.00069383 0.00255746  0
0.00046411 0.00283187  0
0.000512017 0.00254372  0
0.000645922 0.00284562  0
0.000598014 0.00313399  0
0.000915303 0.00379399  0
0.000456226 0.00375945  0
0.000756659 0.00346399  0
0.000685764 0.00377672  0
0.00052712 0.00344672  0
0.000597396 0.00313752  0
0.000458338 0.00374874  0
0.00033197 0.00251889  0
0.000527867 0.00344313  0
0.000395154 0.00313381  0
0.000464683 0.0028282  0
0.000141851 0.000283557  0
-6.11263e-06 -3.1967e-06  0
6.03849e-06 -2.79964e-06  0
6.78692e-05 0.00014018  0
-3.70713e-08 -2.99817e-06  0
7.39447e-05 0.000140379  0
0.000141762 0.000289335  0
5.62141e-06 -2.07708e-05  0
0.000340829 0.0006284  0
7.36917e-05 0.000134282  0
0.000173225 0.000303814  0
0.000241296 0.000458868  0
0.000141668 0.000289618  0
0.000230658 0.000619981  0
-6.28933e-06 -2.05034e-05  0
0.000186163 0.0004548  0
0.000112184 0.000299739  0
6.76892e-05 0.000134557  0
0.000141546 0.000283799  0
0.00034076 0.000645865  0
0.000230346 0.000636819  0
0.000241153 0.000464832  0
0.000285553 0.000641342  0
0.000185946 0.000460309  0
0.000251594 0.00103448  0
0.0002306 0.000621449  0
0.000448667 0.0014808  0
0.000241097 0.000827962  0
0.000339634 0.00105112  0
0.000350131 0.00125764  0
0.00025176 0.00102937  0
0.000104288 0.00063132  0
0.00023046 0.000636922  0
0.000178024 0.000830345  0
0.000167374 0.000634121  0
0.00024111 0.000833147  0
0.000251653 0.00102962  0
0.000448162 0.00149576  0
0.000228066 0.00148179  0
0.000349907 0.00126269  0
0.000338114 0.00148877  0
0.00023986 0.00125571  0
0.000251547 0.00103461  0
0.00022872 0.00146695  0
0.000104601 0.000615998  0
0.000240133 0.00125078  0
0.00016666 0.00104147  0
0.000178074 0.000825306  0
8.32304e-05 0.000287378  0
5.52125e-06 -1.97871e-05  0
0.000218976 0.000619258  0
4.43758e-05 0.000133796  0
0.000112249 0.000299736  0
0.000151103 0.000453318  0
8.31318e-05 0.000281961  0
0.000218877 0.00063599  0
0.000115874 0.000632086  0
0.000151004 0.000458976  0
0.000167376 0.000634038  0
9.95032e-05 0.000457024  0
8.33023e-05 0.000281829  0
-5.70417e-06 -2.87713e-06  0
5.68368e-06 -2.78494e-06  0
3.87991e-05 0.000139476  0
-1.02482e-08 -2.83103e-06  0
4.4493e-05 0.000139522  0
8.3184e-05 0.000287534  0
0.000116094 0.000615715  0
-5.74671e-06 -1.95034e-05  0
9.9639e-05 0.000451624  0
5.51737e-05 0.000298106  0
3.87186e-05 0.000134015  0
0.00449375 0.00412813  0
0.0045421 0.00368693  0
0.00563654 0.00493984  0
0.00451793 0.00390753  0
0.00508932 0.00431338  0
0.00506514 0.00453399  0
0.00450227 0.00412673  0
0.00343502 0.00333063  0
0.00451521 0.00369056  0
0.00396864 0.00372868  0
0.00397511 0.00351059  0
0.00450874 0.00390864  0
0.00450253 0.00412646  0
0.00561177 0.00494395  0
0.00443517 0.00460914  0
0.00505715 0.0045352  0
0.00502347 0.00477654  0
0.00446885 0.0043678  0
0.00449398 0.00412752  0
0.00445945 0.00460531  0
0.00346141 0.00332743  0
0.00447671 0.00436641  0
0.00396043 0.00396637  0
0.0039777 0.00372748  0
0.00550312 0.00544249  0
0.00442343 0.00461224  0
0.00562335 0.00494089  0
0.00496327 0.00502736  0
0.00502339 0.00477656  0
0.00556323 0.00519169  0
0.00549576 0.00544384  0
0.0053537 0.00598594  0
0.00444625 0.00460786  0
0.00542473 0.00571489  0
0.00489998 0.0052969  0
0.004971 0.00502585  0
0.00549557 0.00544412  0
0.00564654 0.00493628  0
0.00664469 0.00629119  0
0.00557106 0.0051902  0
0.00614561 0.00561374  0
0.00607013 0.00586765  0
0.00550323 0.00544238  0
0.00662245 0.00629602  0
0.00533188 0.00599062  0
0.00606284 0.0058692  0
0.00597717 0.00614332  0
0.00541755 0.0057165  0
0.00436016 0.00514807  0
0.00344809 0.00433167  0
0.00443774 0.00460851  0
0.00390412 0.00473987  0
0.00394291 0.00447009  0
0.00439895 0.00487829  0
0.00435333 0.00514929  0
0.00445868 0.00460524  0
0.00534146 0.00598843  0
0.004406 0.00487727  0
0.00490007 0.00529683  0
0.00484739 0.00556886  0
0.00435385 0.00514903  0
0.00424487 0.00572752  0
0.00346786 0.0043283  0
0.00429936 0.00543827  0
0.00385636 0.00502791  0
0.00391085 0.00473866  0
0.00436033 0.0051478  0
0.00532135 0.00599238  0
0.00422581 0.00573158  0
0.00484084 0.00557009  0
0.00477358 0.00586198  0
0.00429307 0.00543969  0
0.00406459 0.00636851  0
0.00424436 0.005728  0
0.00492819 0.00723455  0
0.00415448 0.00604826  0
0.00458628 0.00648128  0
0.00449639 0.00680153  0
0.00407 0.00636714  0
0.00327468 0.00552538  0
0.00422807 0.00573186  0
0.00367234 0.00594626  0
0.00375138 0.00562862  0
0.00414904 0.0060495  0
0.00407011 0.00636698  0
0.00491208 0.00723885  0
0.00385961 0.007044  0
0.00449109 0.00680292  0
0.00438584 0.00714142  0
0.00396486 0.00670549  0
0.00406503 0.00636841  0
0.00387482 0.00703947  0
0.00329002 0.00552129  0
0.00396993 0.00670394  0
0.00358242 0.00628038  0
0.00367753 0.00594485  0
0.00514741 0.00659326  0
0.00494019 0.00723271  0
0.00423207 0.00572987  0
0.0050438 0.00691299  0
0.00458613 0.00648129  0
0.00468974 0.00616157  0
0.00515347 0.006592  0
0.00421338 0.0057339  0
0.00533374 0.00599033  0
0.00468342 0.00616295  0
0.00477356 0.00586211  0
0.0052436 0.00629116  0
0.00515356 0.00659187  0
0.00613606 0.00747569  0
0.00492195 0.00723713  0
0.00564481 0.00703378  0
0.005529 0.00735641  0
0.00503775 0.0069145  0
0.00514705 0.00659342  0
0.00535321 0.00598631  0
0.00615503 0.00747129  0
0.00525013 0.00628986  0
0.00575412 0.0067288  0
0.00565104 0.00703235  0
0.00313256 0.00619118  0
0.00294372 0.00688983  0
0.00248322 0.00536377  0
0.00303814 0.00654051  0
0.00271347 0.0061268  0
0.00280789 0.00577748  0
0.00313639 0.00618964  0
0.00247144 0.00536861  0
0.00329002 0.0055247  0
0.00280392 0.00577912  0
0.00288073 0.00544665  0
0.00321321 0.00585717  0
0.00313649 0.00618953  0
0.00384968 0.00704535  0
0.00293178 0.006895  0
0.00349309 0.00661744  0
0.00339073 0.00697018  0
0.00303413 0.00654227  0
0.00313213 0.0061912  0
0.0033027 0.00552024  0
0.00386249 0.00704055  0
0.00321741 0.00585572  0
0.0035826 0.00628039  0
0.00349731 0.00661588  0
0.00231911 0.00605978  0
0.00249566 0.00536337  0
0.00293165 0.0068903  0
0.00240739 0.00571157  0
0.00271366 0.00612683  0
0.00262538 0.00647504  0
0.00232227 0.00605788  0
0.00177003 0.00525827  0
0.00248641 0.00536887  0
0.00204615 0.00565807  0
0.00212822 0.00531357  0
0.00240434 0.00571337  0
0.00232234 0.00605784  0
0.00292209 0.00689599  0
0.00210985 0.00678711  0
0.00262221 0.00647692  0
0.00251597 0.00684155  0
0.00221609 0.00642247  0
0.00231948 0.0060598  0
0.00211867 0.00678104  0
0.00177854 0.00525237  0
0.00221908 0.00642042  0
0.00194861 0.0060167  0
0.00204901 0.00565608  0
0.0046746 0.00793178  0
0.00384794 0.00704584  0
0.00492375 0.00723732  0
0.00426127 0.00748881  0
0.00438585 0.00714158  0
0.00479917 0.00758455  0
0.00466959 0.0079331  0
0.0043929 0.0086623  0
0.00386325 0.00704174  0
0.00453125 0.0082977  0
0.00412808 0.00785202  0
0.00426642 0.00748742  0
0.00466925 0.00793316  0
0.0049398 0.00723335  0
0.00555776 0.00883928  0
0.00480452 0.00758325  0
0.00524878 0.00803631  0
0.0051135 0.00838622  0
0.00467466 0.00793169  0
0.00554184 0.00884353  0
0.00437768 0.00866669  0
0.00510825 0.00838761  0
0.00495976 0.00875511  0
0.00452617 0.00829919  0
0.00362353 0.00776783  0
0.00292008 0.00689622  0
0.00386142 0.00704447  0
0.0032718 0.00733203  0
0.00339075 0.00697035  0
0.00374247 0.00740615  0
0.00361911 0.00776931  0
0.00387453 0.00704019  0
0.00438193 0.00866387  0
0.00374682 0.00740475  0
0.00412823 0.00785203  0
0.00400052 0.00821659  0
0.00361948 0.0077693  0
0.00335127 0.00852571  0
0.00293242 0.0068917  0
0.00348538 0.00814751  0
0.00314185 0.00770871  0
0.00327595 0.0073305  0
0.00362358 0.00776775  0
0.00436874 0.00866843  0
0.00333883 0.0085305  0
0.00399616 0.00821809  0
0.00385378 0.00859946  0
0.0034812 0.00814913  0
0.00640647 0.00686253  0
0.00665487 0.00628849  0
0.00756435 0.0077463  0
0.00653067 0.00657551  0
0.00710961 0.0070174  0
0.00698541 0.00730442  0
0.00641354 0.00686089  0
0.00532085 0.00599353  0
0.0066334 0.00629324  0
0.00586719 0.00642721  0
0.00597713 0.00614339  0
0.00652347 0.00657707  0
0.0064136 0.00686084  0
0.00754339 0.00775122  0
0.00614559 0.00747361  0
0.00697849 0.00730603  0
0.00684449 0.00761241  0
0.0062796 0.00716722  0
0.00640666 0.00686238  0
0.00616612 0.00746878  0
0.00534191 0.0059889  0
0.00628639 0.00716558  0
0.00575402 0.00672884  0
0.00587429 0.00642564  0
0.00587252 0.00813666  0
0.0049108 0.00723956  0
0.00614717 0.0074735  0
0.00539166 0.00768811  0
0.00552899 0.00735653  0
0.00600985 0.00780508  0
0.00586637 0.00813808  0
0.00616576 0.00746939  0
0.00689039 0.00905255  0
0.00601606 0.00780373  0
0.00652807 0.00826097  0
0.00637838 0.00859531  0
0.00586665 0.00813799  0
0.00556851 0.00883719  0
0.00492878 0.00723545  0
0.00571758 0.00848759  0
0.00524865 0.00803632  0
0.00539771 0.00768672  0
0.00587258 0.00813659  0
0.00687212 0.00905689  0
0.00555082 0.00884154  0
0.00637235 0.00859674  0
0.00621147 0.00894921  0
0.0057117 0.00848907  0
0.00723979 0.00838022  0
0.00613527 0.00747643  0
0.00755367 0.00774859  0
0.00668753 0.00792833  0
0.00684447 0.00761251  0
0.00739673 0.00806441  0
0.0072332 0.00838169  0
0.00690057 0.00905005  0
0.00615536 0.00747193  0
0.00706689 0.00871587  0
0.00652796 0.00826099  0
0.00669428 0.00792681  0
0.00723299 0.00838179  0
0.00757418 0.00774402  0
0.00839895 0.00930075  0
0.00740359 0.0080629  0
0.00798657 0.00852238  0
0.00781597 0.00884127  0
0.00723983 0.00838019  0
0.00837877 0.00930545  0
0.00688084 0.00905469  0
0.0078093 0.00884282  0
0.0076298 0.00918007  0
0.00706033 0.00871744  0
2.74781e-05 0.000281328  0
-5.51763e-06 -2.75659e-06  0
5.51451e-06 -2.74817e-06  0
1.09803e-05 0.000139286  0
-1.55852e-09 -2.75238e-06  0
1.64963e-05 0.00013929  0
2.74571e-05 0.000286791  0
5.45788e-06 -1.92271e-05  0
0.000104972 0.000615435  0
1.64575e-05 0.000133782  0
5.5215e-05 0.000298104  0
6.62146e-05 0.000451113  0
2.74312e-05 0.000286841  0
5.4716e-06 0.000614483  0
-5.50615e-06 -1.91137e-05  0
1.64514e-05 0.000450662  0
-1.72753e-08 0.000297685  0
1.09625e-05 0.000133863  0
2.74231e-05 0.000281413  0
0.000104945 0.000631745  0
5.37736e-06 0.000630675  0
6.61842e-05 0.000456579  0
5.51613e-05 0.00063121  0
1.64002e-05 0.000456044  0
8.2844e-05 0.00102882  0
5.53814e-06 0.00146217  0
-5.63262e-06 0.000615151  0
4.41911e-05 0.00124549  0
-4.7241e-08 0.00103866  0
3.86057e-05 0.000821984  0
8.29232e-05 0.00102364  0
-5.77476e-06 0.000630487  0
0.000116096 0.000632065  0
3.85742e-05 0.000827063  0
5.51606e-05 0.000631276  0
9.95096e-05 0.000827852  0
8.28874e-05 0.00102384  0
0.00021729 0.00148127  0
5.29371e-06 0.00147711  0
0.000150088 0.00125256  0
0.000111292 0.00147919  0
4.40906e-05 0.00125048  0
8.28777e-05 0.00102877  0
0.000116107 0.000616675  0
0.000217421 0.00146629  0
9.94925e-05 0.000822724  0
0.000166764 0.00104148  0
0.000150149 0.00124753  0
-2.74312e-05 0.000286841  0
5.50615e-06 -1.91137e-05  0
-5.4716e-06 0.000614483  0
-1.09625e-05 0.000133863  0
1.72753e-08 0.000297685  0
-1.64514e-05 0.000450662  0
-2.74231e-05 0.000281413  0
-5.37736e-06 0.000630675  0
-0.000104945 0.000631745  0
-1.64002e-05 0.000456044  0
-5.51613e-05 0.00063121  0
-6.61842e-05 0.000456579  0
-2.74781e-05 0.000281328  0
-5.51451e-06 -2.74817e-06  0
5.51763e-06 -2.75659e-06  0
-1.64963e-05 0.00013929  0
1.55852e-09 -2.75238e-06  0
-1.09803e-05 0.000139286  0
-2.74571e-05 0.000286791  0
-0.000104972 0.000615435  0
-5.45788e-06 -1.92271e-05  0
-6.62146e-05 0.000451113  0
-5.5215e-05 0.000298104  0
-1.64575e-05 0.000133782  0
-8.2844e-05 0.00102882  0
5.63262e-06 0.000615151  0
-5.53814e-06 0.00146217  0
-3.86057e-05 0.000821984  0
4.7241e-08 0.00103866  0
-4.41911e-05 0.00124549  0
-8.29232e-05 0.00102364  0
-0.000116096 0.000632065  0
5.77476e-06 0.000630487  0
-9.95096e-05 0.000827852  0
-5.51606e-05 0.000631276  0
-3.85742e-05 0.000827063  0
-8.28874e-05 0.00102384  0
-5.29371e-06 0.00147711  0
-0.00021729 0.00148127  0
-4.40906e-05 0.00125048  0
-0.000111292 0.00147919  0
-0.000150088 0.00125256  0
-8.28777e-05 0.00102877  0
-0.000217421 0.00146629  0
-0.000116107 0.000616675  0
-0.000150149 0.00124753  0
-0.000166764 0.00104148  0
-9.94925e-05 0.000822724  0
0.000139495 0.00197359  0
-6.0803e-06 0.00147686  0
0.000228674 0.00148176  0
6.67076e-05 0.00172522  0
0.000111297 0.00147931  0
0.000184085 0.00172767  0
0.000139364 0.00197812  0
0.000228935 0.00146825  0
0.000332034 0.00251736  0
0.000184149 0.00172318  0
0.000280485 0.0019928  0
0.000235699 0.00224774  0
0.000139373 0.00197816  0
5.61703e-06 0.00250951  0
-5.75422e-06 0.00146333  0
7.24948e-05 0.00224383  0
-6.85959e-08 0.00198642  0
6.68092e-05 0.00172074  0
0.000139479 0.00197383  0
0.00033163 0.00253041  0
5.18039e-06 0.00252258  0
0.000235554 0.00225212  0
0.000168405 0.0025265  0
7.23298e-05 0.00224821  0
0.000196515 0.00311749  0
5.61102e-06 0.00373722  0
-5.77423e-06 0.00251091  0
0.000101063 0.00342736  0
-8.16053e-08 0.00312407  0
9.53704e-05 0.0028142  0
0.000196687 0.00311362  0
-6.30824e-06 0.00252239  0
0.000343136 0.00253091  0
9.51895e-05 0.00281801  0
0.000168414 0.00252665  0
0.000269911 0.00282227  0
0.000196685 0.00311383  0
0.00044612 0.00375921  0
4.97409e-06 0.00374833  0
0.000321402 0.00343652  0
0.000225547 0.00375377  0
0.00010083 0.00343108  0
0.00019643 0.00311746  0
0.000343761 0.0025195  0
0.000446886 0.00374817  0
0.000270096 0.00281848  0
0.000395323 0.00313383  0
0.000321658 0.00343282  0
-0.000196515 0.00311749  0
5.77423e-06 0.00251091  0
-5.61102e-06 0.00373722  0
-9.53704e-05 0.0028142  0
8.16053e-08 0.00312407  0
-0.000101063 0.00342736  0
-0.000196687 0.00311362  0
-0.000343136 0.00253091  0
6.30824e-06 0.00252239  0
-0.000269911 0.00282227  0
-0.000168414 0.00252665  0
-9.51895e-05 0.00281801  0
-0.000196685 0.00311383  0
-4.97409e-06 0.00374833  0
-0.00044612 0.00375921  0
-0.00010083 0.00343108  0
-0.000225547 0.00375377  0
-0.000321402 0.00343652  0
-0.00019643 0.00311746  0
-0.000446886 0.00374817  0
-0.000343761 0.0025195  0
-0.000321658 0.00343282  0
-0.000395323 0.00313383  0
-0.000270096 0.00281848  0
-0.000139373 0.00197816  0
5.75422e-06 0.00146333  0
-5.61703e-06 0.00250951  0
-6.68092e-05 0.00172074  0
6.85959e-08 0.00198642  0
-7.24948e-05 0.00224383  0
-0.000139479 0.00197383  0
-5.18039e-06 0.00252258  0
-0.00033163 0.00253041  0
-7.23298e-05 0.00224821  0
-0.000168405 0.0025265  0
-0.000235554 0.00225212  0
-0.000139495 0.00197359  0
-0.000228674 0.00148176  0
6.0803e-06 0.00147686  0
-0.000184085 0.00172767  0
-0.000111297 0.00147931  0
-6.67076e-05 0.00172522  0
-0.000139364 0.00197812  0
-0.000332034 0.00251736  0
-0.000228935 0.00146825  0
-0.000235699 0.00224774  0
-0.000280485 0.0019928  0
-0.000184149 0.00172318  0
0.000253233 0.00442351  0
-6.37316e-06 0.00374826  0
0.000457486 0.00375962  0
0.00012343 0.00408588  0
0.000225556 0.00375394  0
0.000355359 0.00409156  0
0.000252845 0.00442671  0
0.000458493 0.00375013  0
0.00055899 0.00513779  0
0.000355669 0.00408842  0
0.000508742 0.00444396  0
0.000405917 0.00478225  0
0.000253013 0.00442673  0
5.46602e-06 0.00512498  0
-5.6427e-06 0.00373869  0
0.00012924 0.00477586  0
-8.83405e-08 0.00443184  0
0.000123685 0.00408271  0
0.000253238 0.00442366  0
0.000557862 0.00514704  0
4.6505e-06 0.00513431  0
0.00040555 0.00478535  0
0.000281256 0.00514068  0
0.000128944 0.00477899  0
0.000769815 0.00444838  0
0.00044447 0.00375894  0
0.000927117 0.00379487  0
0.000607143 0.00410366  0
0.000685794 0.0037769  0
0.000848466 0.00412163  0
0.000768972 0.00445146  0
0.000570114 0.0051381  0
0.000447008 0.00374978  0
0.000669543 0.00479478  0
0.000508561 0.00444394  0
0.00060799 0.00410062  0
0.000768777 0.0044514  0
0.00092999 0.00378594  0
0.00114554 0.00517813  0
0.000849383 0.00411867  0
0.00103776 0.00448204  0
0.000957157 0.00481477  0
0.000769836 0.00444851  0
0.00114235 0.00518687  0
0.000567294 0.00514706  0
0.000956093 0.00481769  0
0.000854822 0.00516696  0
0.000668565 0.00479779  0
-0.000251653 0.00102962  0
-0.000228066 0.00148179  0
-0.000448162 0.00149576  0
-0.00023986 0.00125571  0
-0.000338114 0.00148877  0
-0.000349907 0.00126269  0
-0.000251547 0.00103461  0
-0.000104601 0.000615998  0
-0.00022872 0.00146695  0
-0.000178074 0.000825306  0
-0.00016666 0.00104147  0
-0.000240133 0.00125078  0
-0.000251594 0.00103448  0
-0.000448667 0.0014808  0
-0.0002306 0.000621449  0
-0.000350131 0.00125764  0
-0.000339634 0.00105112  0
-0.000241097 0.000827962  0
-0.00025176 0.00102937  0
-0.00023046 0.000636922  0
-0.000104288 0.00063132  0
-0.00024111 0.000833147  0
-0.000167374 0.000634121  0
-0.000178024 0.000830345  0
-0.000423954 0.00198681  0
-0.000460061 0.00149706  0
-0.000216202 0.00148075  0
-0.000442008 0.00174194  0
-0.000338132 0.00148891  0
-0.000320078 0.00173378  0
-0.000423562 0.00199133  0
-0.000217166 0.00146749  0
-0.000343512 0.00251809  0
-0.000320364 0.00172941  0
-0.000280339 0.00199279  0
-0.000383537 0.00225471  0
-0.000423548 0.00199121  0
-0.000683123 0.00254357  0
-0.000460963 0.00148388  0
-0.000553336 0.00226739  0
-0.000572043 0.00201372  0
-0.000442256 0.00173754  0
-0.000423911 0.00198708  0
-0.000342173 0.00253086  0
-0.000681806 0.00255624  0
-0.000383042 0.00225897  0
-0.000511989 0.00254355  0
-0.000552859 0.00227166  0
-8.33023e-05 0.000281829  0
-5.68368e-06 -2.78494e-06  0
5.70417e-06 -2.87713e-06  0
-4.4493e-05 0.000139522  0
1.02482e-08 -2.83103e-06  0
-3.87991e-05 0.000139476  0
-8.3184e-05 0.000287534  0
5.74671e-06 -1.95034e-05  0
-0.000116094 0.000615715  0
-3.87186e-05 0.000134015  0
-5.51737e-05 0.000298106  0
-9.9639e-05 0.000451624  0
-8.32304e-05 0.000287378  0
-0.000218976 0.000619258  0
-5.52125e-06 -1.97871e-05  0
-0.000151103 0.000453318  0
-0.000112249 0.000299736  0
-4.43758e-05 0.000133796  0
-8.31318e-05 0.000281961  0
-0.000115874 0.000632086  0
-0.000218877 0.00063599  0
-9.95032e-05 0.000457024  0
-0.000167376 0.000634038  0
-0.000151004 0.000458976  0
-0.000429666 0.00104863  0
-0.000218331 0.000619934  0
-0.000460667 0.00148227  0
-0.000323999 0.000834281  0
-0.000339499 0.0010511  0
-0.000445167 0.00126545  0
-0.000430029 0.00104332  0
-0.000353288 0.000647716  0
-0.000217822 0.000635215  0
-0.000391658 0.000845518  0
-0.000285555 0.000641465  0
-0.000323925 0.000839268  0
-0.000429856 0.00104368  0
-0.000459517 0.00149688  0
-0.000697123 0.00152546  0
-0.000444687 0.00127028  0
-0.00057832 0.00151117  0
-0.00056349 0.00128457  0
-0.000429739 0.00104838  0
-0.000698058 0.00151073  0
-0.000353541 0.000632236  0
-0.000563899 0.00127956  0
-0.000525799 0.00107148  0
-0.00039164 0.00084031  0
-0.000141668 0.000289618  0
6.28933e-06 -2.05034e-05  0
-0.000230658 0.000619981  0
-6.76892e-05 0.000134557  0
-0.000112184 0.000299739  0
-0.000186163 0.0004548  0
-0.000141546 0.000283799  0
-0.000230346 0.000636819  0
-0.00034076 0.000645865  0
-0.000185946 0.000460309  0
-0.000285553 0.000641342  0
-0.000241153 0.000464832  0
-0.000141851 0.000283557  0
-6.03849e-06 -2.79964e-06  0
6.11263e-06 -3.1967e-06  0
-7.39447e-05 0.000140379  0
3.70713e-08 -2.99817e-06  0
-6.78692e-05 0.00014018  0
-0.000141762 0.000289335  0
-0.000340829 0.0006284  0
-5.62141e-06 -2.07708e-05  0
-0.000241296 0.000458868  0
-0.000173225 0.000303814  0
-7.36917e-05 0.000134282  0
-0.000598014 0.00313399  0
-0.000456226 0.00375945  0
-0.000915303 0.00379399  0
-0.00052712 0.00344672  0
-0.000685764 0.00377672  0
-0.000756659 0.00346399  0
-0.000597396 0.00313752  0
-0.00033197 0.00251889  0
-0.000458338 0.00374874  0
-0.000464683 0.0028282  0
-0.000395154 0.00313381  0
-0.000527867 0.00344313  0
-0.000597289 0.00313744  0
-0.00091759 0.00378348  0
-0.000695728 0.00254659  0
-0.00075744 0.00346046  0
-0.000806659 0.00316504  0
-0.000646509 0.00284201  0
-0.000598014 0.00313378  0
-0.00069383 0.00255746  0
-0.000330205 0.00252997  0
-0.000645922 0.00284562  0
-0.000512017 0.00254372  0
-0.00046411 0.00283187  0
-0.000253233 0.00442351  0
-0.000457486 0.00375962  0
6.37316e-06 0.00374826  0
-0.000355359 0.00409156  0
-0.000225556 0.00375394  0
-0.00012343 0.00408588  0
-0.000252845 0.00442671  0
-0.00055899 0.00513779  0
-0.000458493 0.00375013  0
-0.000405917 0.00478225  0
-0.000508742 0.00444396  0
-0.000355669 0.00408842  0
-0.000253013 0.00442673  0
5.6427e-06 0.00373869  0
-5.46602e-06 0.00512498  0
-0.000123685 0.00408271  0
8.83405e-08 0.00443184  0
-0.00012924 0.00477586  0
-0.000253238 0.00442366  0
-4.6505e-06 0.00513431  0
-0.000557862 0.00514704  0
-0.000128944 0.00477899  0
-0.000281256 0.00514068  0
-0.00040555 0.00478535  0
-0.000769815 0.00444838  0
-0.000927117 0.00379487  0
-0.00044447 0.00375894  0
-0.000848466 0.00412163  0
-0.000685794 0.0037769  0
-0.000607143 0.00410366  0
-0.000768972 0.00445146  0
-0.000447008 0.00374978  0
-0.000570114 0.0051381  0
-0.00060799 0.00410062  0
-0.000508561 0.00444394  0
-0.000669543 0.00479478  0
-0.000768777 0.0044514  0
-0.00114554 0.00517813  0
-0.00092999 0.00378594  0
-0.000957157 0.00481477  0
-0.00103776 0.00448204  0
-0.000849383 0.00411867  0
-0.000769836 0.00444851  0
-0.000567294 0.00514706  0
-0.00114235 0.00518687  0
-0.000668565 0.00479779  0
-0.000854822 0.00516696  0
-0.000956093 0.00481769  0
-0.000724905 0.00202129  0
-0.000448384 0.00148228  0
-0.000695355 0.00254508  0
-0.000586644 0.00175179  0
-0.000571869 0.00201368  0
-0.00071013 0.00228319  0
-0.00072557 0.00201728  0
-0.000692886 0.00255714  0
-0.00106074 0.00260605  0
-0.000709228 0.00228721  0
-0.000876813 0.0025816  0
-0.000893155 0.00231167  0
-0.000725622 0.00201697  0
-0.000710119 0.0015278  0
-0.000446597 0.0014949  0
-0.00071787 0.00177239  0
-0.000578358 0.00151135  0
-0.000586109 0.00175594  0
-0.000724866 0.0020211  0
-0.00106324 0.00259425  0
-0.000711877 0.00151541  0
-0.000894051 0.00230768  0
-0.000887557 0.00205483  0
-0.000718372 0.00176825  0
-0.00102298 0.00318147  0
-0.00068321 0.00254538  0
-0.000929731 0.0037846  0
-0.000853097 0.00286343  0
-0.00080647 0.00316499  0
-0.000976357 0.00348304  0
-0.00102413 0.00317805  0
-0.00107381 0.00260804  0
-0.000679925 0.00255555  0
-0.00104897 0.00289304  0
-0.000876866 0.0025818  0
-0.000852028 0.0028668  0
-0.00102415 0.00317824  0
-0.000925859 0.00379445  0
-0.00142264 0.00385832  0
-0.000975005 0.00348634  0
-0.00117425 0.00382638  0
-0.0012234 0.00351828  0
-0.00102282 0.00318135  0
-0.00142681 0.00384888  0
-0.00107734 0.00259828  0
-0.00122482 0.00351511  0
-0.00125208 0.00322358  0
-0.00105008 0.00288981  0
0.00159576 0.00596905  0
0.00137165 0.00670837  0
0.00114601 0.00517981  0
0.00148371 0.00633871  0
0.00125883 0.00594409  0
0.00137088 0.00557443  0
0.00159763 0.00596676  0
0.00114033 0.00518671  0
0.00178416 0.00525891  0
0.00136898 0.00557673  0
0.00146225 0.00522281  0
0.00169089 0.00561284  0
0.00159767 0.00596679  0
0.00210057 0.00678777  0
0.00136567 0.0067153  0
0.00184912 0.00637728  0
0.00173312 0.00675154  0
0.00148167 0.00634105  0
0.00159545 0.005969  0
0.00179043 0.00525234  0
0.00210717 0.00678114  0
0.00169294 0.00561067  0
0.0019488 0.00601674  0
0.00185131 0.00637507  0
0.000933312 0.00591276  0
0.0011573 0.00517991  0
0.00136073 0.00670832  0
0.0010453 0.00554634  0
0.00125902 0.00594411  0
0.00114702 0.00631054  0
0.000934614 0.00591025  0
0.000556076 0.00514697  0
0.00115362 0.00518733  0
0.000745345 0.00552861  0
0.000854847 0.00516715  0
0.00104412 0.00554879  0
0.000934637 0.00591031  0
0.00135682 0.0067157  0
0.000672355 0.00667461  0
0.00114573 0.00631301  0
0.00101459 0.00669516  0
0.000803496 0.00629246  0
0.000933577 0.0059128  0
0.00067575 0.00666703  0
0.000559258 0.00513934  0
0.000804664 0.00628991  0
0.000617504 0.00590319  0
0.000746418 0.00552607  0
0.00185758 0.00755654  0
0.00135482 0.00671573  0
0.00211148 0.00678771  0
0.0016062 0.00713614  0
0.00173315 0.00675172  0
0.00198453 0.00717213  0
0.00185513 0.00755847  0
0.00211858 0.00678204  0
0.00240815 0.00842596  0
0.00198686 0.00717026  0
0.00226337 0.007604  0
0.00213164 0.00799221  0
0.00185547 0.00755851  0
0.00156809 0.00835749  0
0.00136125 0.00670983  0
0.00171178 0.007958  0
0.00146467 0.00753366  0
0.00160836 0.00713417  0
0.00185761 0.00755653  0
0.00240081 0.00843177  0
0.00156142 0.00836353  0
0.00212921 0.00799415  0
0.00198112 0.00839765  0
0.00170952 0.00796003  0
0.00269359 0.00764388  0
0.0020985 0.00678784  0
0.00293349 0.00689562  0
0.00239605 0.00721586  0
0.002516 0.00684173  0
0.00281354 0.00726975  0
0.00269052 0.00764559  0
0.00241854 0.0084253  0
0.00210783 0.00678264  0
0.00255453 0.00803545  0
0.00226319 0.00760397  0
0.00239918 0.00721412  0
0.00269017 0.00764557  0
0.00294356 0.00689069  0
0.00334047 0.00852678  0
0.00281686 0.00726813  0
0.00314201 0.00770873  0
0.00301532 0.00808617  0
0.00269364 0.00764383  0
0.0033302 0.00853193  0
0.00240899 0.00843071  0
0.00301192 0.00808788  0
0.0028696 0.00848132  0
0.00255131 0.00803727  0
0.000307334 0.00588604  0
5.17201e-06 0.00665363  0
-5.35493e-06 0.00512642  0
0.000156253 0.00626984  0
-9.14589e-08 0.00589002  0
0.00015099 0.00550623  0
0.000307595 0.00588336  0
-6.24894e-06 0.00513439  0
0.000568779 0.00514733  0
0.000150673 0.00550887  0
0.000281265 0.00514086  0
0.000438187 0.00551535  0
0.000307602 0.00588344  0
0.000663817 0.00667479  0
4.21199e-06 0.00666152  0
0.000485709 0.00627912  0
0.000334014 0.00666816  0
0.000155907 0.00627248  0
0.00030709 0.00588603  0
0.000570121 0.00513943  0
0.000665255 0.00666697  0
0.000438606 0.00551273  0
0.000617688 0.0059032  0
0.000486173 0.0062765  0
-0.000307334 0.00588604  0
5.35493e-06 0.00512642  0
-5.17201e-06 0.00665363  0
-0.00015099 0.00550623  0
9.14589e-08 0.00589002  0
-0.000156253 0.00626984  0
-0.000307595 0.00588336  0
-0.000568779 0.00514733  0
6.24894e-06 0.00513439  0
-0.000438187 0.00551535  0
-0.000281265 0.00514086  0
-0.000150673 0.00550887  0
-0.000307602 0.00588344  0
-4.21199e-06 0.00666152  0
-0.000663817 0.00667479  0
-0.000155907 0.00627248  0
-0.000334014 0.00666816  0
-0.000485709 0.00627912  0
-0.00030709 0.00588603  0
-0.000665255 0.00666697  0
-0.000570121 0.00513943  0
-0.000486173 0.0062765  0
-0.000617688 0.0059032  0
-0.000438606 0.00551273  0
0.00108814 0.00750151  0
0.000661944 0.00667488  0
0.00136727 0.0067158  0
0.00087504 0.00708819  0
0.00101461 0.00669534  0
0.0012277 0.00710866  0
0.00108695 0.00750367  0
0.000772638 0.00831861  0
0.000665623 0.00666843  0
0.000929792 0.00791114  0
0.000719131 0.00749352  0
0.000876284 0.00708605  0
0.00108663 0.00750364  0
0.00137156 0.00670951  0
0.00155815 0.00835785  0
0.0012291 0.00710657  0
0.00146486 0.00753368  0
0.00132239 0.00793074  0
0.00108815 0.00750152  0
0.00155367 0.00836422  0
0.000768793 0.00832513  0
0.00132091 0.00793287  0
0.00116123 0.00834468  0
0.000928474 0.00791333  0
0.000358328 0.00747505  0
-5.95457e-06 0.00666172  0
0.000673997 0.00667496  0
0.000176187 0.00706839  0
0.000334021 0.00666834  0
0.000516163 0.00707501  0
0.000357729 0.00747729  0
0.000675607 0.0066683  0
0.000763026 0.00831876  0
0.000516668 0.0070728  0
0.000719317 0.00749353  0
0.000560377 0.00789803  0
0.000358034 0.00747731  0
4.74602e-06 0.00830601  0
-4.93264e-06 0.006655  0
0.00018139 0.00789166  0
-9.33082e-08 0.00748051  0
0.000176551 0.00706615  0
0.000358334 0.00747508  0
0.00076134 0.00832547  0
3.67199e-06 0.00831277  0
0.000559837 0.00790027  0
0.000382506 0.00831912  0
0.000181003 0.00789393  0
0.000403927 0.00918438  0
4.21456e-06 0.0100668  0
-4.40599e-06 0.00830734  0
0.000204071 0.00962559  0
-9.57154e-08 0.00918707  0
0.000199761 0.00874586  0
0.00040425 0.00918245  0
-5.52925e-06 0.00831308  0
0.000770552 0.00832555  0
0.00019936 0.00874776  0
0.000382511 0.00831931  0
0.000587401 0.008754  0
0.000404251 0.00918244  0
0.000848354 0.010084  0
3.04611e-06 0.0100727  0
0.000626303 0.00963321  0
0.0004257 0.0100783  0
0.000203649 0.00962756  0
0.000403576 0.00918437  0
0.000772369 0.00831985  0
0.000850235 0.0100781  0
0.000587972 0.00875211  0
0.000811302 0.009199  0
0.000626905 0.00963126  0
-0.000403927 0.00918438  0
4.40599e-06 0.00830734  0
-4.21456e-06 0.0100668  0
-0.000199761 0.00874586  0
9.57154e-08 0.00918707  0
-0.000204071 0.00962559  0
-0.00040425 0.00918245  0
-0.000770552 0.00832555  0
5.52925e-06 0.00831308  0
-0.000587401 0.008754  0
-0.000382511 0.00831931  0
-0.00019936 0.00874776  0
-0.000404251 0.00918244  0
-3.04611e-06 0.0100727  0
-0.000848354 0.010084  0
-0.000203649 0.00962756  0
-0.0004257 0.0100783  0
-0.000626303 0.00963321  0
-0.000403576 0.00918437  0
-0.000850235 0.0100781  0
-0.000772369 0.00831985  0
-0.000626905 0.00963126  0
-0.000811302 0.009199  0
-0.000587972 0.00875211  0
-0.000358034 0.00747731  0
4.93264e-06 0.006655  0
-4.74602e-06 0.00830601  0
-0.000176551 0.00706615  0
9.33082e-08 0.00748051  0
-0.00018139 0.00789166  0
-0.000358334 0.00747508  0
-3.67199e-06 0.00831277  0
-0.00076134 0.00832547  0
-0.000181003 0.00789393  0
-0.000382506 0.00831912  0
-0.000559837 0.00790027  0
-0.000358328 0.00747505  0
-0.000673997 0.00667496  0
5.95457e-06 0.00666172  0
-0.000516163 0.00707501  0
-0.000334021 0.00666834  0
-0.000176187 0.00706839  0
-0.000357729 0.00747729  0
-0.000763026 0.00831876  0
-0.000675607 0.0066683  0
-0.000560377 0.00789803  0
-0.000719317 0.00749353  0
-0.000516668 0.0070728  0
0.00122699 0.0092066  0
0.00172909 0.0101183  0
0.000854563 0.0100835  0
0.00147804 0.00966244  0
0.00129183 0.0101009  0
0.00104078 0.00964507  0
0.00122567 0.00920848  0
0.00085877 0.0100778  0
0.000763455 0.00832014  0
0.00104222 0.00964316  0
0.000811112 0.00919899  0
0.000994562 0.00876431  0
0.00122531 0.00920845  0
0.00156787 0.00835861  0
0.00173401 0.0101127  0
0.00139659 0.00878353  0
0.00165094 0.00923565  0
0.00147966 0.00966056  0
0.00122699 0.00920662  0
0.000759391 0.00832568  0
0.0015631 0.00836405  0
0.000993188 0.00876615  0
0.00116124 0.00834486  0
0.00139504 0.00878533  0
0.000444464 0.010991  0
-5.01446e-06 0.010073  0
0.000856422 0.010084  0
0.000219725 0.010532  0
0.000425704 0.0100785  0
0.000650443 0.0105375  0
0.000443729 0.0109926  0
0.000858401 0.0100791  0
0.000925378 0.0119313  0
0.000651065 0.0105359  0
0.000891889 0.0110052  0
0.000684554 0.011462  0
0.000444115 0.0109926  0
3.60455e-06 0.0119218  0
-3.80481e-06 0.0100681  0
0.00022386 0.0114572  0
-1.00129e-07 0.010995  0
0.000220155 0.0105304  0
0.000444459 0.010991  0
0.000923342 0.0119364  0
2.35107e-06 0.0119269  0
0.000683901 0.0114637  0
0.000462847 0.0119316  0
0.000223405 0.0114589  0
0.00134862 0.0110117  0
0.000846315 0.0100843  0
0.00173736 0.0101179  0
0.00109747 0.010548  0
0.00129184 0.0101011  0
0.00154299 0.0105648  0
0.0013472 0.0110133  0
0.000932691 0.0119309  0
0.000850694 0.0100795  0
0.00113994 0.0114721  0
0.000891692 0.0110052  0
0.00109895 0.0105464  0
0.00134681 0.0110132  0
0.0017425 0.0101132  0
0.00188562 0.01196  0
0.00154466 0.0105632  0
0.00181406 0.0110366  0
0.00161622 0.0114866  0
0.00134861 0.0110116  0
0.00188032 0.0119649  0
0.000928173 0.0119359  0
0.00161447 0.0114883  0
0.00140425 0.0119504  0
0.00113839 0.0114737  0
0.00209001 0.00925837  0
0.00174284 0.010112  0
0.00155867 0.00835922  0
0.00191643 0.0096852  0
0.00165076 0.00923563  0
0.00182434 0.00880879  0
0.00209232 0.00925664  0
0.00155167 0.00836437  0
0.00241061 0.00843129  0
0.00182199 0.00881051  0
0.00198114 0.00839783  0
0.00225146 0.00884397  0
0.00209233 0.00925661  0
0.00266818 0.0101778  0
0.00173563 0.0101174  0
0.00238026 0.00971722  0
0.00220191 0.0101476  0
0.00191398 0.00968699  0
0.00208966 0.00925833  0
0.00241833 0.00842629  0
0.00267611 0.0101726  0
0.00225399 0.00884231  0
0.00254722 0.00929947  0
0.00238289 0.00971548  0
-0.00108814 0.00750151  0
-0.00136727 0.0067158  0
-0.000661944 0.00667488  0
-0.0012277 0.00710866  0
-0.00101461 0.00669534  0
-0.00087504 0.00708819  0
-0.00108695 0.00750367  0
-0.000665623 0.00666843  0
-0.000772638 0.00831861  0
-0.000876284 0.00708605  0
-0.000719131 0.00749352  0
-0.000929792 0.00791114  0
-0.00108663 0.00750364  0
-0.00155815 0.00835785  0
-0.00137156 0.00670951  0
-0.00132239 0.00793074  0
-0.00146486 0.00753368  0
-0.0012291 0.00710657  0
-0.00108815 0.00750152  0
-0.000768793 0.00832513  0
-0.00155367 0.00836422  0
-0.000928474 0.00791333  0
-0.00116123 0.00834468  0
-0.00132091 0.00793287  0
-0.000934637 0.00591031  0
-0.000672355 0.00667461  0
-0.00135682 0.0067157  0
-0.000803496 0.00629246  0
-0.00101459 0.00669516  0
-0.00114573 0.00631301  0
-0.000933577 0.0059128  0
-0.000559258 0.00513934  0
-0.00067575 0.00666703  0
-0.000746418 0.00552607  0
-0.000617504 0.00590319  0
-0.000804664 0.00628991  0
-0.000933312 0.00591276  0
-0.00136073 0.00670832  0
-0.0011573 0.00517991  0
-0.00114702 0.00631054  0
-0.00125902 0.00594411  0
-0.0010453 0.00554634  0
-0.000934614 0.00591025  0
-0.00115362 0.00518733  0
-0.000556076 0.00514697  0
-0.00104412 0.00554879  0
-0.000854847 0.00516715  0
-0.000745345 0.00552861  0
-0.00122699 0.0092066  0
-0.000854563 0.0100835  0
-0.00172909 0.0101183  0
-0.00104078 0.00964507  0
-0.00129183 0.0101009  0
-0.00147804 0.00966244  0
-0.00122567 0.00920848  0
-0.000763455 0.00832014  0
-0.00085877 0.0100778  0
-0.000994562 0.00876431  0
-0.000811112 0.00919899  0
-0.00104222 0.00964316  0
-0.00122531 0.00920845  0
-0.00173401 0.0101127  0
-0.00156787 0.00835861  0
-0.00147966 0.00966056  0
-0.00165094 0.00923565  0
-0.00139659 0.00878353  0
-0.00122699 0.00920662  0
-0.0015631 0.00836405  0
-0.000759391 0.00832568  0
-0.00139504 0.00878533  0
-0.00116124 0.00834486  0
-0.000993188 0.00876615  0
-0.000444464 0.010991  0
-0.000856422 0.010084  0
5.01446e-06 0.010073  0
-0.000650443 0.0105375  0
-0.000425704 0.0100785  0
-0.000219725 0.010532  0
-0.000443729 0.0109926  0
-0.000925378 0.0119313  0
-0.000858401 0.0100791  0
-0.000684554 0.011462  0
-0.000891889 0.0110052  0
-0.000651065 0.0105359  0
-0.000444115 0.0109926  0
3.80481e-06 0.0100681  0
-3.60455e-06 0.0119218  0
-0.000220155 0.0105304  0
1.00129e-07 0.010995  0
-0.00022386 0.0114572  0
-0.000444459 0.010991  0
-2.35107e-06 0.0119269  0
-0.000923342 0.0119364  0
-0.000223405 0.0114589  0
-0.000462847 0.0119316  0
-0.000683901 0.0114637  0
-0.00134862 0.0110117  0
-0.00173736 0.0101179  0
-0.000846315 0.0100843  0
-0.00154299 0.0105648  0
-0.00129184 0.0101011  0
-0.00109747 0.010548  0
-0.0013472 0.0110133  0
-0.000850694 0.0100795  0
-0.000932691 0.0119309  0
-0.00109895 0.0105464  0
-0.000891692 0.0110052  0
-0.00113994 0.0114721  0
-0.00134681 0.0110132  0
-0.00188562 0.01196  0
-0.0017425 0.0101132  0
-0.00161622 0.0114866  0
-0.00181406 0.0110366  0
-0.00154466 0.0105632  0
-0.00134861 0.0110116  0
-0.000928173 0.0119359  0
-0.00188032 0.0119649  0
-0.00113839 0.0114737  0
-0.00140425 0.0119504  0
-0.00161447 0.0114883  0
-0.00185547 0.00755851  0
-0.00136125 0.00670983  0
-0.00156809 0.00835749  0
-0.00160836 0.00713417  0
-0.00146467 0.00753366  0
-0.00171178 0.007958  0
-0.00185761 0.00755653  0
-0.00156142 0.00836353  0
-0.00240081 0.00843177  0
-0.00170952 0.00796003  0
-0.00198112 0.00839765  0
-0.00212921 0.00799415  0
-0.00185758 0.00755654  0
-0.00211148 0.00678771  0
-0.00135482 0.00671573  0
-0.00198453 0.00717213  0
-0.00173315 0.00675172  0
-0.0016062 0.00713614  0
-0.00185513 0.00755847  0
-0.00240815 0.00842596  0
-0.00211858 0.00678204  0
-0.00213164 0.00799221  0
-0.00226337 0.007604  0
-0.00198686 0.00717026  0
-0.00209001 0.00925837  0
-0.00155867 0.00835922  0
-0.00174284 0.010112  0
-0.00182434 0.00880879  0
-0.00165076 0.00923563  0
-0.00191643 0.0096852  0
-0.00209232 0.00925664  0
-0.00241061 0.00843129  0
-0.00155167 0.00836437  0
-0.00225146 0.00884397  0
-0.00198114 0.00839783  0
-0.00182199 0.00881051  0
-0.00209233 0.00925661  0
-0.00173563 0.0101174  0
-0.00266818 0.0101778  0
-0.00191398 0.00968699  0
-0.00220191 0.0101476  0
-0.00238026 0.00971722  0
-0.00208966 0.00925833  0
-0.00267611 0.0101726  0
-0.00241833 0.00842629  0
-0.00238289 0.00971548  0
-0.00254722 0.00929947  0
-0.00225399 0.00884231  0
-0.00159576 0.00596905  0
-0.00114601 0.00517981  0
-0.00137165 0.00670837  0
-0.00137088 0.00557443  0
-0.00125883 0.00594409  0
-0.00148371 0.00633871  0
-0.00159763 0.00596676  0
-0.00178416 0.00525891  0
-0.00114033 0.00518671  0
-0.00169089 0.00561284  0
-0.00146225 0.00522281  0
-0.00136898 0.00557673  0
-0.00159767 0.00596679  0
-0.00136567 0.0067153  0
-0.00210057 0.00678777  0
-0.00148167 0.00634105  0
-0.00173312 0.00675154  0
-0.00184912 0.00637728  0
-0.00159545 0.005969  0
-0.00210717 0.00678114  0
-0.00179043 0.00525234  0
-0.00185131 0.00637507  0
-0.0019488 0.00601674  0
-0.00169294 0.00561067  0
-0.001316 0.00450435  0
-0.00091793 0.0037853  0
-0.00115722 0.0051787  0
-0.00111696 0.00414483  0
-0.00103757 0.004482  0
-0.00123661 0.00484152  0
-0.00131759 0.00450169  0
-0.00115215 0.00518686  0
-0.00177227 0.00525838  0
-0.00123487 0.00484427  0
-0.00146221 0.00522262  0
-0.00154493 0.00488003  0
-0.00131754 0.00450159  0
-0.0014353 0.00385959  0
-0.0009133 0.00379358  0
-0.00137642 0.00418059  0
-0.0011743 0.00382658  0
-0.00111542 0.00414758  0
-0.00131574 0.00450427  0
-0.00177783 0.0052506  0
-0.0014404 0.00385172  0
-0.00154679 0.00487744  0
-0.00160912 0.00455116  0
-0.00137807 0.004178  0
0.00302823 0.00933548  0
0.00369359 0.0102659  0
0.00267522 0.0101765  0
0.00336091 0.00980069  0
0.00318441 0.0102212  0
0.00285173 0.00975598  0
0.00302494 0.00933709  0
0.00268535 0.0101716  0
0.00240875 0.00842728  0
0.00285514 0.00975435  0
0.00254705 0.00929945  0
0.00271684 0.00888218  0
0.00302459 0.00933705  0
0.00335104 0.00852657  0
0.00370443 0.0102612  0
0.00318781 0.00893181  0
0.00352773 0.00939389  0
0.00336451 0.00979912  0
0.00302821 0.00933554  0
0.00239883 0.00843193  0
0.00334041 0.00853105  0
0.00271352 0.00888373  0
0.00286962 0.00848149  0
0.00318431 0.00893329  0
0.00332218 0.0111219  0
0.00266622 0.010178  0
0.00370263 0.0102647  0
0.0029942 0.01065  0
0.00318443 0.0102214  0
0.00351241 0.0106933  0
0.00331871 0.0111234  0
0.00291575 0.0120087  0
0.00267665 0.0101738  0
0.00311723 0.011566  0
0.0027962 0.0110913  0
0.00299768 0.0106486  0
0.00331837 0.0111233  0
0.00371377 0.0102606  0
0.00402042 0.012084  0
0.00351607 0.010692  0
0.0038671 0.0111723  0
0.0036694 0.0116036  0
0.00332217 0.0111219  0
0.00400905 0.0120883  0
0.00290508 0.0120131  0
0.00366561 0.0116051  0
0.00345706 0.0120507  0
0.00311362 0.0115675  0
0.00229816 0.0110544  0
0.00172704 0.0101185  0
0.0026768 0.0101771  0
0.0020126 0.0105865  0
0.00220192 0.0101478  0
0.00248748 0.0106158  0
0.00229531 0.0110559  0
0.00268503 0.0101726  0
0.00290771 0.0120099  0
0.00249017 0.0106143  0
0.00279637 0.0110913  0
0.00260151 0.0115329  0
0.00229568 0.011056  0
0.00189323 0.0119592  0
0.00173452 0.010114  0
0.00209446 0.0115076  0
0.00181388 0.0110366  0
0.0020151 0.010585  0
0.00229814 0.0110544  0
0.00289926 0.0120146  0
0.00188554 0.0119639  0
0.0025987 0.0115345  0
0.0023924 0.0119893  0
0.00209184 0.0115092  0
0.00405747 0.00944821  0
0.00371405 0.0102598  0
0.0033411 0.00852798  0
0.00388576 0.00985398  0
0.00352757 0.00939387  0
0.00369928 0.0089881  0
0.00406167 0.00944683  0
0.00332837 0.00853216  0
0.00437923 0.00866708  0
0.00369502 0.00898949  0
0.0038538 0.00859962  0
0.00422045 0.00905696  0
0.00406169 0.00944677  0
0.00483135 0.0103859  0
0.0037012 0.0102641  0
0.00444652 0.00991634  0
0.00426627 0.010325  0
0.00388145 0.00985546  0
0.00405714 0.0094482  0
0.00439263 0.00866305  0
0.00484486 0.0103817  0
0.00422489 0.00905563  0
0.00461874 0.00952236  0
0.004451 0.00991493  0
0.00144936 0.0129047  0
0.00189279 0.0119605  0
0.00201118 0.0138873  0
0.00167107 0.0124326  0
0.00195198 0.0129239  0
0.00173027 0.013396  0
0.00145128 0.0129034  0
0.000921182 0.0119367  0
0.00188733 0.0119645  0
0.00118623 0.01242  0
0.00140426 0.0119506  0
0.00166931 0.012434  0
0.00145125 0.0129034  0
0.00200558 0.0138916  0
0.000988698 0.0138683  0
0.00172841 0.0133975  0
0.00149714 0.0138799  0
0.00121997 0.0133858  0
0.00144976 0.0129048  0
0.000993487 0.0138641  0
0.00092583 0.0119326  0
0.00122162 0.0133844  0
0.000959659 0.0128983  0
0.00118779 0.0124187  0
0.00246984 0.0129394  0
0.00201749 0.0138865  0
0.00188609 0.0119613  0
0.00224366 0.013413  0
0.00195179 0.0129239  0
0.00217796 0.0124503  0
0.00247248 0.0129381  0
0.00187818 0.0119652  0
0.00290664 0.0120137  0
0.00217533 0.0124516  0
0.00239241 0.0119894  0
0.00268956 0.0124759  0
0.00247243 0.012938  0
0.00309164 0.0139312  0
0.00200935 0.0138907  0
0.00278204 0.0134346  0
0.0025505 0.0139109  0
0.00224089 0.0134143  0
0.00246945 0.0129394  0
0.00291533 0.0120098  0
0.00310058 0.013927  0
0.00269239 0.0124746  0
0.00300795 0.0129684  0
0.00278502 0.0134332  0
0.000477976 0.012888  0
2.94348e-06 0.0138568  0
-3.15911e-06 0.0119232  0
0.00024046 0.0133724  0
-1.07818e-07 0.01289  0
0.000237409 0.0124056  0
0.000478352 0.0128867  0
-4.4478e-06 0.0119273  0
0.000930146 0.0119364  0
0.000236952 0.012407  0
0.000462849 0.0119318  0
0.000704249 0.0124115  0
0.000478339 0.0128866  0
0.000985342 0.0138687  0
1.61032e-06 0.0138611  0
0.000731841 0.0133777  0
0.000493476 0.0138649  0
0.000239975 0.0133739  0
0.000477569 0.012888  0
0.000932245 0.0119323  0
0.000987495 0.0138644  0
0.000704907 0.0124101  0
0.00095987 0.0128983  0
0.000732532 0.0133762  0
-0.000477976 0.012888  0
3.15911e-06 0.0119232  0
-2.94348e-06 0.0138568  0
-0.000237409 0.0124056  0
1.07818e-07 0.01289  0
-0.00024046 0.0133724  0
-0.000478352 0.0128867  0
-0.000930146 0.0119364  0
4.4478e-06 0.0119273  0
-0.000704249 0.0124115  0
-0.000462849 0.0119318  0
-0.000236952 0.012407  0
-0.000478339 0.0128866  0
-1.61032e-06 0.0138611  0
-0.000985342 0.0138687  0
-0.000239975 0.0133739  0
-0.000493476 0.0138649  0
-0.000731841 0.0133777  0
-0.000477569 0.012888  0
-0.000987495 0.0138644  0
-0.000932245 0.0119323  0
-0.000732532 0.0133762  0
-0.00095987 0.0128983  0
-0.000704907 0.0124101  0
0.00153403 0.0148683  0
0.000983025 0.013869  0
0.00201125 0.0138913  0
0.00125853 0.0143686  0
0.00149714 0.0138802  0
0.00177264 0.0143798  0
0.00153242 0.0148694  0
0.00104092 0.0158623  0
0.000987886 0.0138659  0
0.00128667 0.0153658  0
0.0010144 0.0148641  0
0.00126015 0.0143676  0
0.00153201 0.0148693  0
0.00201693 0.013888  0
0.00211003 0.0158812  0
0.00177447 0.0143787  0
0.00206348 0.0148846  0
0.00182102 0.0153753  0
0.00153396 0.0148683  0
0.00210421 0.0158846  0
0.00103592 0.0158656  0
0.00181909 0.0153765  0
0.00157007 0.0158751  0
0.00128494 0.0153669  0
0.000505602 0.0148548  0
-3.86572e-06 0.0138615  0
0.000990819 0.0138688  0
0.000250868 0.0143582  0
0.000493477 0.0138651  0
0.000748211 0.0143618  0
0.00050479 0.0148559  0
0.000992987 0.0138656  0
0.00103628 0.0158625  0
0.000748888 0.0143608  0
0.00101464 0.0148641  0
0.000770537 0.0153592  0
0.000505201 0.0148559  0
2.26585e-06 0.0158563  0
-2.50575e-06 0.0138584  0
0.000253733 0.0153561  0
-1.19952e-07 0.0148573  0
0.000251348 0.0143572  0
0.000505579 0.0148548  0
0.00103407 0.0158658  0
8.63344e-07 0.0158595  0
0.000769825 0.0153603  0
0.000517468 0.0158626  0
0.000253221 0.0153572  0
0.00356856 0.0129942  0
0.00402859 0.0120832  0
0.00428602 0.0139861  0
0.00379858 0.0125387  0
0.00415731 0.0130346  0
0.00392729 0.0134901  0
0.00357258 0.012993  0
0.00289723 0.0120147  0
0.00401693 0.0120869  0
0.00323491 0.0125039  0
0.00345708 0.0120508  0
0.00379476 0.0125399  0
0.00357253 0.0129929  0
0.00427404 0.0139901  0
0.00309614 0.0139297  0
0.00392329 0.0134915  0
0.00368509 0.0139599  0
0.00333433 0.0134613  0
0.00356891 0.0129943  0
0.00310738 0.0139257  0
0.00290817 0.012011  0
0.00333815 0.01346  0
0.00300778 0.0129684  0
0.00323854 0.0125026  0
0.00444344 0.0112189  0
0.00402895 0.0120823  0
0.00370494 0.0102623  0
0.00423619 0.0116506  0
0.00386695 0.0111723  0
0.00407419 0.0107406  0
0.00444779 0.0112175  0
0.00523555 0.0121897  0
0.00401564 0.0120863  0
0.00484167 0.0117036  0
0.00462559 0.012138  0
0.00423171 0.0116519  0
0.0044478 0.0112176  0
0.00369183 0.0102661  0
0.00484074 0.0103843  0
0.00406981 0.0107418  0
0.00426629 0.0103252  0
0.00464427 0.0108009  0
0.00444314 0.0112188  0
0.00485447 0.0103805  0
0.00524946 0.0121857  0
0.0046488 0.0107997  0
0.00505196 0.0112831  0
0.0048463 0.0117023  0
0.00477494 0.0130727  0
0.00429346 0.0139843  0
0.00402086 0.0120849  0
0.0045342 0.0135285  0
0.00415716 0.0130346  0
0.0043979 0.0125788  0
0.00477951 0.0130714  0
0.00400727 0.0120884  0
0.00524395 0.0121879  0
0.00439339 0.0125799  0
0.00462561 0.0121381  0
0.00501173 0.0126296  0
0.00477946 0.0130714  0
0.00557946 0.0140721  0
0.00427956 0.0139881  0
0.00517946 0.0135717  0
0.00492951 0.0140301  0
0.00452951 0.0135297  0
0.00477466 0.0130726  0
0.00525813 0.0121844  0
0.00559395 0.0140684  0
0.0050164 0.0126285  0
0.00542604 0.0131264  0
0.00518431 0.0135705  0
0.00261372 0.0148958  0
0.00200328 0.0138918  0
0.00309773 0.0139304  0
0.0023085 0.0143938  0
0.0025505 0.0139111  0
0.00285572 0.0144131  0
0.00261053 0.0148968  0
0.00310681 0.013927  0
0.00325353 0.015913  0
0.00285867 0.0144119  0
0.00318017 0.01492  0
0.00293203 0.0154049  0
0.00261094 0.014897  0
0.00211498 0.0158807  0
0.00201155 0.0138886  0
0.00236296 0.0153888  0
0.00206326 0.0148846  0
0.00231125 0.0143928  0
0.00261362 0.0148957  0
0.0032442 0.0159166  0
0.00210646 0.0158841  0
0.00292891 0.0154062  0
0.00267533 0.0159004  0
0.00236004 0.0153899  0
0.00377736 0.014939  0
0.00308947 0.0139313  0
0.00428073 0.0139888  0
0.00343342 0.0144351  0
0.0036851 0.0139601  0
0.00402904 0.0144639  0
0.00377348 0.0149402  0
0.00325903 0.015912  0
0.00310094 0.013928  0
0.00351625 0.0154261  0
0.00317999 0.01492  0
0.00343721 0.0144341  0
0.0037731 0.01494  0
0.00429296 0.0139853  0
0.00449945 0.0159593  0
0.00403303 0.0144627  0
0.00439621 0.0149723  0
0.00413627 0.0154497  0
0.00377724 0.0149389  0
0.00448684 0.0159631  0
0.00324721 0.0159156  0
0.00413204 0.015451  0
0.00386702 0.0159393  0
0.00351222 0.0154272  0
0.00521792 0.00959343  0
0.00610449 0.0105404  0
0.00483944 0.0103839  0
0.0056612 0.0100669  0
0.00547196 0.0104621  0
0.00502868 0.00998865  0
0.00521285 0.00959476  0
0.00485472 0.0103798  0
0.00438249 0.0086649  0
0.00503379 0.00998728  0
0.00461861 0.00952235  0
0.00479767 0.00912983  0
0.00521258 0.00959478  0
0.00556821 0.0088379  0
0.00612033 0.0105364  0
0.00539039 0.00921634  0
0.00584427 0.00968716  0
0.00566645 0.0100656  0
0.00521789 0.00959348  0
0.00436719 0.00866879  0
0.00555233 0.00884171  0
0.00479254 0.00913113  0
0.00495976 0.00875525  0
0.00538511 0.00921759  0
0.00569893 0.0113446  0
0.0048299 0.0103861  0
0.00611403 0.0105384  0
0.00526442 0.0108654  0
0.00547197 0.0104623  0
0.00590648 0.0109415  0
0.00569383 0.0113458  0
0.00525839 0.0121837  0
0.00484529 0.0103826  0
0.00547611 0.0117647  0
0.00505184 0.0112831  0
0.00526956 0.0108642  0
0.0056936 0.0113458  0
0.0061299 0.0105349  0
0.00661608 0.0123185  0
0.00591175 0.0109403  0
0.00637299 0.0114267  0
0.00615484 0.0118321  0
0.00569894 0.0113446  0
0.00660016 0.0123221  0
0.00524292 0.0121874  0
0.00614955 0.0118334  0
0.00592154 0.0122548  0
0.00547093 0.011766  0
0.00651362 0.00977797  0
0.00613013 0.0105342  0
0.00555817 0.00884013  0
0.00632188 0.0101561  0
0.00584415 0.00968716  0
0.0060359 0.00930905  0
0.00651938 0.00977669  0
0.00554065 0.00884402  0
0.00688227 0.00905465  0
0.00603001 0.00931035  0
0.00621146 0.00894933  0
0.00670082 0.00941567  0
0.00651941 0.00977667  0
0.00753241 0.0107299  0
0.00611279 0.0105382  0
0.00702591 0.0102533  0
0.0068226 0.0106341  0
0.0063161 0.0101574  0
0.00651339 0.00977803  0
0.00690028 0.00905075  0
0.0075502 0.0107259  0
0.00670683 0.00941439  0
0.00722524 0.00988832  0
0.0070318 0.010252  0
-0.00191993 0.00458978  0
-0.00200601 0.00396284  0
-0.0014202 0.00385789  0
-0.00196297 0.00427631  0
-0.00171311 0.00391036  0
-0.00167007 0.00422383  0
-0.00191753 0.00459204  0
-0.00142748 0.00385096  0
-0.00179035 0.00525126  0
-0.0016725 0.0042215  0
-0.00160891 0.00455111  0
-0.00185394 0.00492165  0
-0.00191717 0.00459198  0
-0.00248226 0.00536203  0
-0.00201399 0.00395649  0
-0.00219972 0.00497701  0
-0.00224813 0.00465926  0
-0.00196558 0.00427424  0
-0.00192002 0.00458979  0
-0.00178257 0.00525825  0
-0.00247378 0.00536848  0
-0.0018513 0.00492402  0
-0.00212817 0.00531337  0
-0.0021969 0.00497914  0
-0.00149504 0.00325465  0
-0.00143386 0.00385887  0
-0.00199222 0.00396141  0
-0.00146445 0.00355676  0
-0.00171304 0.00391014  0
-0.00174363 0.00360803  0
-0.00149312 0.00325738  0
-0.00106363 0.00259657  0
-0.00144008 0.00385045  0
-0.00127837 0.00292697  0
-0.00125186 0.00322351  0
-0.0014666 0.00355392  0
-0.00149283 0.00325724  0
-0.00199901 0.00395365  0
-0.0015089 0.00268539  0
-0.00174592 0.00360544  0
-0.00175396 0.00331952  0
-0.00150087 0.00297131  0
-0.00149497 0.00325452  0
-0.00150294 0.00269329  0
-0.00105819 0.00260517  0
-0.00149895 0.00297391  0
-0.00128056 0.00264923  0
-0.00127658 0.00292984  0
-0.00231911 0.00605978  0
-0.00293165 0.0068903  0
-0.00249566 0.00536337  0
-0.00262538 0.00647504  0
-0.00271366 0.00612683  0
-0.00240739 0.00571157  0
-0.00232227 0.00605788  0
-0.00248641 0.00536887  0
-0.00177003 0.00525827  0
-0.00240434 0.00571337  0
-0.00212822 0.00531357  0
-0.00204615 0.00565807  0
-0.00232234 0.00605784  0
-0.00210985 0.00678711  0
-0.00292209 0.00689599  0
-0.00221609 0.00642247  0
-0.00251597 0.00684155  0
-0.00262221 0.00647692  0
-0.00231948 0.0060598  0
-0.00177854 0.00525237  0
-0.00211867 0.00678104  0
-0.00204901 0.00565608  0
-0.00194861 0.0060167  0
-0.00221908 0.00642042  0
-0.00260133 0.00472347  0
-0.00200012 0.00395593  0
-0.00249569 0.00536247  0
-0.00230073 0.0043397  0
-0.00224791 0.0046592  0
-0.00254851 0.00504297  0
-0.00260497 0.0047217  0
-0.00248457 0.00536809  0
-0.00327681 0.00552482  0
-0.00254477 0.00504489  0
-0.00288069 0.00544645  0
-0.00294089 0.00512326  0
-0.00260482 0.00472181  0
-0.00266975 0.00411615  0
-0.00198937 0.00396121  0
-0.00263729 0.00441898  0
-0.00232956 0.00403868  0
-0.0022971 0.00434151  0
-0.00260083 0.00472347  0
-0.00328894 0.0055198  0
-0.00268154 0.00411153  0
-0.00294488 0.00512163  0
-0.00298524 0.00481566  0
-0.00264119 0.0044175  0
-0.00313256 0.00619118  0
-0.00248322 0.00536377  0
-0.00294372 0.00688983  0
-0.00280789 0.00577748  0
-0.00271347 0.0061268  0
-0.00303814 0.00654051  0
-0.00313639 0.00618964  0
-0.00329002 0.0055247  0
-0.00247144 0.00536861  0
-0.00321321 0.00585717  0
-0.00288073 0.00544665  0
-0.00280392 0.00577912  0
-0.00313649 0.00618953  0
-0.00293178 0.006895  0
-0.00384968 0.00704535  0
-0.00303413 0.00654227  0
-0.00339073 0.00697018  0
-0.00349309 0.00661744  0
-0.00313213 0.0061912  0
-0.00386249 0.00704055  0
-0.0033027 0.00552024  0
-0.00349731 0.00661588  0
-0.0035826 0.00628039  0
-0.00321741 0.00585572  0
-0.00269359 0.00764388  0
-0.00293349 0.00689562  0
-0.0020985 0.00678784  0
-0.00281354 0.00726975  0
-0.002516 0.00684173  0
-0.00239605 0.00721586  0
-0.00269052 0.00764559  0
-0.00210783 0.00678264  0
-0.00241854 0.0084253  0
-0.00239918 0.00721412  0
-0.00226319 0.00760397  0
-0.00255453 0.00803545  0
-0.00269017 0.00764557  0
-0.00334047 0.00852678  0
-0.00294356 0.00689069  0
-0.00301532 0.00808617  0
-0.00314201 0.00770873  0
-0.00281686 0.00726813  0
-0.00269364 0.00764383  0
-0.00240899 0.00843071  0
-0.0033302 0.00853193  0
-0.00255131 0.00803727  0
-0.0028696 0.00848132  0
-0.00301192 0.00808788  0
-0.00105777 0.00207583  0
-0.00149264 0.00268046  0
-0.000995517 0.00157296  0
-0.0012752 0.00237815  0
-0.00124408 0.00212671  0
-0.00102664 0.0018244  0
-0.00105905 0.00207256  0
-0.00107267 0.00260737  0
-0.00148829 0.00269059  0
-0.00106586 0.00233996  0
-0.00128048 0.00264898  0
-0.00127367 0.00238157  0
-0.00105907 0.00207221  0
-0.000992297 0.00158371  0
-0.000694761 0.00152417  0
-0.00102568 0.00182796  0
-0.000843529 0.00155394  0
-0.000876915 0.00179819  0
-0.00105789 0.00207608  0
-0.000697854 0.00151286  0
-0.00107681 0.00259666  0
-0.000877872 0.00179447  0
-0.00088733 0.00205476  0
-0.00106735 0.00233637  0
-0.00203371 0.00337742  0
-0.00149365 0.00268347  0
-0.00201375 0.00395539  0
-0.00176368 0.00303044  0
-0.0017537 0.00331943  0
-0.00202373 0.00366641  0
-0.00203659 0.00337545  0
-0.00200988 0.00282915  0
-0.00148481 0.00268974  0
-0.00202324 0.0031023  0
-0.00174734 0.00275944  0
-0.0017607 0.0030326  0
-0.00203678 0.00337541  0
-0.00200413 0.00396184  0
-0.00265484 0.00411503  0
-0.00202045 0.00366862  0
-0.00232949 0.00403843  0
-0.00234581 0.00374522  0
-0.00203317 0.00337735  0
-0.00266551 0.00410953  0
-0.00201977 0.00282392  0
-0.00234934 0.00374344  0
-0.00234264 0.00346672  0
-0.00202647 0.00310063  0
-0.00144332 0.00216954  0
-0.00097931 0.00156943  0
-0.00150822 0.00268376  0
-0.00121132 0.00186949  0
-0.00124376 0.0021266  0
-0.00147577 0.00242665  0
-0.00144541 0.00216688  0
-0.0015012 0.00269216  0
-0.00199325 0.00282609  0
-0.00147331 0.00242952  0
-0.00174723 0.00275912  0
-0.00171933 0.00249648  0
-0.00144531 0.0021666  0
-0.00132822 0.00168196  0
-0.000973739 0.00157823  0
-0.00138676 0.00192428  0
-0.00115098 0.00163009  0
-0.00120952 0.00187241  0
-0.00144297 0.00216926  0
-0.00200104 0.00281886  0
-0.00133445 0.00167442  0
-0.001722 0.00249406  0
-0.00166774 0.00224664  0
-0.00138871 0.00192184  0
-0.000625649 0.00107177  0
-0.000709454 0.00152735  0
-0.000977454 0.00158002  0
-0.000667551 0.00129956  0
-0.000843454 0.00155368  0
-0.000801551 0.00132589  0
-0.000625309 0.00107653  0
-0.000339848 0.000629533  0
-0.000711352 0.00151334  0
-0.000482579 0.000853029  0
-0.0005256 0.00107144  0
-0.00066833 0.00129493  0
-0.000625412 0.00107614  0
-0.000979078 0.00156603  0
-0.000491078 0.000654766  0
-0.000802245 0.00132109  0
-0.000735078 0.0011104  0
-0.000558245 0.000865455  0
-0.000625873 0.00107123  0
-0.000490639 0.000669861  0
-0.000339046 0.000644532  0
-0.000558256 0.000870543  0
-0.000414843 0.000657196  0
-0.00048246 0.000857878  0
-0.00302823 0.00933548  0
-0.00267522 0.0101765  0
-0.00369359 0.0102659  0
-0.00285173 0.00975598  0
-0.00318441 0.0102212  0
-0.00336091 0.00980069  0
-0.00302494 0.00933709  0
-0.00240875 0.00842728  0
-0.00268535 0.0101716  0
-0.00271684 0.00888218  0
-0.00254705 0.00929945  0
-0.00285514 0.00975435  0
-0.00302459 0.00933705  0
-0.00370443 0.0102612  0
-0.00335104 0.00852657  0
-0.00336451 0.00979912  0
-0.00352773 0.00939389  0
-0.00318781 0.00893181  0
-0.00302821 0.00933554  0
-0.00334041 0.00853105  0
-0.00239883 0.00843193  0
-0.00318431 0.00893329  0
-0.00286962 0.00848149  0
-0.00271352 0.00888373  0
-0.00332218 0.0111219  0
-0.00370263 0.0102647  0
-0.00266622 0.010178  0
-0.00351241 0.0106933  0
-0.00318443 0.0102214  0
-0.0029942 0.01065  0
-0.00331871 0.0111234  0
-0.00267665 0.0101738  0
-0.00291575 0.0120087  0
-0.00299768 0.0106486  0
-0.0027962 0.0110913  0
-0.00311723 0.011566  0
-0.00331837 0.0111233  0
-0.00402042 0.012084  0
-0.00371377 0.0102606  0
-0.0036694 0.0116036  0
-0.0038671 0.0111723  0
-0.00351607 0.010692  0
-0.00332217 0.0111219  0
-0.00290508 0.0120131  0
-0.00400905 0.0120883  0
-0.00311362 0.0115675  0
-0.00345706 0.0120507  0
-0.00366561 0.0116051  0
-0.00229816 0.0110544  0
-0.0026768 0.0101771  0
-0.00172704 0.0101185  0
-0.00248748 0.0106158  0
-0.00220192 0.0101478  0
-0.0020126 0.0105865  0
-0.00229531 0.0110559  0
-0.00290771 0.0120099  0
-0.00268503 0.0101726  0
-0.00260151 0.0115329  0
-0.00279637 0.0110913  0
-0.00249017 0.0106143  0
-0.00229568 0.011056  0
-0.00173452 0.010114  0
-0.00189323 0.0119592  0
-0.0020151 0.010585  0
-0.00181388 0.0110366  0
-0.00209446 0.0115076  0
-0.00229814 0.0110544  0
-0.00188554 0.0119639  0
-0.00289926 0.0120146  0
-0.00209184 0.0115092  0
-0.0023924 0.0119893  0
-0.0025987 0.0115345  0
-0.00405747 0.00944821  0
-0.0033411 0.00852798  0
-0.00371405 0.0102598  0
-0.00369928 0.0089881  0
-0.00352757 0.00939387  0
-0.00388576 0.00985398  0
-0.00406167 0.00944683  0
-0.00437923 0.00866708  0
-0.00332837 0.00853216  0
-0.00422045 0.00905696  0
-0.0038538 0.00859962  0
-0.00369502 0.00898949  0
-0.00406169 0.00944677  0
-0.0037012 0.0102641  0
-0.00483135 0.0103859  0
-0.00388145 0.00985546  0
-0.00426627 0.010325  0
-0.00444652 0.00991634  0
-0.00405714 0.0094482  0
-0.00484486 0.0103817  0
-0.00439263 0.00866305  0
-0.004451 0.00991493  0
-0.00461874 0.00952236  0
-0.00422489 0.00905563  0
-0.00361948 0.0077693  0
-0.00293242 0.0068917  0
-0.00335127 0.00852571  0
-0.00327595 0.0073305  0
-0.00314185 0.00770871  0
-0.00348538 0.00814751  0
-0.00362358 0.00776775  0
-0.00333883 0.0085305  0
-0.00436874 0.00866843  0
-0.0034812 0.00814913  0
-0.00385378 0.00859946  0
-0.00399616 0.00821809  0
-0.00362353 0.00776783  0
-0.00386142 0.00704447  0
-0.00292008 0.00689622  0
-0.00374247 0.00740615  0
-0.00339075 0.00697035  0
-0.0032718 0.00733203  0
-0.00361911 0.00776931  0
-0.00438193 0.00866387  0
-0.00387453 0.00704019  0
-0.00400052 0.00821659  0
-0.00412823 0.00785203  0
-0.00374682 0.00740475  0
-0.00144936 0.0129047  0
-0.00201118 0.0138873  0
-0.00189279 0.0119605  0
-0.00173027 0.013396  0
-0.00195198 0.0129239  0
-0.00167107 0.0124326  0
-0.00145128 0.0129034  0
-0.00188733 0.0119645  0
-0.000921182 0.0119367  0
-0.00166931 0.012434  0
-0.00140426 0.0119506  0
-0.00118623 0.01242  0
-0.00145125 0.0129034  0
-0.000988698 0.0138683  0
-0.00200558 0.0138916  0
-0.00121997 0.0133858  0
-0.00149714 0.0138799  0
-0.00172841 0.0133975  0
-0.00144976 0.0129048  0
-0.00092583 0.0119326  0
-0.000993487 0.0138641  0
-0.00118779 0.0124187  0
-0.000959659 0.0128983  0
-0.00122162 0.0133844  0
-0.00246984 0.0129394  0
-0.00188609 0.0119613  0
-0.00201749 0.0138865  0
-0.00217796 0.0124503  0
-0.00195179 0.0129239  0
-0.00224366 0.013413  0
-0.00247248 0.0129381  0
-0.00290664 0.0120137  0
-0.00187818 0.0119652  0
-0.00268956 0.0124759  0
-0.00239241 0.0119894  0
-0.00217533 0.0124516  0
-0.00247243 0.012938  0
-0.00200935 0.0138907  0
-0.00309164 0.0139312  0
-0.00224089 0.0134143  0
-0.0025505 0.0139109  0
-0.00278204 0.0134346  0
-0.00246945 0.0129394  0
-0.00310058 0.013927  0
-0.00291533 0.0120098  0
-0.00278502 0.0134332  0
-0.00300795 0.0129684  0
-0.00269239 0.0124746  0
-0.00153403 0.0148683  0
-0.00201125 0.0138913  0
-0.000983025 0.013869  0
-0.00177264 0.0143798  0
-0.00149714 0.0138802  0
-0.00125853 0.0143686  0
-0.00153242 0.0148694  0
-0.000987886 0.0138659  0
-0.00104092 0.0158623  0
-0.00126015 0.0143676  0
-0.0010144 0.0148641  0
-0.00128667 0.0153658  0
-0.00153201 0.0148693  0
-0.00211003 0.0158812  0
-0.00201693 0.013888  0
-0.00182102 0.0153753  0
-0.00206348 0.0148846  0
-0.00177447 0.0143787  0
-0.00153396 0.0148683  0
-0.00103592 0.0158656  0
-0.00210421 0.0158846  0
-0.00128494 0.0153669  0
-0.00157007 0.0158751  0
-0.00181909 0.0153765  0
-0.000505602 0.0148548  0
-0.000990819 0.0138688  0
3.86572e-06 0.0138615  0
-0.000748211 0.0143618  0
-0.000493477 0.0138651  0
-0.000250868 0.0143582  0
-0.00050479 0.0148559  0
-0.00103628 0.0158625  0
-0.000992987 0.0138656  0
-0.000770537 0.0153592  0
-0.00101464 0.0148641  0
-0.000748888 0.0143608  0
-0.000505201 0.0148559  0
2.50575e-06 0.0138584  0
-2.26585e-06 0.0158563  0
-0.000251348 0.0143572  0
1.19952e-07 0.0148573  0
-0.000253733 0.0153561  0
-0.000505579 0.0148548  0
-8.63344e-07 0.0158595  0
-0.00103407 0.0158658  0
-0.000253221 0.0153572  0
-0.000517468 0.0158626  0
-0.000769825 0.0153603  0
-0.00356856 0.0129942  0
-0.00428602 0.0139861  0
-0.00402859 0.0120832  0
-0.00392729 0.0134901  0
-0.00415731 0.0130346  0
-0.00379858 0.0125387  0
-0.00357258 0.012993  0
-0.00401693 0.0120869  0
-0.00289723 0.0120147  0
-0.00379476 0.0125399  0
-0.00345708 0.0120508  0
-0.00323491 0.0125039  0
-0.00357253 0.0129929  0
-0.00309614 0.0139297  0
-0.00427404 0.0139901  0
-0.00333433 0.0134613  0
-0.00368509 0.0139599  0
-0.00392329 0.0134915  0
-0.00356891 0.0129943  0
-0.00290817 0.012011  0
-0.00310738 0.0139257  0
-0.00323854 0.0125026  0
-0.00300778 0.0129684  0
-0.00333815 0.01346  0
-0.00444344 0.0112189  0
-0.00370494 0.0102623  0
-0.00402895 0.0120823  0
-0.00407419 0.0107406  0
-0.00386695 0.0111723  0
-0.00423619 0.0116506  0
-0.00444779 0.0112175  0
-0.00401564 0.0120863  0
-0.00523555 0.0121897  0
-0.00423171 0.0116519  0
-0.00462559 0.012138  0
-0.00484167 0.0117036  0
-0.0044478 0.0112176  0
-0.00484074 0.0103843  0
-0.00369183 0.0102661  0
-0.00464427 0.0108009  0
-0.00426629 0.0103252  0
-0.00406981 0.0107418  0
-0.00444314 0.0112188  0
-0.00524946 0.0121857  0
-0.00485447 0.0103805  0
-0.0048463 0.0117023  0
-0.00505196 0.0112831  0
-0.0046488 0.0107997  0
-0.00477494 0.0130727  0
-0.00402086 0.0120849  0
-0.00429346 0.0139843  0
-0.0043979 0.0125788  0
-0.00415716 0.0130346  0
-0.0045342 0.0135285  0
-0.00477951 0.0130714  0
-0.00524395 0.0121879  0
-0.00400727 0.0120884  0
-0.00501173 0.0126296  0
-0.00462561 0.0121381  0
-0.00439339 0.0125799  0
-0.00477946 0.0130714  0
-0.00427956 0.0139881  0
-0.00557946 0.0140721  0
-0.00452951 0.0135297  0
-0.00492951 0.0140301  0
-0.00517946 0.0135717  0
-0.00477466 0.0130726  0
-0.00559395 0.0140684  0
-0.00525813 0.0121844  0
-0.00518431 0.0135705  0
-0.00542604 0.0131264  0
-0.0050164 0.0126285  0
-0.00261372 0.0148958  0
-0.00309773 0.0139304  0
-0.00200328 0.0138918  0
-0.00285572 0.0144131  0
-0.0025505 0.0139111  0
-0.0023085 0.0143938  0
-0.00261053 0.0148968  0
-0.00325353 0.015913  0
-0.00310681 0.013927  0
-0.00293203 0.0154049  0
-0.00318017 0.01492  0
-0.00285867 0.0144119  0
-0.00261094 0.014897  0
-0.00201155 0.0138886  0
-0.00211498 0.0158807  0
-0.00231125 0.0143928  0
-0.00206326 0.0148846  0
-0.00236296 0.0153888  0
-0.00261362 0.0148957  0
-0.00210646 0.0158841  0
-0.0032442 0.0159166  0
-0.00236004 0.0153899  0
-0.00267533 0.0159004  0
-0.00292891 0.0154062  0
-0.00377736 0.014939  0
-0.00428073 0.0139888  0
-0.00308947 0.0139313  0
-0.00402904 0.0144639  0
-0.0036851 0.0139601  0
-0.00343342 0.0144351  0
-0.00377348 0.0149402  0
-0.00310094 0.013928  0
-0.00325903 0.015912  0
-0.00343721 0.0144341  0
-0.00317999 0.01492  0
-0.00351625 0.0154261  0
-0.0037731 0.01494  0
-0.00449945 0.0159593  0
-0.00429296 0.0139853  0
-0.00413627 0.0154497  0
-0.00439621 0.0149723  0
-0.00403303 0.0144627  0
-0.00377724 0.0149389  0
-0.00324721 0.0159156  0
-0.00448684 0.0159631  0
-0.00351222 0.0154272  0
-0.00386702 0.0159393  0
-0.00413204 0.015451  0
-0.00407011 0.00636698  0
-0.00385961 0.007044  0
-0.00491208 0.00723885  0
-0.00396486 0.00670549  0
-0.00438584 0.00714142  0
-0.00449109 0.00680292  0
-0.00406503 0.00636841  0
-0.00329002 0.00552129  0
-0.00387482 0.00703947  0
-0.00367753 0.00594485  0
-0.00358242 0.00628038  0
-0.00396993 0.00670394  0
-0.00406459 0.00636851  0
-0.00492819 0.00723455  0
-0.00424436 0.005728  0
-0.00449639 0.00680153  0
-0.00458628 0.00648128  0
-0.00415448 0.00604826  0
-0.00407 0.00636714  0
-0.00422807 0.00573186  0
-0.00327468 0.00552538  0
-0.00414904 0.0060495  0
-0.00375138 0.00562862  0
-0.00367234 0.00594626  0
-0.0046746 0.00793178  0
-0.00492375 0.00723732  0
-0.00384794 0.00704584  0
-0.00479917 0.00758455  0
-0.00438585 0.00714158  0
-0.00426127 0.00748881  0
-0.00466959 0.0079331  0
-0.00386325 0.00704174  0
-0.0043929 0.0086623  0
-0.00426642 0.00748742  0
-0.00412808 0.00785202  0
-0.00453125 0.0082977  0
-0.00466925 0.00793316  0
-0.00555776 0.00883928  0
-0.0049398 0.00723335  0
-0.0051135 0.00838622  0
-0.00524878 0.00803631  0
-0.00480452 0.00758325  0
-0.00467466 0.00793169  0
-0.00437768 0.00866669  0
-0.00554184 0.00884353  0
-0.00452617 0.00829919  0
-0.00495976 0.00875511  0
-0.00510825 0.00838761  0
-0.00340567 0.00490644  0
-0.00346547 0.00433023  0
-0.00265193 0.0041155  0
-0.00343557 0.00461834  0
-0.0030587 0.00422286  0
-0.0030288 0.00451097  0
-0.00340081 0.00490755  0
-0.00266709 0.00411168  0
-0.00330296 0.00551956  0
-0.00303395 0.00450962  0
-0.00298503 0.00481562  0
-0.00335189 0.00521356  0
-0.0034002 0.00490768  0
-0.00423114 0.00572887  0
-0.00348194 0.00432693  0
-0.00381567 0.00531828  0
-0.00385654 0.0050279  0
-0.00344107 0.0046173  0
-0.00340585 0.00490619  0
-0.00328788 0.00552401  0
-0.00421484 0.00573286  0
-0.00334687 0.0052151  0
-0.00375136 0.00562844  0
-0.00381035 0.00531953  0
-0.00268563 0.0035554  0
-0.00266721 0.00411506  0
-0.00345012 0.00433018  0
-0.00267642 0.00383523  0
-0.00305866 0.00422262  0
-0.00306787 0.00394279  0
-0.00268085 0.00355663  0
-0.00200307 0.00282248  0
-0.00268164 0.00411079  0
-0.00234196 0.00318955  0
-0.00234236 0.00346664  0
-0.00268124 0.00383371  0
-0.00267998 0.00355676  0
-0.00346622 0.00432688  0
-0.00265459 0.003033  0
-0.0030731 0.00394182  0
-0.0030604 0.00367994  0
-0.00266729 0.00329488  0
-0.00268532 0.00355575  0
-0.0026386 0.00303538  0
-0.00198889 0.00282593  0
-0.00266196 0.00329556  0
-0.00231374 0.00293066  0
-0.0023371 0.00319084  0
-0.00514741 0.00659326  0
-0.00423207 0.00572987  0
-0.00494019 0.00723271  0
-0.00468974 0.00616157  0
-0.00458613 0.00648129  0
-0.0050438 0.00691299  0
-0.00515347 0.006592  0
-0.00533374 0.00599033  0
-0.00421338 0.0057339  0
-0.0052436 0.00629116  0
-0.00477356 0.00586211  0
-0.00468342 0.00616295  0
-0.00515356 0.00659187  0
-0.00492195 0.00723713  0
-0.00613606 0.00747569  0
-0.00503775 0.0069145  0
-0.005529 0.00735641  0
-0.00564481 0.00703378  0
-0.00514705 0.00659342  0
-0.00615503 0.00747129  0
-0.00535321 0.00598631  0
-0.00565104 0.00703235  0
-0.00575412 0.0067288  0
-0.00525013 0.00628986  0
-0.00435385 0.00514903  0
-0.00346786 0.0043283  0
-0.00424487 0.00572752  0
-0.00391085 0.00473866  0
-0.00385636 0.00502791  0
-0.00429936 0.00543827  0
-0.00436033 0.0051478  0
-0.00422581 0.00573158  0
-0.00532135 0.00599238  0
-0.00429307 0.00543969  0
-0.00477358 0.00586198  0
-0.00484084 0.00557009  0
-0.00436016 0.00514807  0
-0.00443774 0.00460851  0
-0.00344809 0.00433167  0
-0.00439895 0.00487829  0
-0.00394291 0.00447009  0
-0.00390412 0.00473987  0
-0.00435333 0.00514929  0
-0.00534146 0.00598843  0
-0.00445868 0.00460524  0
-0.00484739 0.00556886  0
-0.00490007 0.00529683  0
-0.004406 0.00487727  0
-0.00521792 0.00959343  0
-0.00483944 0.0103839  0
-0.00610449 0.0105404  0
-0.00502868 0.00998865  0
-0.00547196 0.0104621  0
-0.0056612 0.0100669  0
-0.00521285 0.00959476  0
-0.00438249 0.0086649  0
-0.00485472 0.0103798  0
-0.00479767 0.00912983  0
-0.00461861 0.00952235  0
-0.00503379 0.00998728  0
-0.00521258 0.00959478  0
-0.00612033 0.0105364  0
-0.00556821 0.0088379  0
-0.00566645 0.0100656  0
-0.00584427 0.00968716  0
-0.00539039 0.00921634  0
-0.00521789 0.00959348  0
-0.00555233 0.00884171  0
-0.00436719 0.00866879  0
-0.00538511 0.00921759  0
-0.00495976 0.00875525  0
-0.00479254 0.00913113  0
-0.00569893 0.0113446  0
-0.00611403 0.0105384  0
-0.0048299 0.0103861  0
-0.00590648 0.0109415  0
-0.00547197 0.0104623  0
-0.00526442 0.0108654  0
-0.00569383 0.0113458  0
-0.00484529 0.0103826  0
-0.00525839 0.0121837  0
-0.00526956 0.0108642  0
-0.00505184 0.0112831  0
-0.00547611 0.0117647  0
-0.0056936 0.0113458  0
-0.00661608 0.0123185  0
-0.0061299 0.0105349  0
-0.00615484 0.0118321  0
-0.00637299 0.0114267  0
-0.00591175 0.0109403  0
-0.00569894 0.0113446  0
-0.00524292 0.0121874  0
-0.00660016 0.0123221  0
-0.00547093 0.011766  0
-0.00592154 0.0122548  0
-0.00614955 0.0118334  0
-0.00586665 0.00813799  0
-0.00492878 0.00723545  0
-0.00556851 0.00883719  0
-0.00539771 0.00768672  0
-0.00524865 0.00803632  0
-0.00571758 0.00848759  0
-0.00587258 0.00813659  0
-0.00555082 0.00884154  0
-0.00687212 0.00905689  0
-0.0057117 0.00848907  0
-0.00621147 0.00894921  0
-0.00637235 0.00859674  0
-0.00587252 0.00813666  0
-0.00614717 0.0074735  0
-0.0049108 0.00723956  0
-0.00600985 0.00780508  0
-0.00552899 0.00735653  0
-0.00539166 0.00768811  0
-0.00586637 0.00813808  0
-0.00689039 0.00905255  0
-0.00616576 0.00746939  0
-0.00637838 0.00859531  0
-0.00652807 0.00826097  0
-0.00601606 0.00780373  0
-0.00651362 0.00977797  0
-0.00555817 0.00884013  0
-0.00613013 0.0105342  0
-0.0060359 0.00930905  0
-0.00584415 0.00968716  0
-0.00632188 0.0101561  0
-0.00651938 0.00977669  0
-0.00688227 0.00905465  0
-0.00554065 0.00884402  0
-0.00670082 0.00941567  0
-0.00621146 0.00894933  0
-0.00603001 0.00931035  0
-0.00651941 0.00977667  0
-0.00611279 0.0105382  0
-0.00753241 0.0107299  0
-0.0063161 0.0101574  0
-0.0068226 0.0106341  0
-0.00702591 0.0102533  0
-0.00651339 0.00977803  0
-0.0075502 0.0107259  0
-0.00690028 0.00905075  0
-0.0070318 0.010252  0
-0.00722524 0.00988832  0
-0.00670683 0.00941439  0
-0.000205412 0.000288218  0
-6.6258e-06 -2.69992e-06  0
6.83001e-06 -3.85676e-06  0
-0.000106019 0.000142759  0
1.02106e-07 -3.27834e-06  0
-9.92911e-05 0.000142181  0
-0.000205182 0.000294844  0
7.31834e-06 -2.23116e-05  0
-0.000353543 0.000629945  0
-9.89317e-05 0.000136266  0
-0.000173112 0.000303817  0
-0.000279362 0.000462394  0
-0.000205373 0.00029439  0
-0.000476295 0.000647989  0
-5.65639e-06 -2.21791e-05  0
-0.000340834 0.000471189  0
-0.000240976 0.000312905  0
-0.000105515 0.000136105  0
-0.000204936 0.000288685  0
-0.000353208 0.000647504  0
-0.000476443 0.000666479  0
-0.000279072 0.000468095  0
-0.000414826 0.000656992  0
-0.00034069 0.000477582  0
-0.000277089 0.000306654  0
9.20112e-06 -2.53217e-05  0
-0.000490707 0.000651122  0
-0.000133944 0.000140666  0
-0.000240753 0.0003129  0
-0.000383898 0.000478888  0
-0.000276621 0.000300085  0
-0.000490349 0.000669513  0
-0.000635674 0.000708065  0
-0.000383485 0.000484799  0
-0.000563012 0.000688789  0
-0.000456148 0.000504075  0
-0.000277396 0.000299113  0
-7.59007e-06 -2.32899e-06  0
8.05707e-06 -5.14839e-06  0
-0.000142493 0.000148392  0
2.33499e-07 -3.73869e-06  0
-0.000134669 0.000146982  0
-0.0002775 0.00030586  0
-0.000635077 0.000688416  0
-5.44344e-06 -2.4024e-05  0
-0.000456289 0.000497138  0
-0.00032026 0.000332196  0
-0.000141472 0.000140918  0
-0.000850708 0.00112928  0
-0.000474952 0.000650291  0
-0.000994547 0.00157032  0
-0.00066283 0.000889786  0
-0.00073475 0.0011103  0
-0.000922628 0.0013498  0
-0.000851616 0.00112432  0
-0.000652783 0.000714174  0
-0.000473379 0.000664177  0
-0.000752199 0.000919246  0
-0.000563081 0.000689175  0
-0.000662497 0.000894248  0
-0.000851447 0.00112514  0
-0.000991163 0.00158277  0
-0.0013105 0.00167665  0
-0.000921305 0.00135396  0
-0.00115083 0.00162971  0
-0.00108097 0.00140089  0
-0.000850778 0.00112876  0
-0.00131371 0.00166482  0
-0.000654017 0.000700755  0
-0.00108224 0.00139679  0
-0.000983861 0.00118279  0
-0.000752398 0.00091476  0
-0.00191861 0.00232235  0
-0.00175888 0.00185135  0
-0.0013042 0.0016748  0
-0.00183874 0.00208685  0
-0.00153154 0.00176308  0
-0.0016114 0.00199858  0
-0.00191519 0.00232338  0
-0.0013153 0.0016704  0
-0.00201933 0.00282255  0
-0.00161524 0.00199689  0
-0.00166732 0.00224647  0
-0.00196726 0.00257297  0
-0.00191409 0.00232341  0
-0.00263469 0.00303034  0
-0.00177196 0.00184931  0
-0.00227439 0.00267687  0
-0.00220332 0.00243982  0
-0.00184302 0.00208636  0
-0.00191913 0.00232209  0
-0.00200695 0.00282739  0
-0.00262031 0.00303315  0
-0.00196304 0.00257474  0
-0.00231363 0.00293027  0
-0.00226972 0.00267762  0
-0.00113077 0.00122515  0
-0.00132522 0.0016802  0
-0.00173734 0.00184472  0
-0.001228 0.00145268  0
-0.00153128 0.00176246  0
-0.00143406 0.00153494  0
-0.00112881 0.00122774  0
-0.000633879 0.000693737  0
-0.00133264 0.00167144  0
-0.000881343 0.000960741  0
-0.000983257 0.00118259  0
-0.00123072 0.00144959  0
-0.00112871 0.0012268  0
-0.00174597 0.00183823  0
-0.000866259 0.00079702  0
-0.00143734 0.00153251  0
-0.00130612 0.00131762  0
-0.000997483 0.00101191  0
-0.00113085 0.00122392  0
-0.00086153 0.000804637  0
-0.000629912 0.000703841  0
-0.000996191 0.00101428  0
-0.000745721 0.000754239  0
-0.000880383 0.00096388  0
-0.00253368 0.00256507  0
-0.00175059 0.00184655  0
-0.00265517 0.00303282  0
-0.00214214 0.00220581  0
-0.00220288 0.00243969  0
-0.00259443 0.00279894  0
-0.0025409 0.00256516  0
-0.00263411 0.00303381  0
-0.00343477 0.00332663  0
-0.0025875 0.00279949  0
-0.00303444 0.00318022  0
-0.00298784 0.0029459  0
-0.00254009 0.00256635  0
-0.00236809 0.00213172  0
-0.00172853 0.00184524  0
-0.00245409 0.00234903  0
-0.00204831 0.00198848  0
-0.00213431 0.00220579  0
-0.00253171 0.00256583  0
-0.00345923 0.00332718  0
-0.0023942 0.00213478  0
-0.00299547 0.00294651  0
-0.00292671 0.00273098  0
-0.00246295 0.0023503  0
-0.00348324 0.00380726  0
-0.00263774 0.0030332  0
-0.00348256 0.00432666  0
-0.00306049 0.00342023  0
-0.00306015 0.00367993  0
-0.0034829 0.00406696  0
-0.00348982 0.00380705  0
-0.00345234 0.00332616  0
-0.00261652 0.00303489  0
-0.00347108 0.0035666  0
-0.00303443 0.00318053  0
-0.00305317 0.00342097  0
-0.00349018 0.00380651  0
-0.0034624 0.00432966  0
-0.00442349 0.00461019  0
-0.00347629 0.00406808  0
-0.00394294 0.00446992  0
-0.00395683 0.00420835  0
-0.00348233 0.00380773  0
-0.00444542 0.00460761  0
-0.00347563 0.0033249  0
-0.00396388 0.00420767  0
-0.00396053 0.00396626  0
-0.00347898 0.00356632  0
-0.000363964 0.00032374  0
-9.18871e-06 -1.31817e-06  0
1.03266e-05 -7.79283e-06  0
-0.000186576 0.000161211  0
5.68954e-07 -4.5555e-06  0
-0.000176819 0.000157973  0
-0.000363615 0.000332801  0
1.29789e-05 -3.04842e-05  0
-0.000652499 0.000694782  0
-0.000175318 0.000151159  0
-0.00031976 0.000332149  0
-0.000508057 0.000513792  0
-0.000364831 0.000331612  0
-0.000836575 0.000774089  0
-4.0707e-06 -2.63201e-05  0
-0.000600703 0.000552851  0
-0.000420323 0.000373884  0
-0.000184451 0.000152646  0
-0.000362955 0.000326357  0
-0.000652267 0.000713355  0
-0.000838622 0.000793792  0
-0.000507611 0.000519856  0
-0.000745445 0.000753573  0
-0.000600788 0.000560074  0
-0.00151239 0.00141594  0
-0.000838686 0.000788261  0
-0.00177134 0.00184618  0
-0.00117554 0.0011021  0
-0.00130501 0.00131722  0
-0.00164186 0.00163106  0
-0.00151619 0.00141819  0
-0.00118894 0.000999697  0
-0.00082188 0.000788672  0
-0.00135257 0.00120895  0
-0.00100541 0.000894184  0
-0.00116904 0.00110343  0
-0.00151865 0.00141676  0
-0.00175217 0.00184723  0
-0.00234409 0.00212808  0
-0.00163541 0.001632  0
-0.00204813 0.00198766  0
-0.00193137 0.00177242  0
-0.00150894 0.00141694  0
-0.00236837 0.00213379  0
-0.00121033 0.00100773  0
-0.00193865 0.00177537  0
-0.00178935 0.00157076  0
-0.00135964 0.00121233  0
-0.000482532 0.000390311  0
2.24015e-05 -4.08789e-05  0
-0.000858624 0.000788331  0
-0.000230065 0.000174716  0
-0.000418111 0.000373726  0
-0.000670578 0.000589321  0
-0.00048405 0.000386421  0
-0.00085166 0.000804433  0
-0.00115755 0.000980619  0
-0.000667855 0.000595427  0
-0.0010046 0.000892526  0
-0.0008208 0.00068352  0
-0.000488142 0.000375906  0
-1.72191e-05 3.81097e-06  0
1.85101e-05 -1.7554e-05  0
-0.000252681 0.000189859  0
6.45522e-07 -6.8715e-06  0
-0.000234816 0.000179176  0
-0.000488437 0.000384179  0
-0.00116594 0.000966972  0
-1.32476e-05 -1.66318e-05  0
-0.000827189 0.000675576  0
-0.000589594 0.00047517  0
-0.000250842 0.000183774  0
0.00797889 0.00999667  0
0.00840816 0.00929869  0
0.00915094 0.010948  0
0.00819353 0.00964768  0
0.00877955 0.0101234  0
0.00856491 0.0104723  0
0.00798546 0.00999521  0
0.00687124 0.00905743  0
0.00838833 0.00930292  0
0.00742835 0.00952632  0
0.00762979 0.00918018  0
0.0081869 0.00964907  0
0.00798549 0.0099952  0
0.00913142 0.0109524  0
0.00754051 0.0107277  0
0.00855846 0.0104738  0
0.00833596 0.01084  0
0.007763 0.0103614  0
0.00797909 0.00999658  0
0.00755961 0.0107234  0
0.00689064 0.00905326  0
0.00776935 0.01036  0
0.00722513 0.00988834  0
0.00743487 0.00952492  0
0.00865324 0.0116989  0
0.00753159 0.0107304  0
0.0091403 0.0109499  0
0.00809242 0.0112146  0
0.00833595 0.0108401  0
0.00889677 0.0113244  0
0.00864708 0.0117001  0
0.00814527 0.0124816  0
0.00755038 0.0107266  0
0.00839618 0.0120909  0
0.00784782 0.0116041  0
0.00809873 0.0112134  0
0.00864692 0.0117002  0
0.00915944 0.0109461  0
0.00982299 0.0126809  0
0.00890318 0.0113232  0
0.00949122 0.0118135  0
0.00923496 0.0121906  0
0.00865328 0.0116989  0
0.00980422 0.0126848  0
0.00812683 0.0124854  0
0.00922875 0.0121919  0
0.00896553 0.0125851  0
0.00839005 0.0120922  0
0.00709544 0.0115051  0
0.0061034 0.0105407  0
0.00754178 0.0107276  0
0.00659942 0.0110229  0
0.00682259 0.0106342  0
0.00731861 0.0111164  0
0.00708959 0.0115063  0
0.00755937 0.0107241  0
0.00813646 0.012484  0
0.00732448 0.0111152  0
0.00784792 0.0116041  0
0.00761302 0.0119952  0
0.00708976 0.0115063  0
0.00662515 0.0123162  0
0.00612063 0.0105372  0
0.00685745 0.0119113  0
0.00637289 0.0114267  0
0.00660519 0.0110217  0
0.00709546 0.0115051  0
0.00811902 0.0124876  0
0.00660804 0.0123198  0
0.00760724 0.0119964  0
0.00736353 0.0124037  0
0.00685175 0.0119125  0
0.00759602 0.0133157  0
0.0070533 0.0141761  0
0.00661629 0.0123191  0
0.00732466 0.0137459  0
0.00683479 0.0132476  0
0.00710615 0.0128174  0
0.00760168 0.0133147  0
0.00659922 0.0123223  0
0.00812783 0.0124853  0
0.00710045 0.0128185  0
0.00736353 0.0124038  0
0.00786476 0.0129  0
0.00760169 0.0133147  0
0.00863384 0.0143231  0
0.00703626 0.0141793  0
0.00811777 0.0138189  0
0.00783505 0.0142512  0
0.00731898 0.013747  0
0.00759593 0.0133157  0
0.00814512 0.0124821  0
0.00865105 0.01432  0
0.00787052 0.0128989  0
0.00839809 0.013401  0
0.00812349 0.0138179  0
0.00611129 0.0131786  0
0.00662499 0.0123168  0
0.00704475 0.0141785  0
0.00636814 0.0127477  0
0.00683487 0.0132476  0
0.00657802 0.0136785  0
0.00611671 0.0131775  0
0.00523416 0.0121897  0
0.00660894 0.01232  0
0.00567543 0.0126836  0
0.00592155 0.0122549  0
0.00636282 0.0127487  0
0.00611669 0.0131775  0
0.0070285 0.0141818  0
0.00558618 0.0140697  0
0.00657259 0.0136797  0
0.00630734 0.0141257  0
0.00585143 0.0136236  0
0.00611147 0.0131786  0
0.00560206 0.0140663  0
0.00524981 0.0121865  0
0.00585676 0.0136224  0
0.00542593 0.0131264  0
0.00568064 0.0126825  0
0.00923987 0.0134853  0
0.00983082 0.0126789  0
0.0104188 0.0144925  0
0.00953535 0.0130821  0
0.0101248 0.0135857  0
0.00982933 0.0139889  0
0.00924587 0.0134841  0
0.00811847 0.012488  0
0.00981253 0.0126824  0
0.00868217 0.012986  0
0.0089655 0.0125852  0
0.0095292 0.0130833  0
0.00924592 0.0134841  0
0.010401 0.014496  0
0.00864186 0.014321  0
0.00982346 0.0139901  0
0.00952143 0.0144085  0
0.00894389 0.0139025  0
0.00923995 0.0134852  0
0.00865951 0.0143176  0
0.00813655 0.0124846  0
0.00894973 0.0139014  0
0.00839803 0.0134011  0
0.00868825 0.0129849  0
0.00803866 0.0151992  0
0.00702777 0.0141818  0
0.00864234 0.0143207  0
0.00753321 0.0146905  0
0.00783505 0.0142513  0
0.0083405 0.01476  0
0.00803293 0.0152002  0
0.00865948 0.0143178  0
0.00909577 0.0162288  0
0.0083462 0.014759  0
0.00887762 0.0152733  0
0.00856435 0.0157145  0
0.00803292 0.0152002  0
0.00741364 0.0161089  0
0.00704487 0.0141788  0
0.00772328 0.0156546  0
0.00722926 0.0151439  0
0.0075389 0.0146895  0
0.00803864 0.0151992  0
0.00907855 0.0162317  0
0.00739639 0.0161119  0
0.0085586 0.0157155  0
0.00823747 0.0161718  0
0.00771752 0.0156555  0
0.00976667 0.0153448  0
0.00863379 0.0143233  0
0.010409 0.0144937  0
0.00920023 0.0148341  0
0.00952141 0.0144085  0
0.0100878 0.0149192  0
0.00976104 0.0153458  0
0.00910427 0.0162265  0
0.00865099 0.0143202  0
0.00943266 0.0157861  0
0.00887763 0.0152733  0
0.00920602 0.014833  0
0.00976111 0.0153459  0
0.0104262 0.0144904  0
0.0109438 0.0163784  0
0.0100936 0.0149182  0
0.010685 0.0154344  0
0.0103524 0.0158622  0
0.00976673 0.0153448  0
0.0109273 0.0163816  0
0.00908758 0.0162295  0
0.010347 0.0158632  0
0.0100074 0.0163056  0
0.00942716 0.0157872  0
0.00646982 0.0150857  0
0.00557806 0.014072  0
0.00703665 0.0141796  0
0.00602394 0.0145788  0
0.00630735 0.0141258  0
0.00675323 0.0146326  0
0.00646434 0.0150868  0
0.0058837 0.0160215  0
0.00559423 0.0140689  0
0.00617402 0.0155542  0
0.00573897 0.0150452  0
0.00602929 0.0145778  0
0.00646418 0.0150866  0
0.00705317 0.0141765  0
0.0074054 0.0161113  0
0.00675867 0.0146316  0
0.00722928 0.0151439  0
0.00693479 0.015599  0
0.00646974 0.0150856  0
0.00738844 0.0161146  0
0.00586709 0.0160248  0
0.00692909 0.0156001  0
0.00662776 0.0160697  0
0.00616841 0.0155552  0
0.00505464 0.0150008  0
0.00427216 0.0139901  0
0.00558689 0.0140703  0
0.0046634 0.0144954  0
0.00492952 0.0140302  0
0.00532076 0.0145355  0
0.00504951 0.0150018  0
0.00560172 0.0140669  0
0.00587639 0.0160236  0
0.00532562 0.0145343  0
0.00573906 0.0150452  0
0.00546295 0.0155127  0
0.00504981 0.0150019  0
0.00450576 0.0159578  0
0.00428637 0.0139868  0
0.00477778 0.0154799  0
0.00439606 0.0149723  0
0.00466809 0.0144944  0
0.00505452 0.0150007  0
0.00586108 0.0160273  0
0.00449109 0.0159613  0
0.0054578 0.015514  0
0.00517609 0.0159943  0
0.0047728 0.015481  0
0.00393132 0.0169513  0
0.00450496 0.015959  0
0.00466051 0.0179962  0
0.00421814 0.0164552  0
0.00458274 0.0169776  0
0.00429592 0.0174738  0
0.00393581 0.0169504  0
0.00324181 0.0159167  0
0.00449224 0.0159623  0
0.00358881 0.0164336  0
0.00386702 0.0159395  0
0.00421402 0.0164563  0
0.00393558 0.0169503  0
0.00464739 0.0179998  0
0.00335925 0.0179586  0
0.00429149 0.017475  0
0.00400332 0.0179792  0
0.00364742 0.0174545  0
0.00393174 0.0169515  0
0.00337151 0.0179555  0
0.0032537 0.0159139  0
0.00365163 0.0174535  0
0.00331261 0.0169347  0
0.00359272 0.0164327  0
0.00526643 0.0170007  0
0.00466551 0.0179953  0
0.00449965 0.0159598  0
0.00496597 0.017498  0
0.00458258 0.0169776  0
0.00488304 0.0164803  0
0.00527156 0.0169994  0
0.00448474 0.0159631  0
0.00586746 0.0160258  0
0.00487815 0.0164812  0
0.0051761 0.0159944  0
0.00556951 0.0165126  0
0.00527132 0.0169993  0
0.00607883 0.0180521  0
0.00465001 0.017999  0
0.00567508 0.0175257  0
0.00536442 0.0180255  0
0.00496066 0.0174991  0
0.00526606 0.0170004  0
0.00588312 0.0160221  0
0.00609513 0.018048  0
0.00557459 0.0165113  0
0.00598912 0.0170351  0
0.00568059 0.0175242  0
0.0027217 0.0169146  0
0.00335789 0.0179586  0
0.00217812 0.0179282  0
0.00303979 0.0174366  0
0.002768 0.0179434  0
0.00244991 0.0174214  0
0.00271858 0.0169153  0
0.00325823 0.0159136  0
0.00336741 0.0179558  0
0.00298841 0.0164145  0
0.00331282 0.0169347  0
0.00304299 0.0174356  0
0.002719 0.0169155  0
0.00218681 0.0179259  0
0.00211021 0.0158826  0
0.0024529 0.0174207  0
0.00214851 0.0169042  0
0.0024146 0.016399  0
0.00272187 0.0169146  0
0.00210172 0.0158849  0
0.00324893 0.0159163  0
0.0024118 0.0163997  0
0.00267532 0.0159006  0
0.0029854 0.0164154  0
0.00405004 0.0190169  0
0.00335522 0.0179588  0
0.00465137 0.018  0
0.00370263 0.0184878  0
0.00400329 0.0179794  0
0.00435071 0.0185084  0
0.0040459 0.0190178  0
0.00344937 0.0200411  0
0.0033672 0.0179568  0
0.00374764 0.0195295  0
0.00340829 0.018999  0
0.00370655 0.0184873  0
0.00404545 0.0190176  0
0.00466423 0.0179971  0
0.0047727 0.0200889  0
0.00435484 0.0185074  0
0.00471847 0.019043  0
0.00440908 0.0195532  0
0.00404968 0.0190169  0
0.00475957 0.0200919  0
0.00343713 0.0200431  0
0.00440462 0.0195544  0
0.00409835 0.0200675  0
0.0037434 0.01953  0
0.00279951 0.0189785  0
0.00217467 0.0179281  0
0.00336128 0.0179592  0
0.00248709 0.0184533  0
0.00276798 0.0179437  0
0.00308039 0.0184688  0
0.00279624 0.0189788  0
0.00337042 0.0179579  0
0.00344668 0.02004  0
0.00308333 0.0184683  0
0.00340855 0.0189989  0
0.00312146 0.0195094  0
0.00279663 0.0189789  0
0.00223687 0.0200013  0
0.00218308 0.0179275  0
0.00251675 0.0194901  0
0.00220997 0.0189644  0
0.00248986 0.0184532  0
0.00279925 0.0189786  0
0.00343745 0.0200413  0
0.00222836 0.0200018  0
0.00311835 0.0195099  0
0.00283291 0.0200215  0
0.0025138 0.0194902  0
0.00159501 0.0168912  0
0.0021143 0.0158826  0
0.00218323 0.0179259  0
0.00185465 0.0163869  0
0.00214876 0.0169042  0
0.00188912 0.0174086  0
0.00159706 0.0168906  0
0.00103157 0.015866  0
0.00210856 0.0158847  0
0.00131431 0.0163783  0
0.00157006 0.0158753  0
0.00185281 0.0163876  0
0.00159696 0.0168907  0
0.00217739 0.017928  0
0.00107066 0.0179091  0
0.00188717 0.0174093  0
0.00162403 0.0179186  0
0.00133381 0.0173999  0
0.00159541 0.0168913  0
0.00107573 0.0179073  0
0.00103653 0.0158642  0
0.00133557 0.0173993  0
0.00105613 0.0168858  0
0.00131597 0.0163778  0
0.00675611 0.0170653  0
0.00767791 0.0181202  0
0.00608372 0.0180502  0
0.00721701 0.0175927  0
0.00688082 0.0180852  0
0.00641992 0.0175577  0
0.00675043 0.0170667  0
0.00610151 0.0180464  0
0.00587659 0.0160237  0
0.00642597 0.0175566  0
0.00598905 0.017035  0
0.00631351 0.0165452  0
0.00675024 0.0170664  0
0.00741345 0.0161089  0
0.00769615 0.0181162  0
0.00708185 0.0165877  0
0.0075548 0.0171126  0
0.00722319 0.0175913  0
0.00675631 0.0170654  0
0.00585956 0.016027  0
0.00739601 0.0161125  0
0.00630794 0.0165462  0
0.00662779 0.0160698  0
0.00707616 0.016589  0
0.00543051 0.0190634  0
0.00464492 0.0179998  0
0.0060839 0.0180515  0
0.00503772 0.0185316  0
0.00536441 0.0180257  0
0.00575721 0.0185574  0
0.00542462 0.0190644  0
0.00610033 0.0180472  0
0.00625062 0.0201425  0
0.00576248 0.0185558  0
0.00617547 0.0190949  0
0.00583762 0.0196035  0
0.00542512 0.0190648  0
0.00477615 0.0200896  0
0.00466038 0.0179965  0
0.00510064 0.0195772  0
0.00471827 0.019043  0
0.00504275 0.0185306  0
0.00543006 0.0190631  0
0.00623352 0.0201474  0
0.00476008 0.0200934  0
0.00583179 0.0196053  0
0.0054968 0.0201204  0
0.00509507 0.0195783  0
0.00697409 0.0191182  0
0.00607694 0.0180518  0
0.00768473 0.0181185  0
0.00652552 0.018585  0
0.00688084 0.0180852  0
0.00732941 0.0186184  0
0.00696767 0.01912  0
0.00625564 0.0201422  0
0.00609515 0.0180475  0
0.00661165 0.0196311  0
0.00617539 0.0190948  0
0.00653141 0.0185837  0
0.0069673 0.0191195  0
0.00770366 0.0181135  0
0.0079142 0.0202008  0
0.00733548 0.0186165  0
0.00780893 0.0191571  0
0.00744075 0.0196601  0
0.00697365 0.0191179  0
0.007894 0.0202066  0
0.00623628 0.0201473  0
0.00743383 0.0196622  0
0.00706514 0.020177  0
0.00660497 0.0196326  0
0.00840017 0.0171569  0
0.00770422 0.018114  0
0.00740545 0.016111  0
0.0080522 0.0176354  0
0.00755483 0.0171125  0
0.00790281 0.016634  0
0.00840618 0.0171558  0
0.00738791 0.0161142  0
0.00908705 0.0162293  0
0.00789705 0.016635  0
0.00823748 0.0161718  0
0.00874661 0.0166925  0
0.0084061 0.0171557  0
0.00945416 0.0182137  0
0.00768616 0.0181173  0
0.00893013 0.0176847  0
0.00857016 0.0181655  0
0.00804613 0.0176365  0
0.0084003 0.0171567  0
0.00910441 0.0162261  0
0.00947199 0.0182105  0
0.00875236 0.0166914  0
0.0092882 0.0172183  0
0.00893614 0.0176836  0
0.000525898 0.0168791  0
1.62182e-06 0.017901  0
-1.89673e-06 0.0158582  0
0.00026376 0.01739  0
-1.37455e-07 0.0168796  0
0.000262001 0.0163686  0
0.000526322 0.0168785  0
-3.31051e-06 0.0158598  0
0.00103824 0.015866  0
0.000261506 0.0163691  0
0.000517465 0.0158629  0
0.000782281 0.0163722  0
0.000526285 0.0168786  0
0.00107023 0.0179089  0
1.74251e-07 0.0179025  0
0.000798257 0.0173938  0
0.000535201 0.0179057  0
0.00026323 0.0173906  0
0.00052551 0.0168791  0
0.00104039 0.0158643  0
0.00107241 0.0179073  0
0.000782952 0.0163717  0
0.0010564 0.0168858  0
0.000798959 0.0173932  0
-0.000525898 0.0168791  0
1.89673e-06 0.0158582  0
-1.62182e-06 0.017901  0
-0.000262001 0.0163686  0
1.37455e-07 0.0168796  0
-0.00026376 0.01739  0
-0.000526322 0.0168785  0
-0.00103824 0.015866  0
3.31051e-06 0.0158598  0
-0.000782281 0.0163722  0
-0.000517465 0.0158629  0
-0.000261506 0.0163691  0
-0.000526285 0.0168786  0
-1.74251e-07 0.0179025  0
-0.00107023 0.0179089  0
-0.00026323 0.0173906  0
-0.000535201 0.0179057  0
-0.000798257 0.0173938  0
-0.00052551 0.0168791  0
-0.00107241 0.0179073  0
-0.00104039 0.0158643  0
-0.000798959 0.0173932  0
-0.0010564 0.0168858  0
-0.000782952 0.0163717  0
0.000541222 0.0189359  0
-2.83751e-06 0.0179027  0
0.00107323 0.0179094  0
0.000269192 0.0184193  0
0.000535195 0.017906  0
0.000807225 0.0184227  0
0.000540457 0.0189358  0
0.00107524 0.0179099  0
0.00109791 0.0199745  0
0.00080785 0.0184228  0
0.00108658 0.0189422  0
0.000819182 0.0194551  0
0.000540786 0.0189358  0
1.08239e-06 0.0199657  0
-1.40361e-06 0.0179033  0
0.000270934 0.0194508  0
-1.60608e-07 0.0189345  0
0.000269691 0.0184196  0
0.000541172 0.0189362  0
0.0010959 0.0199736  0
-3.684e-07 0.0199647  0
0.000818535 0.0194549  0
0.000547765 0.0199691  0
0.000270402 0.0194504  0
0.00164234 0.0189506  0
0.00106752 0.0179091  0
0.0021805 0.0179286  0
0.00135493 0.0184299  0
0.00162401 0.0179188  0
0.00191142 0.0184396  0
0.0016407 0.0189507  0
0.00110011 0.019975  0
0.00107241 0.0179093  0
0.00137041 0.0194629  0
0.00108626 0.0189422  0
0.00135655 0.01843  0
0.00164035 0.0189506  0
0.00218602 0.0179284  0
0.00223452 0.0200003  0
0.00191319 0.0184395  0
0.00221027 0.0189644  0
0.00193744 0.0194755  0
0.00164219 0.0189508  0
0.00222898 0.0200002  0
0.00109518 0.0199745  0
0.00193558 0.0194755  0
0.00166208 0.0199873  0
0.00136869 0.0194626  0
-0.00159696 0.0168907  0
-0.00107066 0.0179091  0
-0.00217739 0.017928  0
-0.00133381 0.0173999  0
-0.00162403 0.0179186  0
-0.00188717 0.0174093  0
-0.00159541 0.0168913  0
-0.00103653 0.0158642  0
-0.00107573 0.0179073  0
-0.00131597 0.0163778  0
-0.00105613 0.0168858  0
-0.00133557 0.0173993  0
-0.00159501 0.0168912  0
-0.00218323 0.0179259  0
-0.0021143 0.0158826  0
-0.00188912 0.0174086  0
-0.00214876 0.0169042  0
-0.00185465 0.0163869  0
-0.00159706 0.0168906  0
-0.00210856 0.0158847  0
-0.00103157 0.015866  0
-0.00185281 0.0163876  0
-0.00157006 0.0158753  0
-0.00131431 0.0163783  0
-0.000541222 0.0189359  0
-0.00107323 0.0179094  0
2.83751e-06 0.0179027  0
-0.000807225 0.0184227  0
-0.000535195 0.017906  0
-0.000269192 0.0184193  0
-0.000540457 0.0189358  0
-0.00109791 0.0199745  0
-0.00107524 0.0179099  0
-0.000819182 0.0194551  0
-0.00108658 0.0189422  0
-0.00080785 0.0184228  0
-0.000540786 0.0189358  0
1.40361e-06 0.0179033  0
-1.08239e-06 0.0199657  0
-0.000269691 0.0184196  0
1.60608e-07 0.0189345  0
-0.000270934 0.0194508  0
-0.000541172 0.0189362  0
3.684e-07 0.0199647  0
-0.0010959 0.0199736  0
-0.000270402 0.0194504  0
-0.000547765 0.0199691  0
-0.000818535 0.0194549  0
-0.00164234 0.0189506  0
-0.0021805 0.0179286  0
-0.00106752 0.0179091  0
-0.00191142 0.0184396  0
-0.00162401 0.0179188  0
-0.00135493 0.0184299  0
-0.0016407 0.0189507  0
-0.00107241 0.0179093  0
-0.00110011 0.019975  0
-0.00135655 0.01843  0
-0.00108626 0.0189422  0
-0.00137041 0.0194629  0
-0.00164035 0.0189506  0
-0.00223452 0.0200003  0
-0.00218602 0.0179284  0
-0.00193744 0.0194755  0
-0.00221027 0.0189644  0
-0.00191319 0.0184395  0
-0.00164219 0.0189508  0
-0.00109518 0.0199745  0
-0.00222898 0.0200002  0
-0.00136869 0.0194626  0
-0.00166208 0.0199873  0
-0.00193558 0.0194755  0
-0.002719 0.0169155  0
-0.00211021 0.0158826  0
-0.00218681 0.0179259  0
-0.0024146 0.016399  0
-0.00214851 0.0169042  0
-0.0024529 0.0174207  0
-0.00272187 0.0169146  0
-0.00324893 0.0159163  0
-0.00210172 0.0158849  0
-0.0029854 0.0164154  0
-0.00267532 0.0159006  0
-0.0024118 0.0163997  0
-0.0027217 0.0169146  0
-0.00217812 0.0179282  0
-0.00335789 0.0179586  0
-0.00244991 0.0174214  0
-0.002768 0.0179434  0
-0.00303979 0.0174366  0
-0.00271858 0.0169153  0
-0.00336741 0.0179558  0
-0.00325823 0.0159136  0
-0.00304299 0.0174356  0
-0.00331282 0.0169347  0
-0.00298841 0.0164145  0
0.00285054 0.0210648  0
0.00227273 0.0220771  0
0.00223389 0.0200024  0
0.00256164 0.021571  0
0.00225331 0.0210397  0
0.00254222 0.0205336  0
0.00285325 0.0210652  0
0.00222604 0.0200002  0
0.00343966 0.0200434  0
0.00253964 0.0205327  0
0.00283285 0.0200218  0
0.00314646 0.0205543  0
0.00285291 0.0210656  0
0.00349331 0.0221408  0
0.00226493 0.0220744  0
0.00317311 0.0216032  0
0.00287912 0.0221076  0
0.00255892 0.02157  0
0.00285024 0.0210647  0
0.00344803 0.0200445  0
0.00350157 0.0221424  0
0.00314913 0.0205546  0
0.0034748 0.0210935  0
0.00317591 0.0216035  0
0.00167243 0.0210202  0
0.00223605 0.0200047  0
0.00227129 0.0220747  0
0.00195424 0.0205125  0
0.00225367 0.0210397  0
0.00197186 0.0215474  0
0.00167423 0.0210213  0
0.00109298 0.0199735  0
0.00223111 0.0200018  0
0.00138361 0.0204974  0
0.00166205 0.0199877  0
0.00195267 0.0205115  0
0.00167404 0.0210217  0
0.00226643 0.022071  0
0.00111349 0.0220278  0
0.00197024 0.0215463  0
0.00168996 0.0220494  0
0.00139376 0.0215247  0
0.00167268 0.0210203  0
0.00111801 0.0220321  0
0.00109755 0.0199771  0
0.00139535 0.0215262  0
0.00110778 0.0210046  0
0.00138512 0.0204987  0
0.00412313 0.0211241  0
0.00477423 0.0200927  0
0.00484706 0.0222252  0
0.00444868 0.0206084  0
0.00481064 0.0211589  0
0.00448509 0.0216746  0
0.0041275 0.0211239  0
0.00343447 0.0200414  0
0.00476209 0.0200943  0
0.00378099 0.0205827  0
0.00409828 0.0200678  0
0.0044448 0.0206091  0
0.00412699 0.0211241  0
0.00483493 0.0222266  0
0.00349164 0.0221455  0
0.00448096 0.0216753  0
0.00416329 0.0221861  0
0.00380932 0.0216348  0
0.00412353 0.0211244  0
0.00350304 0.0221458  0
0.00344586 0.0200413  0
0.00381329 0.0216351  0
0.00347445 0.0210935  0
0.0037847 0.0205829  0
0.00553162 0.0211909  0
0.00484882 0.0222288  0
0.00477187 0.0200892  0
0.00519022 0.0217099  0
0.00481035 0.021159  0
0.00515175 0.02064  0
0.00553702 0.0211893  0
0.00475658 0.0200921  0
0.0062369 0.0201491  0
0.0051468 0.0206407  0
0.00549674 0.0201206  0
0.00588696 0.0206692  0
0.0055363 0.0211892  0
0.00633363 0.0223161  0
0.00483322 0.0222321  0
0.00593497 0.0217526  0
0.00558342 0.0222741  0
0.00518476 0.0217106  0
0.00553104 0.0211904  0
0.00625332 0.0201441  0
0.00635037 0.0223107  0
0.00589218 0.0206673  0
0.00630184 0.0212274  0
0.0059407 0.0217505  0
0.00289483 0.0231415  0
0.00226329 0.0220707  0
0.00349479 0.0221452  0
0.00257906 0.0226061  0
0.00287904 0.022108  0
0.00319481 0.0226433  0
0.00289233 0.0231395  0
0.00350169 0.0221507  0
0.0035491 0.0242257  0
0.00319701 0.0226451  0
0.0035254 0.0231882  0
0.00322072 0.0236826  0
0.00289247 0.0231396  0
0.00230577 0.0241103  0
0.0022701 0.0220774  0
0.00259912 0.023625  0
0.00228793 0.0230939  0
0.00258128 0.0226085  0
0.00289447 0.0231421  0
0.00354245 0.024219  0
0.00229916 0.0241024  0
0.00321846 0.0236806  0
0.00292081 0.0241607  0
0.00259681 0.0236222  0
0.00418385 0.0232469  0
0.00349005 0.0221407  0
0.00483628 0.0222322  0
0.00383695 0.0226938  0
0.00416317 0.0221864  0
0.00451006 0.0227395  0
0.00418037 0.0232462  0
0.00354995 0.024232  0
0.00349996 0.0221445  0
0.00386516 0.0237391  0
0.00352495 0.0231883  0
0.00384016 0.0226954  0
0.00418015 0.023246  0
0.00484647 0.022234  0
0.00490602 0.0243787  0
0.00451331 0.02274  0
0.00487624 0.0233064  0
0.00454308 0.0238123  0
0.00418326 0.0232475  0
0.00489618 0.0243758  0
0.00354032 0.0242271  0
0.00453972 0.0238117  0
0.00421825 0.0243015  0
0.00386179 0.0237373  0
0.000551378 0.0209966  0
7.33748e-07 0.022016  0
-1.1108e-06 0.0199687  0
0.000276056 0.0215063  0
-1.88528e-07 0.0209924  0
0.000275134 0.0204826  0
0.000551814 0.0209978  0
-2.51706e-06 0.0199646  0
0.00109802 0.0199744  0
0.000274649 0.0204812  0
0.000547753 0.0199695  0
0.000824919 0.0204861  0
0.000551753 0.0209983  0
0.00111487 0.022026  0
-6.6865e-07 0.0220111  0
0.00083331 0.0215122  0
0.000557099 0.0220186  0
0.000275542 0.0215047  0
0.000551151 0.0209966  0
0.00109975 0.0199783  0
0.00111655 0.0220308  0
0.000825452 0.0204874  0
0.00110815 0.0210046  0
0.000833853 0.0215137  0
-0.000551378 0.0209966  0
1.1108e-06 0.0199687  0
-7.33748e-07 0.022016  0
-0.000275134 0.0204826  0
1.88528e-07 0.0209924  0
-0.000276056 0.0215063  0
-0.000551814 0.0209978  0
-0.00109802 0.0199744  0
2.51706e-06 0.0199646  0
-0.000824919 0.0204861  0
-0.000547753 0.0199695  0
-0.000274649 0.0204812  0
-0.000551753 0.0209983  0
6.6865e-07 0.0220111  0
-0.00111487 0.022026  0
-0.000275542 0.0215047  0
-0.000557099 0.0220186  0
-0.00083331 0.0215122  0
-0.000551151 0.0209966  0
-0.00111655 0.0220308  0
-0.00109975 0.0199783  0
-0.000833853 0.0215137  0
-0.00110815 0.0210046  0
-0.000825452 0.0204874  0
0.00169983 0.0230645  0
0.00111177 0.0220257  0
0.00226806 0.0220739  0
0.0014058 0.0225451  0
0.00168991 0.0220498  0
0.00198395 0.0225692  0
0.00169847 0.023062  0
0.00113504 0.0240327  0
0.00111577 0.0220341  0
0.00141675 0.0235474  0
0.00112541 0.0230334  0
0.00140712 0.0225481  0
0.00169836 0.0230619  0
0.00227208 0.0220817  0
0.00230467 0.024106  0
0.00198522 0.0225718  0
0.00228837 0.0230938  0
0.00200151 0.023584  0
0.00169962 0.0230652  0
0.0023008 0.024097  0
0.00113114 0.024023  0
0.00200021 0.0235811  0
0.00171597 0.02406  0
0.00141538 0.0235441  0
0.000560465 0.0230241  0
-2.42555e-06 0.0220106  0
0.00111659 0.0220273  0
0.00027902 0.0225174  0
0.000557084 0.022019  0
0.000838529 0.0225257  0
0.000559951 0.0230212  0
0.00111791 0.0220362  0
0.00113378 0.0240306  0
0.00083893 0.0225287  0
0.00112584 0.0230334  0
0.000846865 0.0235259  0
0.000560045 0.0230213  0
6.56342e-07 0.0240055  0
-1.09416e-06 0.0220198  0
0.00028035 0.0235134  0
-2.18907e-07 0.0230126  0
0.000279475 0.0225205  0
0.000560398 0.0230248  0
0.00113253 0.0240203  0
-6.55289e-07 0.023995  0
0.000846465 0.0235226  0
0.000565938 0.0240076  0
0.000279872 0.0235099  0
0.0102149 0.0172793  0
0.0109512 0.0163759  0
0.0114058 0.0183388  0
0.010583 0.0168276  0
0.0111785 0.0173574  0
0.0108103 0.0178091  0
0.0102199 0.0172781  0
0.00907928 0.0162317  0
0.0109355 0.0163794  0
0.00964957 0.0167549  0
0.0100074 0.0163055  0
0.0105777 0.0168287  0
0.0102199 0.0172782  0
0.0113909 0.018342  0
0.00946542 0.0182113  0
0.0108054 0.0178101  0
0.0104282 0.0182766  0
0.00984267 0.0177447  0
0.0102145 0.0172791  0
0.00948115 0.0182082  0
0.00909552 0.0162284  0
0.00984782 0.0177437  0
0.00928833 0.0172183  0
0.009655 0.0167538  0
0.0106103 0.0192883  0
0.00945598 0.018213  0
0.0114003 0.0183397  0
0.0100331 0.0187507  0
0.0104281 0.0182764  0
0.0110053 0.018814  0
0.010605 0.0192897  0
0.00978994 0.0202725  0
0.00947147 0.0182088  0
0.0101975 0.0197811  0
0.0096307 0.0192406  0
0.0100382 0.0187492  0
0.0106059 0.0192898  0
0.0114143 0.0183354  0
0.0118159 0.0203837  0
0.0110101 0.0188126  0
0.0116151 0.0193595  0
0.0112109 0.0198368  0
0.0106103 0.0192884  0
0.0118025 0.0203876  0
0.0097746 0.0202763  0
0.0112064 0.019838  0
0.0107886 0.020332  0
0.0101924 0.0197824  0
0.00870254 0.0191884  0
0.0076774 0.0181194  0
0.00946298 0.0182113  0
0.00818997 0.0186539  0
0.00857019 0.0181653  0
0.00908276 0.0186998  0
0.00869606 0.0191897  0
0.00948148 0.0182066  0
0.00977924 0.0202747  0
0.00908877 0.0186982  0
0.00963036 0.0192407  0
0.00923765 0.0197322  0
0.00869587 0.0191901  0
0.00792193 0.0201992  0
0.00769614 0.0181149  0
0.0083089 0.0196947  0
0.00780904 0.0191571  0
0.00819601 0.0186525  0
0.00870226 0.0191882  0
0.00975937 0.0202797  0
0.00790183 0.0202041  0
0.00923082 0.019734  0
0.0088306 0.0202419  0
0.00830205 0.0196962  0
0.0071154 0.021255  0
0.00792007 0.0201985  0
0.00805823 0.0223862  0
0.00751774 0.0207268  0
0.00798915 0.0212924  0
0.00758682 0.0218206  0
0.00712317 0.0212532  0
0.00623084 0.0201474  0
0.00789942 0.0202066  0
0.006677 0.0207003  0
0.00706513 0.020177  0
0.00751129 0.0207299  0
0.00712219 0.0212526  0
0.00803611 0.0223957  0
0.00633267 0.0223208  0
0.00757915 0.0218241  0
0.00718439 0.0223582  0
0.00672743 0.0217867  0
0.0071162 0.0212559  0
0.00635322 0.0223136  0
0.00625012 0.0201414  0
0.00673471 0.0217847  0
0.00630167 0.0212275  0
0.00668316 0.0206986  0
0.00891532 0.021318  0
0.00806449 0.0223869  0
0.00791409 0.0201977  0
0.0084899 0.0218525  0
0.00798929 0.0212923  0
0.0084147 0.0207579  0
0.00892328 0.0213148  0
0.00789282 0.0202057  0
0.00976851 0.0202776  0
0.00840805 0.0207602  0
0.00883067 0.0202416  0
0.0093459 0.0207962  0
0.0089225 0.021314  0
0.00998704 0.0224622  0
0.00804033 0.0223965  0
0.00945477 0.0218881  0
0.00901368 0.0224294  0
0.00848142 0.0218552  0
0.00891512 0.0213169  0
0.00979018 0.0202689  0
0.010012 0.0224519  0
0.00935265 0.0207929  0
0.0099011 0.0213604  0
0.00946357 0.0218844  0
0.00721424 0.0234862  0
0.00632953 0.0223165  0
0.00803894 0.0224005  0
0.00677189 0.0229013  0
0.00718424 0.0223585  0
0.00762659 0.0229433  0
0.0072074 0.0234896  0
0.00641909 0.0245569  0
0.00634822 0.0223098  0
0.00681324 0.0240232  0
0.00638365 0.0234333  0
0.00677781 0.0228997  0
0.00720647 0.0234887  0
0.00805948 0.0223892  0
0.00814121 0.0247063  0
0.00763298 0.022939  0
0.00810035 0.0235478  0
0.00767384 0.0240975  0
0.00721271 0.0234859  0
0.0081206 0.0247185  0
0.00640024 0.024564  0
0.00766665 0.0241022  0
0.00726042 0.0246412  0
0.00680648 0.024025  0
0.00560797 0.023368  0
0.00483141 0.0222267  0
0.00633512 0.0223221  0
0.00521969 0.0227974  0
0.00558327 0.0222744  0
0.00597155 0.0228451  0
0.0056027 0.0233686  0
0.00634948 0.0223185  0
0.00641871 0.0245478  0
0.00597609 0.0228436  0
0.0063841 0.0234332  0
0.0060107 0.0239582  0
0.0056031 0.023369  0
0.00490653 0.0243868  0
0.00484505 0.0222262  0
0.00525481 0.0238779  0
0.00487579 0.0233065  0
0.00522407 0.0227976  0
0.00560704 0.0233684  0
0.00640471 0.0245508  0
0.00489317 0.0243866  0
0.00600588 0.0239596  0
0.00564894 0.0244687  0
0.00525011 0.0238775  0
0.0109376 0.0213962  0
0.0118278 0.0203779  0
0.0121886 0.0225436  0
0.0113827 0.020887  0
0.0120082 0.0214607  0
0.0115631 0.0219699  0
0.0109417 0.021394  0
0.00976242 0.0202776  0
0.0118147 0.020385  0
0.0103521 0.0208358  0
0.0107886 0.0203313  0
0.0113782 0.0208895  0
0.0109416 0.0213941  0
0.0121751 0.0225502  0
0.0100076 0.0224568  0
0.0115583 0.0219721  0
0.0110913 0.0225035  0
0.0104746 0.0219254  0
0.0109357 0.0213965  0
0.0100251 0.02245  0
0.00977844 0.0202704  0
0.0104804 0.0219232  0
0.00990178 0.0213602  0
0.0103571 0.0208335  0
0.00906156 0.0235779  0
0.0080326 0.0223959  0
0.00999486 0.0224622  0
0.00854708 0.0229869  0
0.00901373 0.0224291  0
0.00952821 0.0230201  0
0.00904946 0.0235814  0
0.0100225 0.0224428  0
0.010156 0.0248185  0
0.00953596 0.0230121  0
0.0100893 0.0236306  0
0.00960275 0.0242  0
0.00905176 0.0235842  0
0.00814287 0.0247141  0
0.00805741 0.0223819  0
0.00859731 0.0241491  0
0.00810014 0.023548  0
0.00855458 0.0229831  0
0.0090586 0.0235755  0
0.0101232 0.0248421  0
0.00811394 0.0247312  0
0.00959092 0.0242088  0
0.0091186 0.0247866  0
0.00858627 0.0241533  0
0.0112111 0.0236462  0
0.00998995 0.0224573  0
0.012193 0.0225466  0
0.0106005 0.0230517  0
0.0110915 0.0225019  0
0.0117021 0.0230964  0
0.0112013 0.0236525  0
0.0101693 0.0248201  0
0.0100113 0.0224405  0
0.0106853 0.0242363  0
0.0100903 0.0236303  0
0.0106063 0.0230465  0
0.0112046 0.0236501  0
0.0122093 0.0225306  0
0.0125387 0.024899  0
0.011707 0.0230904  0
0.012374 0.0237148  0
0.0118716 0.0242745  0
0.0112102 0.0236449  0
0.0125153 0.0249154  0
0.0101389 0.0248393  0
0.0118628 0.0242802  0
0.0113271 0.0248773  0
0.0106745 0.0242421  0
-0.000708274 0.000620787  0
-7.41749e-05 7.41715e-05  0
8.70557e-05 -6.81866e-05  0
-0.000391224 0.000347479  0
6.44041e-06 2.99244e-06  0
-0.000310609 0.0002763  0
-0.000712154 0.000589401  0
3.81165e-05 -4.34037e-05  0
-0.00120946 0.000988994  0
-0.000337019 0.000272999  0
-0.000585674 0.000472795  0
-0.000960809 0.000789197  0
-0.000664505 0.000603835  0
-0.00196042 0.00147221  0
-0.00024568 0.000194489  0
-0.00131246 0.00103802  0
-0.00110305 0.000833351  0
-0.000455092 0.000399162  0
-0.000728517 0.000604011  0
-0.00116014 0.000980068  0
-0.00185292 0.00141387  0
-0.00094433 0.000792039  0
-0.00150653 0.00119697  0
-0.00129072 0.00100894  0
-0.00214298 0.00176278  0
-0.00332023 0.00254313  0
-0.00195124 0.00142911  0
-0.00273161 0.00215296  0
-0.00263573 0.00198612  0
-0.00204711 0.00159595  0
-0.00216179 0.0017666  0
-0.00188595 0.00141414  0
-0.001126 0.000986163  0
-0.00202387 0.00159037  0
-0.00150598 0.00120015  0
-0.00164389 0.00137638  0
-0.00216448 0.00176137  0
-0.00235806 0.00213084  0
-0.0032737 0.00253542  0
-0.00226127 0.0019461  0
-0.00281588 0.00233313  0
-0.00271909 0.00214839  0
-0.0021491 0.00175769  0
-0.00117914 0.00100263  0
-0.00239774 0.00213854  0
-0.00166412 0.00138016  0
-0.00178844 0.00157058  0
-0.00227342 0.00194811  0
-0.00339855 0.00290786  0
-0.00328885 0.00253087  0
-0.00234202 0.00213555  0
-0.0033437 0.00271937  0
-0.00281544 0.00233321  0
-0.00287029 0.00252171  0
-0.00338835 0.00290702  0
-0.00237601 0.00213633  0
-0.003477 0.00332597  0
-0.00288218 0.00252168  0
-0.00292651 0.00273115  0
-0.00343268 0.00311649  0
-0.0033877 0.00290843  0
-0.00453338 0.00369217  0
-0.00332455 0.0025304  0
-0.00396054 0.0033003  0
-0.00392896 0.00311128  0
-0.00335613 0.00271942  0
-0.00339912 0.0029071  0
-0.00344776 0.0033272  0
-0.00450281 0.00369406  0
-0.00342344 0.00311715  0
-0.00397529 0.00351063  0
-0.00395097 0.00330058  0
-0.00449375 0.00412813  0
-0.00563654 0.00493984  0
-0.0045421 0.00368693  0
-0.00506514 0.00453399  0
-0.00508932 0.00431338  0
-0.00451793 0.00390753  0
-0.00450227 0.00412673  0
-0.00451521 0.00369056  0
-0.00343502 0.00333063  0
-0.00450874 0.00390864  0
-0.00397511 0.00351059  0
-0.00396864 0.00372868  0
-0.00450253 0.00412646  0
-0.00443517 0.00460914  0
-0.00561177 0.00494395  0
-0.00446885 0.0043678  0
-0.00502347 0.00477654  0
-0.00505715 0.0045352  0
-0.00449398 0.00412752  0
-0.00346141 0.00332743  0
-0.00445945 0.00460531  0
-0.0039777 0.00372748  0
-0.00396043 0.00396637  0
-0.00447671 0.00436641  0
-0.00550312 0.00544249  0
-0.00562335 0.00494089  0
-0.00442343 0.00461224  0
-0.00556323 0.00519169  0
-0.00502339 0.00477656  0
-0.00496327 0.00502736  0
-0.00549576 0.00544384  0
-0.00444625 0.00460786  0
-0.0053537 0.00598594  0
-0.004971 0.00502585  0
-0.00489998 0.0052969  0
-0.00542473 0.00571489  0
-0.00549557 0.00544412  0
-0.00664469 0.00629119  0
-0.00564654 0.00493628  0
-0.00607013 0.00586765  0
-0.00614561 0.00561374  0
-0.00557106 0.0051902  0
-0.00550323 0.00544238  0
-0.00533188 0.00599062  0
-0.00662245 0.00629602  0
-0.00541755 0.0057165  0
-0.00597717 0.00614332  0
-0.00606284 0.0058692  0
-0.00640647 0.00686253  0
-0.00756435 0.0077463  0
-0.00665487 0.00628849  0
-0.00698541 0.00730442  0
-0.00710961 0.0070174  0
-0.00653067 0.00657551  0
-0.00641354 0.00686089  0
-0.0066334 0.00629324  0
-0.00532085 0.00599353  0
-0.00652347 0.00657707  0
-0.00597713 0.00614339  0
-0.00586719 0.00642721  0
-0.0064136 0.00686084  0
-0.00614559 0.00747361  0
-0.00754339 0.00775122  0
-0.0062796 0.00716722  0
-0.00684449 0.00761241  0
-0.00697849 0.00730603  0
-0.00640666 0.00686238  0
-0.00534191 0.0059889  0
-0.00616612 0.00746878  0
-0.00587429 0.00642564  0
-0.00575402 0.00672884  0
-0.00628639 0.00716558  0
-0.00723979 0.00838022  0
-0.00755367 0.00774859  0
-0.00613527 0.00747643  0
-0.00739673 0.00806441  0
-0.00684447 0.00761251  0
-0.00668753 0.00792833  0
-0.0072332 0.00838169  0
-0.00615536 0.00747193  0
-0.00690057 0.00905005  0
-0.00669428 0.00792681  0
-0.00652796 0.00826099  0
-0.00706689 0.00871587  0
-0.00723299 0.00838179  0
-0.00839895 0.00930075  0
-0.00757418 0.00774402  0
-0.00781597 0.00884127  0
-0.00798657 0.00852238  0
-0.00740359 0.0080629  0
-0.00723983 0.00838019  0
-0.00688084 0.00905469  0
-0.00837877 0.00930545  0
-0.00706033 0.00871744  0
-0.0076298 0.00918007  0
-0.0078093 0.00884282  0
-0.00797889 0.00999667  0
-0.00915094 0.010948  0
-0.00840816 0.00929869  0
-0.00856491 0.0104723  0
-0.00877955 0.0101234  0
-0.00819353 0.00964768  0
-0.00798546 0.00999521  0
-0.00838833 0.00930292  0
-0.00687124 0.00905743  0
-0.0081869 0.00964907  0
-0.00762979 0.00918018  0
-0.00742835 0.00952632  0
-0.00798549 0.0099952  0
-0.00754051 0.0107277  0
-0.00913142 0.0109524  0
-0.007763 0.0103614  0
-0.00833596 0.01084  0
-0.00855846 0.0104738  0
-0.00797909 0.00999658  0
-0.00689064 0.00905326  0
-0.00755961 0.0107234  0
-0.00743487 0.00952492  0
-0.00722513 0.00988834  0
-0.00776935 0.01036  0
-0.00865324 0.0116989  0
-0.0091403 0.0109499  0
-0.00753159 0.0107304  0
-0.00889677 0.0113244  0
-0.00833595 0.0108401  0
-0.00809242 0.0112146  0
-0.00864708 0.0117001  0
-0.00755038 0.0107266  0
-0.00814527 0.0124816  0
-0.00809873 0.0112134  0
-0.00784782 0.0116041  0
-0.00839618 0.0120909  0
-0.00864692 0.0117002  0
-0.00982299 0.0126809  0
-0.00915944 0.0109461  0
-0.00923496 0.0121906  0
-0.00949122 0.0118135  0
-0.00890318 0.0113232  0
-0.00865328 0.0116989  0
-0.00812683 0.0124854  0
-0.00980422 0.0126848  0
-0.00839005 0.0120922  0
-0.00896553 0.0125851  0
-0.00922875 0.0121919  0
-0.00709544 0.0115051  0
-0.00754178 0.0107276  0
-0.0061034 0.0105407  0
-0.00731861 0.0111164  0
-0.00682259 0.0106342  0
-0.00659942 0.0110229  0
-0.00708959 0.0115063  0
-0.00813646 0.012484  0
-0.00755937 0.0107241  0
-0.00761302 0.0119952  0
-0.00784792 0.0116041  0
-0.00732448 0.0111152  0
-0.00708976 0.0115063  0
-0.00612063 0.0105372  0
-0.00662515 0.0123162  0
-0.00660519 0.0110217  0
-0.00637289 0.0114267  0
-0.00685745 0.0119113  0
-0.00709546 0.0115051  0
-0.00660804 0.0123198  0
-0.00811902 0.0124876  0
-0.00685175 0.0119125  0
-0.00736353 0.0124037  0
-0.00760724 0.0119964  0
-0.00759602 0.0133157  0
-0.00661629 0.0123191  0
-0.0070533 0.0141761  0
-0.00710615 0.0128174  0
-0.00683479 0.0132476  0
-0.00732466 0.0137459  0
-0.00760168 0.0133147  0
-0.00812783 0.0124853  0
-0.00659922 0.0123223  0
-0.00786476 0.0129  0
-0.00736353 0.0124038  0
-0.00710045 0.0128185  0
-0.00760169 0.0133147  0
-0.00703626 0.0141793  0
-0.00863384 0.0143231  0
-0.00731898 0.013747  0
-0.00783505 0.0142512  0
-0.00811777 0.0138189  0
-0.00759593 0.0133157  0
-0.00865105 0.01432  0
-0.00814512 0.0124821  0
-0.00812349 0.0138179  0
-0.00839809 0.013401  0
-0.00787052 0.0128989  0
-0.00611129 0.0131786  0
-0.00704475 0.0141785  0
-0.00662499 0.0123168  0
-0.00657802 0.0136785  0
-0.00683487 0.0132476  0
-0.00636814 0.0127477  0
-0.00611671 0.0131775  0
-0.00660894 0.01232  0
-0.00523416 0.0121897  0
-0.00636282 0.0127487  0
-0.00592155 0.0122549  0
-0.00567543 0.0126836  0
-0.00611669 0.0131775  0
-0.00558618 0.0140697  0
-0.0070285 0.0141818  0
-0.00585143 0.0136236  0
-0.00630734 0.0141257  0
-0.00657259 0.0136797  0
-0.00611147 0.0131786  0
-0.00524981 0.0121865  0
-0.00560206 0.0140663  0
-0.00568064 0.0126825  0
-0.00542593 0.0131264  0
-0.00585676 0.0136224  0
-0.00923987 0.0134853  0
-0.0104188 0.0144925  0
-0.00983082 0.0126789  0
-0.00982933 0.0139889  0
-0.0101248 0.0135857  0
-0.00953535 0.0130821  0
-0.00924587 0.0134841  0
-0.00981253 0.0126824  0
-0.00811847 0.012488  0
-0.0095292 0.0130833  0
-0.0089655 0.0125852  0
-0.00868217 0.012986  0
-0.00924592 0.0134841  0
-0.00864186 0.014321  0
-0.010401 0.014496  0
-0.00894389 0.0139025  0
-0.00952143 0.0144085  0
-0.00982346 0.0139901  0
-0.00923995 0.0134852  0
-0.00813655 0.0124846  0
-0.00865951 0.0143176  0
-0.00868825 0.0129849  0
-0.00839803 0.0134011  0
-0.00894973 0.0139014  0
-0.00803866 0.0151992  0
-0.00864234 0.0143207  0
-0.00702777 0.0141818  0
-0.0083405 0.01476  0
-0.00783505 0.0142513  0
-0.00753321 0.0146905  0
-0.00803293 0.0152002  0
-0.00909577 0.0162288  0
-0.00865948 0.0143178  0
-0.00856435 0.0157145  0
-0.00887762 0.0152733  0
-0.0083462 0.014759  0
-0.00803292 0.0152002  0
-0.00704487 0.0141788  0
-0.00741364 0.0161089  0
-0.0075389 0.0146895  0
-0.00722926 0.0151439  0
-0.00772328 0.0156546  0
-0.00803864 0.0151992  0
-0.00739639 0.0161119  0
-0.00907855 0.0162317  0
-0.00771752 0.0156555  0
-0.00823747 0.0161718  0
-0.0085586 0.0157155  0
-0.00976667 0.0153448  0
-0.010409 0.0144937  0
-0.00863379 0.0143233  0
-0.0100878 0.0149192  0
-0.00952141 0.0144085  0
-0.00920023 0.0148341  0
-0.00976104 0.0153458  0
-0.00865099 0.0143202  0
-0.00910427 0.0162265  0
-0.00920602 0.014833  0
-0.00887763 0.0152733  0
-0.00943266 0.0157861  0
-0.00976111 0.0153459  0
-0.0109438 0.0163784  0
-0.0104262 0.0144904  0
-0.0103524 0.0158622  0
-0.010685 0.0154344  0
-0.0100936 0.0149182  0
-0.00976673 0.0153448  0
-0.00908758 0.0162295  0
-0.0109273 0.0163816  0
-0.00942716 0.0157872  0
-0.0100074 0.0163056  0
-0.010347 0.0158632  0
-0.00646982 0.0150857  0
-0.00703665 0.0141796  0
-0.00557806 0.014072  0
-0.00675323 0.0146326  0
-0.00630735 0.0141258  0
-0.00602394 0.0145788  0
-0.00646434 0.0150868  0
-0.00559423 0.0140689  0
-0.0058837 0.0160215  0
-0.00602929 0.0145778  0
-0.00573897 0.0150452  0
-0.00617402 0.0155542  0
-0.00646418 0.0150866  0
-0.0074054 0.0161113  0
-0.00705317 0.0141765  0
-0.00693479 0.015599  0
-0.00722928 0.0151439  0
-0.00675867 0.0146316  0
-0.00646974 0.0150856  0
-0.00586709 0.0160248  0
-0.00738844 0.0161146  0
-0.00616841 0.0155552  0
-0.00662776 0.0160697  0
-0.00692909 0.0156001  0
-0.00505464 0.0150008  0
-0.00558689 0.0140703  0
-0.00427216 0.0139901  0
-0.00532076 0.0145355  0
-0.00492952 0.0140302  0
-0.0046634 0.0144954  0
-0.00504951 0.0150018  0
-0.00587639 0.0160236  0
-0.00560172 0.0140669  0
-0.00546295 0.0155127  0
-0.00573906 0.0150452  0
-0.00532562 0.0145343  0
-0.00504981 0.0150019  0
-0.00428637 0.0139868  0
-0.00450576 0.0159578  0
-0.00466809 0.0144944  0
-0.00439606 0.0149723  0
-0.00477778 0.0154799  0
-0.00505452 0.0150007  0
-0.00449109 0.0159613  0
-0.00586108 0.0160273  0
-0.0047728 0.015481  0
-0.00517609 0.0159943  0
-0.0054578 0.015514  0
-0.00393132 0.0169513  0
-0.00466051 0.0179962  0
-0.00450496 0.015959  0
-0.00429592 0.0174738  0
-0.00458274 0.0169776  0
-0.00421814 0.0164552  0
-0.00393581 0.0169504  0
-0.00449224 0.0159623  0
-0.00324181 0.0159167  0
-0.00421402 0.0164563  0
-0.00386702 0.0159395  0
-0.00358881 0.0164336  0
-0.00393558 0.0169503  0
-0.00335925 0.0179586  0
-0.00464739 0.0179998  0
-0.00364742 0.0174545  0
-0.00400332 0.0179792  0
-0.00429149 0.017475  0
-0.00393174 0.0169515  0
-0.0032537 0.0159139  0
-0.00337151 0.0179555  0
-0.00359272 0.0164327  0
-0.00331261 0.0169347  0
-0.00365163 0.0174535  0
-0.00526643 0.0170007  0
-0.00449965 0.0159598  0
-0.00466551 0.0179953  0
-0.00488304 0.0164803  0
-0.00458258 0.0169776  0
-0.00496597 0.017498  0
-0.00527156 0.0169994  0
-0.00586746 0.0160258  0
-0.00448474 0.0159631  0
-0.00556951 0.0165126  0
-0.0051761 0.0159944  0
-0.00487815 0.0164812  0
-0.00527132 0.0169993  0
-0.00465001 0.017999  0
-0.00607883 0.0180521  0
-0.00496066 0.0174991  0
-0.00536442 0.0180255  0
-0.00567508 0.0175257  0
-0.00526606 0.0170004  0
-0.00609513 0.018048  0
-0.00588312 0.0160221  0
-0.00568059 0.0175242  0
-0.00598912 0.0170351  0
-0.00557459 0.0165113  0
-0.00405004 0.0190169  0
-0.00465137 0.018  0
-0.00335522 0.0179588  0
-0.00435071 0.0185084  0
-0.00400329 0.0179794  0
-0.00370263 0.0184878  0
-0.0040459 0.0190178  0
-0.0033672 0.0179568  0
-0.00344937 0.0200411  0
-0.00370655 0.0184873  0
-0.00340829 0.018999  0
-0.00374764 0.0195295  0
-0.00404545 0.0190176  0
-0.0047727 0.0200889  0
-0.00466423 0.0179971  0
-0.00440908 0.0195532  0
-0.00471847 0.019043  0
-0.00435484 0.0185074  0
-0.00404968 0.0190169  0
-0.00343713 0.0200431  0
-0.00475957 0.0200919  0
-0.0037434 0.01953  0
-0.00409835 0.0200675  0
-0.00440462 0.0195544  0
-0.00279951 0.0189785  0
-0.00336128 0.0179592  0
-0.00217467 0.0179281  0
-0.00308039 0.0184688  0
-0.00276798 0.0179437  0
-0.00248709 0.0184533  0
-0.00279624 0.0189788  0
-0.00344668 0.02004  0
-0.00337042 0.0179579  0
-0.00312146 0.0195094  0
-0.00340855 0.0189989  0
-0.00308333 0.0184683  0
-0.00279663 0.0189789  0
-0.00218308 0.0179275  0
-0.00223687 0.0200013  0
-0.00248986 0.0184532  0
-0.00220997 0.0189644  0
-0.00251675 0.0194901  0
-0.00279925 0.0189786  0
-0.00222836 0.0200018  0
-0.00343745 0.0200413  0
-0.0025138 0.0194902  0
-0.00283291 0.0200215  0
-0.00311835 0.0195099  0
-0.00675611 0.0170653  0
-0.00608372 0.0180502  0
-0.00767791 0.0181202  0
-0.00641992 0.0175577  0
-0.00688082 0.0180852  0
-0.00721701 0.0175927  0
-0.00675043 0.0170667  0
-0.00587659 0.0160237  0
-0.00610151 0.0180464  0
-0.00631351 0.0165452  0
-0.00598905 0.017035  0
-0.00642597 0.0175566  0
-0.00675024 0.0170664  0
-0.00769615 0.0181162  0
-0.00741345 0.0161089  0
-0.00722319 0.0175913  0
-0.0075548 0.0171126  0
-0.00708185 0.0165877  0
-0.00675631 0.0170654  0
-0.00739601 0.0161125  0
-0.00585956 0.016027  0
-0.00707616 0.016589  0
-0.00662779 0.0160698  0
-0.00630794 0.0165462  0
-0.00543051 0.0190634  0
-0.0060839 0.0180515  0
-0.00464492 0.0179998  0
-0.00575721 0.0185574  0
-0.00536441 0.0180257  0
-0.00503772 0.0185316  0
-0.00542462 0.0190644  0
-0.00625062 0.0201425  0
-0.00610033 0.0180472  0
-0.00583762 0.0196035  0
-0.00617547 0.0190949  0
-0.00576248 0.0185558  0
-0.00542512 0.0190648  0
-0.00466038 0.0179965  0
-0.00477615 0.0200896  0
-0.00504275 0.0185306  0
-0.00471827 0.019043  0
-0.00510064 0.0195772  0
-0.00543006 0.0190631  0
-0.00476008 0.0200934  0
-0.00623352 0.0201474  0
-0.00509507 0.0195783  0
-0.0054968 0.0201204  0
-0.00583179 0.0196053  0
-0.00697409 0.0191182  0
-0.00768473 0.0181185  0
-0.00607694 0.0180518  0
-0.00732941 0.0186184  0
-0.00688084 0.0180852  0
-0.00652552 0.018585  0
-0.00696767 0.01912  0
-0.00609515 0.0180475  0
-0.00625564 0.0201422  0
-0.00653141 0.0185837  0
-0.00617539 0.0190948  0
-0.00661165 0.0196311  0
-0.0069673 0.0191195  0
-0.0079142 0.0202008  0
-0.00770366 0.0181135  0
-0.00744075 0.0196601  0
-0.00780893 0.0191571  0
-0.00733548 0.0186165  0
-0.00697365 0.0191179  0
-0.00623628 0.0201473  0
-0.007894 0.0202066  0
-0.00660497 0.0196326  0
-0.00706514 0.020177  0
-0.00743383 0.0196622  0
-0.00840017 0.0171569  0
-0.00740545 0.016111  0
-0.00770422 0.018114  0
-0.00790281 0.016634  0
-0.00755483 0.0171125  0
-0.0080522 0.0176354  0
-0.00840618 0.0171558  0
-0.00908705 0.0162293  0
-0.00738791 0.0161142  0
-0.00874661 0.0166925  0
-0.00823748 0.0161718  0
-0.00789705 0.016635  0
-0.0084061 0.0171557  0
-0.00768616 0.0181173  0
-0.00945416 0.0182137  0
-0.00804613 0.0176365  0
-0.00857016 0.0181655  0
-0.00893013 0.0176847  0
-0.0084003 0.0171567  0
-0.00947199 0.0182105  0
-0.00910441 0.0162261  0
-0.00893614 0.0176836  0
-0.0092882 0.0172183  0
-0.00875236 0.0166914  0
-0.00285054 0.0210648  0
-0.00223389 0.0200024  0
-0.00227273 0.0220771  0
-0.00254222 0.0205336  0
-0.00225331 0.0210397  0
-0.00256164 0.021571  0
-0.00285325 0.0210652  0
-0.00343966 0.0200434  0
-0.00222604 0.0200002  0
-0.00314646 0.0205543  0
-0.00283285 0.0200218  0
-0.00253964 0.0205327  0
-0.00285291 0.0210656  0
-0.00226493 0.0220744  0
-0.00349331 0.0221408  0
-0.00255892 0.02157  0
-0.00287912 0.0221076  0
-0.00317311 0.0216032  0
-0.00285024 0.0210647  0
-0.00350157 0.0221424  0
-0.00344803 0.0200445  0
-0.00317591 0.0216035  0
-0.0034748 0.0210935  0
-0.00314913 0.0205546  0
-0.00167243 0.0210202  0
-0.00227129 0.0220747  0
-0.00223605 0.0200047  0
-0.00197186 0.0215474  0
-0.00225367 0.0210397  0
-0.00195424 0.0205125  0
-0.00167423 0.0210213  0
-0.00223111 0.0200018  0
-0.00109298 0.0199735  0
-0.00195267 0.0205115  0
-0.00166205 0.0199877  0
-0.00138361 0.0204974  0
-0.00167404 0.0210217  0
-0.00111349 0.0220278  0
-0.00226643 0.022071  0
-0.00139376 0.0215247  0
-0.00168996 0.0220494  0
-0.00197024 0.0215463  0
-0.00167268 0.0210203  0
-0.00109755 0.0199771  0
-0.00111801 0.0220321  0
-0.00138512 0.0204987  0
-0.00110778 0.0210046  0
-0.00139535 0.0215262  0
-0.00412313 0.0211241  0
-0.00484706 0.0222252  0
-0.00477423 0.0200927  0
-0.00448509 0.0216746  0
-0.00481064 0.0211589  0
-0.00444868 0.0206084  0
-0.0041275 0.0211239  0
-0.00476209 0.0200943  0
-0.00343447 0.0200414  0
-0.0044448 0.0206091  0
-0.00409828 0.0200678  0
-0.00378099 0.0205827  0
-0.00412699 0.0211241  0
-0.00349164 0.0221455  0
-0.00483493 0.0222266  0
-0.00380932 0.0216348  0
-0.00416329 0.0221861  0
-0.00448096 0.0216753  0
-0.00412353 0.0211244  0
-0.00344586 0.0200413  0
-0.00350304 0.0221458  0
-0.0037847 0.0205829  0
-0.00347445 0.0210935  0
-0.00381329 0.0216351  0
-0.00553162 0.0211909  0
-0.00477187 0.0200892  0
-0.00484882 0.0222288  0
-0.00515175 0.02064  0
-0.00481035 0.021159  0
-0.00519022 0.0217099  0
-0.00553702 0.0211893  0
-0.0062369 0.0201491  0
-0.00475658 0.0200921  0
-0.00588696 0.0206692  0
-0.00549674 0.0201206  0
-0.0051468 0.0206407  0
-0.0055363 0.0211892  0
-0.00483322 0.0222321  0
-0.00633363 0.0223161  0
-0.00518476 0.0217106  0
-0.00558342 0.0222741  0
-0.00593497 0.0217526  0
-0.00553104 0.0211904  0
-0.00635037 0.0223107  0
-0.00625332 0.0201441  0
-0.0059407 0.0217505  0
-0.00630184 0.0212274  0
-0.00589218 0.0206673  0
-0.00289483 0.0231415  0
-0.00349479 0.0221452  0
-0.00226329 0.0220707  0
-0.00319481 0.0226433  0
-0.00287904 0.022108  0
-0.00257906 0.0226061  0
-0.00289233 0.0231395  0
-0.0035491 0.0242257  0
-0.00350169 0.0221507  0
-0.00322072 0.0236826  0
-0.0035254 0.0231882  0
-0.00319701 0.0226451  0
-0.00289247 0.0231396  0
-0.0022701 0.0220774  0
-0.00230577 0.0241103  0
-0.00258128 0.0226085  0
-0.00228793 0.0230939  0
-0.00259912 0.023625  0
-0.00289447 0.0231421  0
-0.00229916 0.0241024  0
-0.00354245 0.024219  0
-0.00259681 0.0236222  0
-0.00292081 0.0241607  0
-0.00321846 0.0236806  0
-0.00418385 0.0232469  0
-0.00483628 0.0222322  0
-0.00349005 0.0221407  0
-0.00451006 0.0227395  0
-0.00416317 0.0221864  0
-0.00383695 0.0226938  0
-0.00418037 0.0232462  0
-0.00349996 0.0221445  0
-0.00354995 0.024232  0
-0.00384016 0.0226954  0
-0.00352495 0.0231883  0
-0.00386516 0.0237391  0
-0.00418015 0.023246  0
-0.00490602 0.0243787  0
-0.00484647 0.022234  0
-0.00454308 0.0238123  0
-0.00487624 0.0233064  0
-0.00451331 0.02274  0
-0.00418326 0.0232475  0
-0.00354032 0.0242271  0
-0.00489618 0.0243758  0
-0.00386179 0.0237373  0
-0.00421825 0.0243015  0
-0.00453972 0.0238117  0
-0.00169983 0.0230645  0
-0.00226806 0.0220739  0
-0.00111177 0.0220257  0
-0.00198395 0.0225692  0
-0.00168991 0.0220498  0
-0.0014058 0.0225451  0
-0.00169847 0.023062  0
-0.00111577 0.0220341  0
-0.00113504 0.0240327  0
-0.00140712 0.0225481  0
-0.00112541 0.0230334  0
-0.00141675 0.0235474  0
-0.00169836 0.0230619  0
-0.00230467 0.024106  0
-0.00227208 0.0220817  0
-0.00200151 0.023584  0
-0.00228837 0.0230938  0
-0.00198522 0.0225718  0
-0.00169962 0.0230652  0
-0.00113114 0.024023  0
-0.0023008 0.024097  0
-0.00141538 0.0235441  0
-0.00171597 0.02406  0
-0.00200021 0.0235811  0
-0.000560465 0.0230241  0
-0.00111659 0.0220273  0
2.42555e-06 0.0220106  0
-0.000838529 0.0225257  0
-0.000557084 0.022019  0
-0.00027902 0.0225174  0
-0.000559951 0.0230212  0
-0.00113378 0.0240306  0
-0.00111791 0.0220362  0
-0.000846865 0.0235259  0
-0.00112584 0.0230334  0
-0.00083893 0.0225287  0
-0.000560045 0.0230213  0
1.09416e-06 0.0220198  0
-6.56342e-07 0.0240055  0
-0.000279475 0.0225205  0
2.18907e-07 0.0230126  0
-0.00028035 0.0235134  0
-0.000560398 0.0230248  0
6.55289e-07 0.023995  0
-0.00113253 0.0240203  0
-0.000279872 0.0235099  0
-0.000565938 0.0240076  0
-0.000846465 0.0235226  0
-0.0102149 0.0172793  0
-0.0114058 0.0183388  0
-0.0109512 0.0163759  0
-0.0108103 0.0178091  0
-0.0111785 0.0173574  0
-0.010583 0.0168276  0
-0.0102199 0.0172781  0
-0.0109355 0.0163794  0
-0.00907928 0.0162317  0
-0.0105777 0.0168287  0
-0.0100074 0.0163055  0
-0.00964957 0.0167549  0
-0.0102199 0.0172782  0
-0.00946542 0.0182113  0
-0.0113909 0.018342  0
-0.00984267 0.0177447  0
-0.0104282 0.0182766  0
-0.0108054 0.0178101  0
-0.0102145 0.0172791  0
-0.00909552 0.0162284  0
-0.00948115 0.0182082  0
-0.009655 0.0167538  0
-0.00928833 0.0172183  0
-0.00984782 0.0177437  0
-0.0106103 0.0192883  0
-0.0114003 0.0183397  0
-0.00945598 0.018213  0
-0.0110053 0.018814  0
-0.0104281 0.0182764  0
-0.0100331 0.0187507  0
-0.010605 0.0192897  0
-0.00947147 0.0182088  0
-0.00978994 0.0202725  0
-0.0100382 0.0187492  0
-0.0096307 0.0192406  0
-0.0101975 0.0197811  0
-0.0106059 0.0192898  0
-0.0118159 0.0203837  0
-0.0114143 0.0183354  0
-0.0112109 0.0198368  0
-0.0116151 0.0193595  0
-0.0110101 0.0188126  0
-0.0106103 0.0192884  0
-0.0097746 0.0202763  0
-0.0118025 0.0203876  0
-0.0101924 0.0197824  0
-0.0107886 0.020332  0
-0.0112064 0.019838  0
-0.00870254 0.0191884  0
-0.00946298 0.0182113  0
-0.0076774 0.0181194  0
-0.00908276 0.0186998  0
-0.00857019 0.0181653  0
-0.00818997 0.0186539  0
-0.00869606 0.0191897  0
-0.00977924 0.0202747  0
-0.00948148 0.0182066  0
-0.00923765 0.0197322  0
-0.00963036 0.0192407  0
-0.00908877 0.0186982  0
-0.00869587 0.0191901  0
-0.00769614 0.0181149  0
-0.00792193 0.0201992  0
-0.00819601 0.0186525  0
-0.00780904 0.0191571  0
-0.0083089 0.0196947  0
-0.00870226 0.0191882  0
-0.00790183 0.0202041  0
-0.00975937 0.0202797  0
-0.00830205 0.0196962  0
-0.0088306 0.0202419  0
-0.00923082 0.019734  0
-0.0071154 0.021255  0
-0.00805823 0.0223862  0
-0.00792007 0.0201985  0
-0.00758682 0.0218206  0
-0.00798915 0.0212924  0
-0.00751774 0.0207268  0
-0.00712317 0.0212532  0
-0.00789942 0.0202066  0
-0.00623084 0.0201474  0
-0.00751129 0.0207299  0
-0.00706513 0.020177  0
-0.006677 0.0207003  0
-0.00712219 0.0212526  0
-0.00633267 0.0223208  0
-0.00803611 0.0223957  0
-0.00672743 0.0217867  0
-0.00718439 0.0223582  0
-0.00757915 0.0218241  0
-0.0071162 0.0212559  0
-0.00625012 0.0201414  0
-0.00635322 0.0223136  0
-0.00668316 0.0206986  0
-0.00630167 0.0212275  0
-0.00673471 0.0217847  0
-0.00891532 0.021318  0
-0.00791409 0.0201977  0
-0.00806449 0.0223869  0
-0.0084147 0.0207579  0
-0.00798929 0.0212923  0
-0.0084899 0.0218525  0
-0.00892328 0.0213148  0
-0.00976851 0.0202776  0
-0.00789282 0.0202057  0
-0.0093459 0.0207962  0
-0.00883067 0.0202416  0
-0.00840805 0.0207602  0
-0.0089225 0.021314  0
-0.00804033 0.0223965  0
-0.00998704 0.0224622  0
-0.00848142 0.0218552  0
-0.00901368 0.0224294  0
-0.00945477 0.0218881  0
-0.00891512 0.0213169  0
-0.010012 0.0224519  0
-0.00979018 0.0202689  0
-0.00946357 0.0218844  0
-0.0099011 0.0213604  0
-0.00935265 0.0207929  0
-0.00721424 0.0234862  0
-0.00803894 0.0224005  0
-0.00632953 0.0223165  0
-0.00762659 0.0229433  0
-0.00718424 0.0223585  0
-0.00677189 0.0229013  0
-0.0072074 0.0234896  0
-0.00634822 0.0223098  0
-0.00641909 0.0245569  0
-0.00677781 0.0228997  0
-0.00638365 0.0234333  0
-0.00681324 0.0240232  0
-0.00720647 0.0234887  0
-0.00814121 0.0247063  0
-0.00805948 0.0223892  0
-0.00767384 0.0240975  0
-0.00810035 0.0235478  0
-0.00763298 0.022939  0
-0.00721271 0.0234859  0
-0.00640024 0.024564  0
-0.0081206 0.0247185  0
-0.00680648 0.024025  0
-0.00726042 0.0246412  0
-0.00766665 0.0241022  0
-0.00560797 0.023368  0
-0.00633512 0.0223221  0
-0.00483141 0.0222267  0
-0.00597155 0.0228451  0
-0.00558327 0.0222744  0
-0.00521969 0.0227974  0
-0.0056027 0.0233686  0
-0.00641871 0.0245478  0
-0.00634948 0.0223185  0
-0.0060107 0.0239582  0
-0.0063841 0.0234332  0
-0.00597609 0.0228436  0
-0.0056031 0.023369  0
-0.00484505 0.0222262  0
-0.00490653 0.0243868  0
-0.00522407 0.0227976  0
-0.00487579 0.0233065  0
-0.00525481 0.0238779  0
-0.00560704 0.0233684  0
-0.00489317 0.0243866  0
-0.00640471 0.0245508  0
-0.00525011 0.0238775  0
-0.00564894 0.0244687  0
-0.00600588 0.0239596  0
-0.0109376 0.0213962  0
-0.0121886 0.0225436  0
-0.0118278 0.0203779  0
-0.0115631 0.0219699  0
-0.0120082 0.0214607  0
-0.0113827 0.020887  0
-0.0109417 0.021394  0
-0.0118147 0.020385  0
-0.00976242 0.0202776  0
-0.0113782 0.0208895  0
-0.0107886 0.0203313  0
-0.0103521 0.0208358  0
-0.0109416 0.0213941  0
-0.0100076 0.0224568  0
-0.0121751 0.0225502  0
-0.0104746 0.0219254  0
-0.0110913 0.0225035  0
-0.0115583 0.0219721  0
-0.0109357 0.0213965  0
-0.00977844 0.0202704  0
-0.0100251 0.02245  0
-0.0103571 0.0208335  0
-0.00990178 0.0213602  0
-0.0104804 0.0219232  0
-0.00906156 0.0235779  0
-0.00999486 0.0224622  0
-0.0080326 0.0223959  0
-0.00952821 0.0230201  0
-0.00901373 0.0224291  0
-0.00854708 0.0229869  0
-0.00904946 0.0235814  0
-0.010156 0.0248185  0
-0.0100225 0.0224428  0
-0.00960275 0.0242  0
-0.0100893 0.0236306  0
-0.00953596 0.0230121  0
-0.00905176 0.0235842  0
-0.00805741 0.0223819  0
-0.00814287 0.0247141  0
-0.00855458 0.0229831  0
-0.00810014 0.023548  0
-0.00859731 0.0241491  0
-0.0090586 0.0235755  0
-0.00811394 0.0247312  0
-0.0101232 0.0248421  0
-0.00858627 0.0241533  0
-0.0091186 0.0247866  0
-0.00959092 0.0242088  0
-0.0112111 0.0236462  0
-0.012193 0.0225466  0
-0.00998995 0.0224573  0
-0.0117021 0.0230964  0
-0.0110915 0.0225019  0
-0.0106005 0.0230517  0
-0.0112013 0.0236525  0
-0.0100113 0.0224405  0
-0.0101693 0.0248201  0
-0.0106063 0.0230465  0
-0.0100903 0.0236303  0
-0.0106853 0.0242363  0
-0.0112046 0.0236501  0
-0.0125387 0.024899  0
-0.0122093 0.0225306  0
-0.0118716 0.0242745  0
-0.012374 0.0237148  0
-0.011707 0.0230904  0
-0.0112102 0.0236449  0
-0.0101389 0.0248393  0
-0.0125153 0.0249154  0
-0.0106745 0.0242421  0
-0.0113271 0.0248773  0
-0.0118628 0.0242802  0
-0.0113406 0.0262011  0
-0.0128721 0.0277639  0
-0.0125924 0.0248371  0
-0.0121063 0.0269825  0
-0.0127323 0.0263005  0
-0.0119665 0.0255191  0
-0.011376 0.0261939  0
-0.0125423 0.0249079  0
-0.0101133 0.0248398  0
-0.0119591 0.0255509  0
-0.0113278 0.0248738  0
-0.0107447 0.0255168  0
-0.0113576 0.026184  0
-0.0101516 0.0275869  0
-0.0127648 0.0278711  0
-0.0107546 0.0268855  0
-0.0114582 0.027729  0
-0.0120612 0.0270275  0
-0.0113497 0.0262194  0
-0.0101523 0.024803  0
-0.0102236 0.0275376  0
-0.010751 0.0255112  0
-0.010188 0.0261703  0
-0.0107867 0.0268785  0
-0.00913452 0.0260529  0
-0.00819996 0.0271907  0
-0.0102081 0.027528  0
-0.00866724 0.0266218  0
-0.00920402 0.0273594  0
-0.00967129 0.0267904  0
-0.00912772 0.0260566  0
-0.0102304 0.0275082  0
-0.0101513 0.0248306  0
-0.00967906 0.0267824  0
-0.0101908 0.0261694  0
-0.00963949 0.0254436  0
-0.00912889 0.0260579  0
-0.00813429 0.0247057  0
-0.00822168 0.0271815  0
-0.00863159 0.0253818  0
-0.00817798 0.0259436  0
-0.00867528 0.0266197  0
-0.00913775 0.0260503  0
-0.0101253 0.0248558  0
-0.00811086 0.0247189  0
-0.00963153 0.0254531  0
-0.00911808 0.0247873  0
-0.00862431 0.0253846  0
-0.00728103 0.0258155  0
-0.00822377 0.0271589  0
-0.00813489 0.0247275  0
-0.0077524 0.0264872  0
-0.00817933 0.0259432  0
-0.00770796 0.0252715  0
-0.00728639 0.0258143  0
-0.0081205 0.0247332  0
-0.00639962 0.0245506  0
-0.00770344 0.0252738  0
-0.00726006 0.0246419  0
-0.006843 0.0251824  0
-0.00728505 0.0258161  0
-0.00648847 0.0268253  0
-0.00821047 0.0271611  0
-0.00688676 0.0263207  0
-0.00734947 0.0269932  0
-0.00774776 0.0264886  0
-0.00728103 0.025816  0
-0.00641418 0.0245497  0
-0.00650225 0.0268275  0
-0.00684761 0.0251829  0
-0.00645822 0.0256886  0
-0.00689164 0.0263218  0
-0.00567574 0.0255682  0
-0.00497266 0.0264993  0
-0.00649304 0.0268046  0
-0.0053242 0.0260338  0
-0.00573285 0.026652  0
-0.00608439 0.0261864  0
-0.00567275 0.0255654  0
-0.00650263 0.0268104  0
-0.00641542 0.0245664  0
-0.00608769 0.0261879  0
-0.00645902 0.0256884  0
-0.00604409 0.0250659  0
-0.00567272 0.0255657  0
-0.00490289 0.0243815  0
-0.00498275 0.0265078  0
-0.00528781 0.0249736  0
-0.00494282 0.0254447  0
-0.00532774 0.0260368  0
-0.00567651 0.0255669  0
-0.00640518 0.0245632  0
-0.00489227 0.0243754  0
-0.00604084 0.025065  0
-0.00564872 0.0244693  0
-0.00528439 0.0249712  0
-0.00424051 0.0253382  0
-0.00498217 0.0264948  0
-0.0049047 0.0243942  0
-0.00461134 0.0259165  0
-0.00494344 0.0254445  0
-0.0045726 0.0248662  0
-0.00424323 0.0253413  0
-0.00489724 0.0243855  0
-0.00353898 0.0242185  0
-0.00457024 0.0248634  0
-0.00421811 0.024302  0
-0.0038911 0.0247799  0
-0.00424272 0.0253424  0
-0.00360469 0.0262285  0
-0.00497514 0.026484  0
-0.00392371 0.0257854  0
-0.00428992 0.0263563  0
-0.00460893 0.0259132  0
-0.00424047 0.0253384  0
-0.00354682 0.024229  0
-0.00361219 0.0262411  0
-0.00389364 0.0247837  0
-0.0035795 0.0252351  0
-0.00392633 0.0257898  0
-0.00294006 0.0251584  0
-0.00234432 0.0260256  0
-0.0036062 0.0262174  0
-0.00264219 0.025592  0
-0.00297526 0.0261215  0
-0.00327313 0.0256879  0
-0.00293853 0.0251532  0
-0.00361102 0.0262317  0
-0.00354906 0.0242383  0
-0.00327478 0.0256924  0
-0.00358004 0.025235  0
-0.0032438 0.0246958  0
-0.00293849 0.0251533  0
-0.00230298 0.0241098  0
-0.00234959 0.026041  0
-0.00262073 0.0246315  0
-0.00232629 0.0250754  0
-0.00264404 0.0255972  0
-0.0029404 0.0251574  0
-0.00354395 0.0242261  0
-0.00229748 0.0240963  0
-0.00324218 0.0246917  0
-0.00292072 0.0241612  0
-0.00261894 0.0246268  0
-0.0017273 0.0250233  0
-0.00234807 0.0260348  0
-0.00230553 0.0241159  0
-0.00203768 0.025529  0
-0.0023268 0.0250753  0
-0.00201641 0.0245696  0
-0.0017284 0.0250281  0
-0.00230259 0.0241014  0
-0.00112926 0.0240195  0
-0.00201549 0.0245647  0
-0.00171592 0.0240605  0
-0.00142883 0.0245238  0
-0.0017282 0.0250291  0
-0.00115452 0.0258995  0
-0.0023453 0.0260183  0
-0.00144136 0.0254643  0
-0.00174991 0.0259589  0
-0.00203675 0.0255237  0
-0.00172726 0.0250234  0
-0.00113258 0.0240347  0
-0.00115772 0.0259166  0
-0.00142992 0.024529  0
-0.00114515 0.0249757  0
-0.00144249 0.02547  0
-0.000570124 0.0249625  0
3.07811e-07 0.0258558  0
-0.00115522 0.025896  0
-0.000284908 0.0254091  0
-0.000577457 0.0258759  0
-0.000862673 0.0254292  0
-0.000569841 0.0249564  0
-0.001156 0.0259135  0
-0.00113531 0.0240378  0
-0.000862918 0.025435  0
-0.00114565 0.0249757  0
-0.000852576 0.0244971  0
-0.000569795 0.0249565  0
1.39319e-06 0.0240101  0
-8.97157e-07 0.0258736  0
-0.000284201 0.0244833  0
2.48016e-07 0.0249418  0
-0.000285346 0.025415  0
-0.000570187 0.0249616  0
-0.00113447 0.0240221  0
2.62283e-06 0.0239941  0
-0.000852327 0.0244918  0
-0.000565922 0.0240081  0
-0.000283782 0.0244779  0
0.000569795 0.0249565  0
8.97156e-07 0.0258736  0
-1.39319e-06 0.0240101  0
0.000285346 0.025415  0
-2.48016e-07 0.0249418  0
0.000284201 0.0244833  0
0.000570187 0.0249616  0
-2.62283e-06 0.0239941  0
0.00113447 0.0240221  0
0.000283782 0.0244779  0
0.000565922 0.0240081  0
0.000852327 0.0244918  0
0.000570124 0.0249625  0
0.00115522 0.025896  0
-3.07811e-07 0.0258558  0
0.000862673 0.0254292  0
0.000577457 0.0258759  0
0.000284908 0.0254091  0
0.000569841 0.0249564  0
0.00113531 0.0240378  0
0.001156 0.0259135  0
0.000852576 0.0244971  0
0.00114565 0.0249757  0
0.000862918 0.025435  0
0.0017282 0.0250291  0
0.0023453 0.0260183  0
0.00115452 0.0258995  0
0.00203675 0.0255237  0
0.00174991 0.0259589  0
0.00144136 0.0254643  0
0.00172726 0.0250234  0
0.00115772 0.0259166  0
0.00113258 0.0240347  0
0.00144249 0.02547  0
0.00114515 0.0249757  0
0.00142992 0.024529  0
0.0017273 0.0250233  0
0.00230553 0.0241159  0
0.00234807 0.0260348  0
0.00201641 0.0245696  0
0.0023268 0.0250753  0
0.00203768 0.025529  0
0.0017284 0.0250281  0
0.00112926 0.0240195  0
0.00230259 0.0241014  0
0.00142883 0.0245238  0
0.00171592 0.0240605  0
0.00201549 0.0245647  0
0.00293849 0.0251533  0
0.00234959 0.026041  0
0.00230298 0.0241098  0
0.00264404 0.0255972  0
0.00232629 0.0250754  0
0.00262073 0.0246315  0
0.0029404 0.0251574  0
0.00229748 0.0240963  0
0.00354395 0.0242261  0
0.00261894 0.0246268  0
0.00292072 0.0241612  0
0.00324218 0.0246917  0
0.00294006 0.0251584  0
0.0036062 0.0262174  0
0.00234432 0.0260256  0
0.00327313 0.0256879  0
0.00297526 0.0261215  0
0.00264219 0.025592  0
0.00293853 0.0251532  0
0.00354906 0.0242383  0
0.00361102 0.0262317  0
0.0032438 0.0246958  0
0.00358004 0.025235  0
0.00327478 0.0256924  0
0.00424272 0.0253424  0
0.00497514 0.026484  0
0.00360469 0.0262285  0
0.00460893 0.0259132  0
0.00428992 0.0263563  0
0.00392371 0.0257854  0
0.00424047 0.0253384  0
0.00361219 0.0262411  0
0.00354682 0.024229  0
0.00392633 0.0257898  0
0.0035795 0.0252351  0
0.00389364 0.0247837  0
0.00424051 0.0253382  0
0.0049047 0.0243942  0
0.00498217 0.0264948  0
0.0045726 0.0248662  0
0.00494344 0.0254445  0
0.00461134 0.0259165  0
0.00424323 0.0253413  0
0.00353898 0.0242185  0
0.00489724 0.0243855  0
0.0038911 0.0247799  0
0.00421811 0.024302  0
0.00457024 0.0248634  0
0.00567272 0.0255657  0
0.00498275 0.0265078  0
0.00490289 0.0243815  0
0.00532774 0.0260368  0
0.00494282 0.0254447  0
0.00528781 0.0249736  0
0.00567651 0.0255669  0
0.00489227 0.0243754  0
0.00640518 0.0245632  0
0.00528439 0.0249712  0
0.00564872 0.0244693  0
0.00604084 0.025065  0
0.00567574 0.0255682  0
0.00649304 0.0268046  0
0.00497266 0.0264993  0
0.00608439 0.0261864  0
0.00573285 0.026652  0
0.0053242 0.0260338  0
0.00567275 0.0255654  0
0.00641542 0.0245664  0
0.00650263 0.0268104  0
0.00604409 0.0250659  0
0.00645902 0.0256884  0
0.00608769 0.0261879  0
0.00728505 0.0258161  0
0.00821047 0.0271611  0
0.00648847 0.0268253  0
0.00774776 0.0264886  0
0.00734947 0.0269932  0
0.00688676 0.0263207  0
0.00728103 0.025816  0
0.00650225 0.0268275  0
0.00641418 0.0245497  0
0.00689164 0.0263218  0
0.00645822 0.0256886  0
0.00684761 0.0251829  0
0.00728103 0.0258155  0
0.00813489 0.0247275  0
0.00822377 0.0271589  0
0.00770796 0.0252715  0
0.00817933 0.0259432  0
0.0077524 0.0264872  0
0.00728639 0.0258143  0
0.00639962 0.0245506  0
0.0081205 0.0247332  0
0.006843 0.0251824  0
0.00726006 0.0246419  0
0.00770344 0.0252738  0
0.00912889 0.0260579  0
0.00822168 0.0271815  0
0.00813429 0.0247057  0
0.00867528 0.0266197  0
0.00817798 0.0259436  0
0.00863159 0.0253818  0
0.00913775 0.0260503  0
0.00811086 0.0247189  0
0.0101253 0.0248558  0
0.00862431 0.0253846  0
0.00911808 0.0247873  0
0.00963153 0.0254531  0
0.00913452 0.0260529  0
0.0102081 0.027528  0
0.00819996 0.0271907  0
0.00967129 0.0267904  0
0.00920402 0.0273594  0
0.00866724 0.0266218  0
0.00912772 0.0260566  0
0.0101513 0.0248306  0
0.0102304 0.0275082  0
0.00963949 0.0254436  0
0.0101908 0.0261694  0
0.00967906 0.0267824  0
0.0113406 0.0262011  0
0.0125924 0.0248371  0
0.0128721 0.0277639  0
0.0119665 0.0255191  0
0.0127323 0.0263005  0
0.0121063 0.0269825  0
0.011376 0.0261939  0
0.0101133 0.0248398  0
0.0125423 0.0249079  0
0.0107447 0.0255168  0
0.0113278 0.0248738  0
0.0119591 0.0255509  0
0.0113576 0.026184  0
0.0127648 0.0278711  0
0.0101516 0.0275869  0
0.0120612 0.0270275  0
0.0114582 0.027729  0
0.0107546 0.0268855  0
0.0113497 0.0262194  0
0.0102236 0.0275376  0
0.0101523 0.024803  0
0.0107867 0.0268785  0
0.010188 0.0261703  0
0.010751 0.0255112  0
SCALARS rotation float
LOOKUP_TABLE default
-0.0120184
-0.00508661
-0.0232489
-0.00855251
-0.0141678
-0.0176337
-0.0120184
-0.0129233
-0.00508661
-0.0124709
-0.00900497
-0.00855251
-0.0120184
-0.0232489
-0.0181326
-0.0176337
-0.0206908
-0.0150755
-0.0120184
-0.0181326
-0.0129233
-0.0150755
-0.015528
-0.0124709
-0.00915299
-0.00492037
-0.00508661
-0.00703668
-0.00500349
-0.0071198
-0.00915299
-0.00508661
-0.0129233
-0.0071198
-0.00900497
-0.0110382
-0.00915299
-0.00951952
-0.00492037
-0.00933625
-0.00721995
-0.00703668
-0.00915299
-0.0129233
-0.00951952
-0.0110382
-0.0112214
-0.00933625
-0.0124749
-0.0131111
-0.00951952
-0.012793
-0.0113153
-0.0109972
-0.0124749
-0.00951952
-0.0129233
-0.0109972
-0.0112214
-0.0126991
-0.0124749
-0.0153702
-0.0131111
-0.0139225
-0.0142406
-0.012793
-0.0124749
-0.0129233
-0.0153702
-0.0126991
-0.0141467
-0.0139225
-0.0106903
-0.00951952
-0.0131111
-0.0101049
-0.0113153
-0.0119007
-0.0106903
-0.00828857
-0.00951952
-0.00948945
-0.00890405
-0.0101049
-0.0106903
-0.0131111
-0.011545
-0.0119007
-0.0123281
-0.0111177
-0.0106903
-0.011545
-0.00828857
-0.0111177
-0.0099168
-0.00948945
-0.00697269
-0.00492037
-0.00951952
-0.00594653
-0.00721995
-0.0082461
-0.00697269
-0.00951952
-0.00828857
-0.0082461
-0.00890405
-0.00763063
-0.00697269
-0.00445969
-0.00492037
-0.00571619
-0.00469003
-0.00594653
-0.00697269
-0.00828857
-0.00445969
-0.00763063
-0.00637413
-0.00571619
-0.0155159
-0.0181326
-0.0178843
-0.0168243
-0.0180085
-0.0167001
-0.0155159
-0.0129233
-0.0181326
-0.0142196
-0.015528
-0.0168243
-0.0155159
-0.0178843
-0.0153702
-0.0167001
-0.0166272
-0.015443
-0.0155159
-0.0153702
-0.0129233
-0.015443
-0.0141467
-0.0142196
-0.0152414
-0.0131111
-0.0153702
-0.0141762
-0.0142406
-0.0153058
-0.0152414
-0.0153702
-0.0173841
-0.0153058
-0.0163771
-0.0163127
-0.0152414
-0.0156648
-0.0131111
-0.0154531
-0.014388
-0.0141762
-0.0152414
-0.0173841
-0.0156648
-0.0163127
-0.0165245
-0.0154531
-0.0174047
-0.0153702
-0.0178843
-0.0163874
-0.0166272
-0.0176445
-0.0174047
-0.0173841
-0.0153702
-0.0173944
-0.0163771
-0.0163874
-0.0174047
-0.0178843
-0.0192096
-0.0176445
-0.018547
-0.0183072
-0.0174047
-0.0192096
-0.0173841
-0.0183072
-0.0182969
-0.0173944
-0.00621152
-0.00428457
-0.00445969
-0.00524805
-0.00437213
-0.00533561
-0.00621152
-0.00445969
-0.00828857
-0.00533561
-0.00637413
-0.00725005
-0.00621152
-0.0075756
-0.00428457
-0.00689356
-0.00593009
-0.00524805
-0.00621152
-0.00828857
-0.0075756
-0.00725005
-0.00793209
-0.00689356
-0.00954045
-0.0105949
-0.0075756
-0.0100677
-0.00908523
-0.00855802
-0.00954045
-0.0075756
-0.00828857
-0.00855802
-0.00793209
-0.00891451
-0.00954045
-0.011545
-0.0105949
-0.0105427
-0.0110699
-0.0100677
-0.00954045
-0.00828857
-0.011545
-0.00891451
-0.0099168
-0.0105427
-0.00584154
-0.00428457
-0.0075756
-0.00506306
-0.00593009
-0.00670857
-0.00584154
-0.0075756
-0.00718279
-0.00670857
-0.0073792
-0.00651216
-0.00584154
-0.00421248
-0.00428457
-0.00502701
-0.00424853
-0.00506306
-0.00584154
-0.00718279
-0.00421248
-0.00651216
-0.00569763
-0.00502701
-0.00886402
-0.0075756
-0.0105949
-0.00821981
-0.00908523
-0.00972944
-0.00886402
-0.00718279
-0.0075756
-0.0080234
-0.0073792
-0.00821981
-0.00886402
-0.0105949
-0.00999291
-0.00972944
-0.0102939
-0.00942846
-0.00886402
-0.00999291
-0.00718279
-0.00942846
-0.00858785
-0.0080234
-0.0135894
-0.011545
-0.0131111
-0.0125672
-0.0123281
-0.0133502
-0.0135894
-0.014283
-0.011545
-0.0139362
-0.012914
-0.0125672
-0.0135894
-0.0131111
-0.0156648
-0.0133502
-0.014388
-0.0146271
-0.0135894
-0.0156648
-0.014283
-0.0146271
-0.0149739
-0.0139362
-0.0124235
-0.0105949
-0.011545
-0.0115092
-0.0110699
-0.0119843
-0.0124235
-0.011545
-0.014283
-0.0119843
-0.012914
-0.0133532
-0.0124235
-0.0132733
-0.0105949
-0.0128484
-0.0119341
-0.0115092
-0.0124235
-0.014283
-0.0132733
-0.0133532
-0.0137781
-0.0128484
-0.014929
-0.0156434
-0.0132733
-0.0152862
-0.0144584
-0.0141012
-0.014929
-0.0132733
-0.014283
-0.0141012
-0.0137781
-0.014606
-0.014929
-0.0166133
-0.0156434
-0.0157712
-0.0161284
-0.0152862
-0.014929
-0.014283
-0.0166133
-0.014606
-0.0154481
-0.0157712
-0.0141005
-0.0132733
-0.0156434
-0.0136869
-0.0144584
-0.014872
-0.0141005
-0.0125804
-0.0132733
-0.0133404
-0.0129268
-0.0136869
-0.0141005
-0.0156434
-0.0149284
-0.014872
-0.0152859
-0.0145145
-0.0141005
-0.0149284
-0.0125804
-0.0145145
-0.0137544
-0.0133404
-0.01162
-0.0105949
-0.0132733
-0.0111074
-0.0119341
-0.0124467
-0.01162
-0.0132733
-0.0125804
-0.0124467
-0.0129268
-0.0121002
-0.01162
-0.00999291
-0.0105949
-0.0108065
-0.0102939
-0.0111074
-0.01162
-0.0125804
-0.00999291
-0.0121002
-0.0112867
-0.0108065
-0.0160497
-0.0178422
-0.0166133
-0.0169459
-0.0172278
-0.0163315
-0.0160497
-0.0166133
-0.014283
-0.0163315
-0.0154481
-0.0151663
-0.0160497
-0.0156648
-0.0178422
-0.0158573
-0.0167535
-0.0169459
-0.0160497
-0.014283
-0.0156648
-0.0151663
-0.0149739
-0.0158573
-0.0171457
-0.0156434
-0.0166133
-0.0163946
-0.0161284
-0.0168795
-0.0171457
-0.0166133
-0.0186734
-0.0168795
-0.0176434
-0.0179096
-0.0171457
-0.0177536
-0.0156434
-0.0174497
-0.0166985
-0.0163946
-0.0171457
-0.0186734
-0.0177536
-0.0179096
-0.0182135
-0.0174497
-0.0181957
-0.0166133
-0.0178422
-0.0174045
-0.0172278
-0.018019
-0.0181957
-0.0186734
-0.0166133
-0.0184346
-0.0176434
-0.0174045
-0.0181957
-0.0178422
-0.0197942
-0.018019
-0.0188182
-0.0189949
-0.0181957
-0.0197942
-0.0186734
-0.0189949
-0.0192338
-0.0184346
-0.0174828
-0.0178422
-0.0156648
-0.0176625
-0.0167535
-0.0165738
-0.0174828
-0.0156648
-0.0173841
-0.0165738
-0.0165245
-0.0174335
-0.0174828
-0.019277
-0.0178422
-0.0183799
-0.0185596
-0.0176625
-0.0174828
-0.0173841
-0.019277
-0.0174335
-0.0183306
-0.0183799
-0.0110942
-0.00962683
-0.00999291
-0.0103605
-0.00980987
-0.0105436
-0.0110942
-0.00999291
-0.0125804
-0.0105436
-0.0112867
-0.0118373
-0.0110942
-0.0121313
-0.00962683
-0.0116128
-0.0108791
-0.0103605
-0.0110942
-0.0125804
-0.0121313
-0.0118373
-0.0123559
-0.0116128
-0.00845871
-0.00999291
-0.00962683
-0.00922581
-0.00980987
-0.00904277
-0.00845871
-0.00718279
-0.00999291
-0.00782075
-0.00858785
-0.00922581
-0.00845871
-0.00962683
-0.00696081
-0.00904277
-0.00829382
-0.00770976
-0.00845871
-0.00696081
-0.00718279
-0.00770976
-0.0070718
-0.00782075
-0.0135224
-0.0149284
-0.0144434
-0.0142254
-0.0146859
-0.0139829
-0.0135224
-0.0125804
-0.0149284
-0.0130514
-0.0137544
-0.0142254
-0.0135224
-0.0144434
-0.0121313
-0.0139829
-0.0132874
-0.0128269
-0.0135224
-0.0121313
-0.0125804
-0.0128269
-0.0123559
-0.0130514
-0.0163293
-0.0149284
-0.0156434
-0.0156289
-0.0152859
-0.0159864
-0.0163293
-0.0170478
-0.0149284
-0.0166886
-0.0159881
-0.0156289
-0.0163293
-0.0156434
-0.0177536
-0.0159864
-0.0166985
-0.0170415
-0.0163293
-0.0177536
-0.0170478
-0.0170415
-0.0174007
-0.0166886
-0.0157368
-0.0144434
-0.0149284
-0.0150901
-0.0146859
-0.0153326
-0.0157368
-0.0149284
-0.0170478
-0.0153326
-0.0159881
-0.0163923
-0.0157368
-0.0165529
-0.0144434
-0.0161449
-0.0154982
-0.0150901
-0.0157368
-0.0170478
-0.0165529
-0.0163923
-0.0168004
-0.0161449
-0.0107769
-0.00962683
-0.0121313
-0.0102019
-0.0108791
-0.0114541
-0.0107769
-0.0121313
-0.0118794
-0.0114541
-0.0120054
-0.0113282
-0.0107769
-0.0094288
-0.00962683
-0.0101029
-0.00952782
-0.0102019
-0.0107769
-0.0118794
-0.0094288
-0.0113282
-0.0106541
-0.0101029
-0.0131587
-0.0121313
-0.0144434
-0.012645
-0.0132874
-0.0138011
-0.0131587
-0.0118794
-0.0121313
-0.012519
-0.0120054
-0.012645
-0.0131587
-0.0144434
-0.0141632
-0.0138011
-0.0143033
-0.0136609
-0.0131587
-0.0141632
-0.0118794
-0.0136609
-0.0130213
-0.012519
-0.00565146
-0.00419323
-0.00421248
-0.00492235
-0.00420286
-0.00493197
-0.00565146
-0.00421248
-0.00718279
-0.00493197
-0.00569763
-0.00641712
-0.00565146
-0.00696081
-0.00419323
-0.00630613
-0.00557702
-0.00492235
-0.00565146
-0.00718279
-0.00696081
-0.00641712
-0.0070718
-0.00630613
-0.00822838
-0.00696081
-0.00962683
-0.00759459
-0.00829382
-0.0089276
-0.00822838
-0.00684759
-0.00696081
-0.00753798
-0.0069042
-0.00759459
-0.00822838
-0.00962683
-0.0094288
-0.0089276
-0.00952782
-0.00882859
-0.00822838
-0.0094288
-0.00684759
-0.00882859
-0.0081382
-0.00753798
-0.00555603
-0.00419323
-0.00696081
-0.00487463
-0.00557702
-0.00625842
-0.00555603
-0.00696081
-0.00684759
-0.00625842
-0.0069042
-0.00620181
-0.00555603
-0.00419237
-0.00419323
-0.0048742
-0.0041928
-0.00487463
-0.00555603
-0.00684759
-0.00419237
-0.00620181
-0.00551998
-0.0048742
-0.019146
-0.0192096
-0.020799
-0.0191778
-0.0200043
-0.0199725
-0.019146
-0.0173841
-0.0192096
-0.0182651
-0.0182969
-0.0191778
-0.019146
-0.020799
-0.019277
-0.0199725
-0.020038
-0.0192115
-0.019146
-0.019277
-0.0173841
-0.0192115
-0.0183306
-0.0182651
-0.0208921
-0.019277
-0.020799
-0.0200846
-0.020038
-0.0208456
-0.0208921
-0.021077
-0.019277
-0.0209845
-0.020177
-0.0200846
-0.0208921
-0.020799
-0.0224626
-0.0208456
-0.0216308
-0.0216774
-0.0208921
-0.0224626
-0.021077
-0.0216774
-0.0217698
-0.0209845
-0.0194657
-0.0178422
-0.019277
-0.018654
-0.0185596
-0.0193714
-0.0194657
-0.019277
-0.021077
-0.0193714
-0.020177
-0.0202713
-0.0194657
-0.0197942
-0.0178422
-0.0196299
-0.0188182
-0.018654
-0.0194657
-0.021077
-0.0197942
-0.0202713
-0.0204356
-0.0196299
-0.0201188
-0.0197942
-0.021578
-0.0199565
-0.0206861
-0.0208484
-0.0201188
-0.0186734
-0.0197942
-0.0193961
-0.0192338
-0.0199565
-0.0201188
-0.021578
-0.0205261
-0.0208484
-0.0210521
-0.0203225
-0.0201188
-0.0205261
-0.0186734
-0.0203225
-0.0195998
-0.0193961
-0.0212865
-0.021578
-0.0197942
-0.0214323
-0.0206861
-0.0205403
-0.0212865
-0.0197942
-0.021077
-0.0205403
-0.0204356
-0.0211817
-0.0212865
-0.0227757
-0.021578
-0.0220311
-0.0221769
-0.0214323
-0.0212865
-0.021077
-0.0227757
-0.0211817
-0.0219263
-0.0220311
-0.0191282
-0.0196464
-0.0177536
-0.0193873
-0.0187
-0.0184409
-0.0191282
-0.0177536
-0.0186734
-0.0184409
-0.0182135
-0.0189008
-0.0191282
-0.0205261
-0.0196464
-0.0198272
-0.0200862
-0.0193873
-0.0191282
-0.0186734
-0.0205261
-0.0189008
-0.0195998
-0.0198272
-0.0183345
-0.0177536
-0.0196464
-0.0180441
-0.0187
-0.0189904
-0.0183345
-0.0170478
-0.0177536
-0.0176912
-0.0174007
-0.0180441
-0.0183345
-0.0196464
-0.0189553
-0.0189904
-0.0193008
-0.0186449
-0.0183345
-0.0189553
-0.0170478
-0.0186449
-0.0180016
-0.0176912
-0.0218635
-0.0205261
-0.021578
-0.0211948
-0.0210521
-0.0217208
-0.0218635
-0.0222041
-0.0205261
-0.0220338
-0.0213651
-0.0211948
-0.0218635
-0.021578
-0.0232149
-0.0217208
-0.0223965
-0.0225392
-0.0218635
-0.0232149
-0.0222041
-0.0225392
-0.0227095
-0.0220338
-0.0209133
-0.0196464
-0.0205261
-0.0202798
-0.0200862
-0.0207197
-0.0209133
-0.0205261
-0.0222041
-0.0207197
-0.0213651
-0.0215587
-0.0209133
-0.0213483
-0.0196464
-0.0211308
-0.0204973
-0.0202798
-0.0209133
-0.0222041
-0.0213483
-0.0215587
-0.0217762
-0.0211308
-0.0225909
-0.0224626
-0.0240889
-0.0225267
-0.0232757
-0.0233399
-0.0225909
-0.021077
-0.0224626
-0.0218339
-0.0217698
-0.0225267
-0.0225909
-0.0240889
-0.0227757
-0.0233399
-0.0234323
-0.0226833
-0.0225909
-0.0227757
-0.021077
-0.0226833
-0.0219263
-0.0218339
-0.0229686
-0.021578
-0.0227757
-0.0222733
-0.0221769
-0.0228721
-0.0229686
-0.0227757
-0.024361
-0.0228721
-0.0235683
-0.0236648
-0.0229686
-0.0232149
-0.021578
-0.0230917
-0.0223965
-0.0222733
-0.0229686
-0.024361
-0.0232149
-0.0236648
-0.0237879
-0.0230917
-0.0242036
-0.0227757
-0.0240889
-0.0234896
-0.0234323
-0.0241462
-0.0242036
-0.024361
-0.0227757
-0.0242823
-0.0235683
-0.0234896
-0.0242036
-0.0240889
-0.0256269
-0.0241462
-0.0248579
-0.0249153
-0.0242036
-0.0256269
-0.024361
-0.0249153
-0.024994
-0.0242823
-0.00551638
-0.00419376
-0.00419237
-0.00485507
-0.00419306
-0.00485437
-0.00551638
-0.00419237
-0.00684759
-0.00485437
-0.00551998
-0.00618199
-0.00551638
-0.0068128
-0.00419376
-0.00616459
-0.00550328
-0.00485507
-0.00551638
-0.00684759
-0.0068128
-0.00618199
-0.0068302
-0.00616459
-0.00812366
-0.00936614
-0.0068128
-0.0087449
-0.00808947
-0.00746823
-0.00812366
-0.0068128
-0.00684759
-0.00746823
-0.0068302
-0.00748563
-0.00812366
-0.0094288
-0.00936614
-0.00877623
-0.00939747
-0.0087449
-0.00812366
-0.00684759
-0.0094288
-0.00748563
-0.0081382
-0.00877623
-0.00551638
-0.00419376
-0.0068128
-0.00485507
-0.00550328
-0.00616459
-0.00551638
-0.0068128
-0.00684759
-0.00616459
-0.0068302
-0.00618199
-0.00551638
-0.00419237
-0.00419376
-0.00485437
-0.00419306
-0.00485507
-0.00551638
-0.00684759
-0.00419237
-0.00618199
-0.00551998
-0.00485437
-0.00812366
-0.0068128
-0.00936614
-0.00746823
-0.00808947
-0.0087449
-0.00812366
-0.00684759
-0.0068128
-0.00748563
-0.0068302
-0.00746823
-0.00812366
-0.00936614
-0.0094288
-0.0087449
-0.00939747
-0.00877623
-0.00812366
-0.0094288
-0.00684759
-0.00877623
-0.0081382
-0.00748563
-0.0106276
-0.00936614
-0.0094288
-0.00999686
-0.00939747
-0.0100282
-0.0106276
-0.0094288
-0.0118794
-0.0100282
-0.0106541
-0.0112535
-0.0106276
-0.0117982
-0.00936614
-0.0112129
-0.0105822
-0.00999686
-0.0106276
-0.0118794
-0.0117982
-0.0112535
-0.0118388
-0.0112129
-0.0129832
-0.0140716
-0.0117982
-0.0135274
-0.0129349
-0.0123907
-0.0129832
-0.0117982
-0.0118794
-0.0123907
-0.0118388
-0.0124313
-0.0129832
-0.0141632
-0.0140716
-0.0135732
-0.0141174
-0.0135274
-0.0129832
-0.0118794
-0.0141632
-0.0124313
-0.0130213
-0.0135732
-0.0129832
-0.0117982
-0.0140716
-0.0123907
-0.0129349
-0.0135274
-0.0129832
-0.0118794
-0.0117982
-0.0124313
-0.0118388
-0.0123907
-0.0129832
-0.0140716
-0.0141632
-0.0135274
-0.0141174
-0.0135732
-0.0129832
-0.0141632
-0.0118794
-0.0135732
-0.0130213
-0.0124313
-0.0106276
-0.00936614
-0.0117982
-0.00999686
-0.0105822
-0.0112129
-0.0106276
-0.0117982
-0.0118794
-0.0112129
-0.0118388
-0.0112535
-0.0106276
-0.0094288
-0.00936614
-0.0100282
-0.00939747
-0.00999686
-0.0106276
-0.0118794
-0.0094288
-0.0112535
-0.0106541
-0.0100282
-0.0151641
-0.0140716
-0.0141632
-0.0146178
-0.0141174
-0.0146636
-0.0151641
-0.0141632
-0.0162606
-0.0146636
-0.0152119
-0.0157124
-0.0151641
-0.0161641
-0.0140716
-0.0156641
-0.0151178
-0.0146178
-0.0151641
-0.0162606
-0.0161641
-0.0157124
-0.0162124
-0.0156641
-0.0153527
-0.0141632
-0.0144434
-0.0147579
-0.0143033
-0.014898
-0.0153527
-0.0162606
-0.0141632
-0.0158067
-0.0152119
-0.0147579
-0.0153527
-0.0144434
-0.0165529
-0.014898
-0.0154982
-0.0159528
-0.0153527
-0.0165529
-0.0162606
-0.0159528
-0.0164068
-0.0158067
-0.00822838
-0.0094288
-0.00962683
-0.00882859
-0.00952782
-0.0089276
-0.00822838
-0.00684759
-0.0094288
-0.00753798
-0.0081382
-0.00882859
-0.00822838
-0.00962683
-0.00696081
-0.0089276
-0.00829382
-0.00759459
-0.00822838
-0.00696081
-0.00684759
-0.00759459
-0.0069042
-0.00753798
-0.0107769
-0.00962683
-0.0094288
-0.0102019
-0.00952782
-0.0101029
-0.0107769
-0.0094288
-0.0118794
-0.0101029
-0.0106541
-0.0113282
-0.0107769
-0.0121313
-0.00962683
-0.0114541
-0.0108791
-0.0102019
-0.0107769
-0.0118794
-0.0121313
-0.0113282
-0.0120054
-0.0114541
-0.00555603
-0.00419323
-0.00419237
-0.00487463
-0.0041928
-0.0048742
-0.00555603
-0.00419237
-0.00684759
-0.0048742
-0.00551998
-0.00620181
-0.00555603
-0.00696081
-0.00419323
-0.00625842
-0.00557702
-0.00487463
-0.00555603
-0.00684759
-0.00696081
-0.00620181
-0.0069042
-0.00625842
-0.00845871
-0.00696081
-0.00962683
-0.00770976
-0.00829382
-0.00904277
-0.00845871
-0.00718279
-0.00696081
-0.00782075
-0.0070718
-0.00770976
-0.00845871
-0.00962683
-0.00999291
-0.00904277
-0.00980987
-0.00922581
-0.00845871
-0.00999291
-0.00718279
-0.00922581
-0.00858785
-0.00782075
-0.00565146
-0.00419323
-0.00696081
-0.00492235
-0.00557702
-0.00630613
-0.00565146
-0.00696081
-0.00718279
-0.00630613
-0.0070718
-0.00641712
-0.00565146
-0.00421248
-0.00419323
-0.00493197
-0.00420286
-0.00492235
-0.00565146
-0.00718279
-0.00421248
-0.00641712
-0.00569763
-0.00493197
-0.0131587
-0.0141632
-0.0144434
-0.0136609
-0.0143033
-0.0138011
-0.0131587
-0.0118794
-0.0141632
-0.012519
-0.0130213
-0.0136609
-0.0131587
-0.0144434
-0.0121313
-0.0138011
-0.0132874
-0.012645
-0.0131587
-0.0121313
-0.0118794
-0.012645
-0.0120054
-0.012519
-0.0151641
-0.0141632
-0.0140716
-0.0146636
-0.0141174
-0.0146178
-0.0151641
-0.0162606
-0.0141632
-0.0157124
-0.0152119
-0.0146636
-0.0151641
-0.0140716
-0.0161641
-0.0146178
-0.0151178
-0.0156641
-0.0151641
-0.0161641
-0.0162606
-0.0156641
-0.0162124
-0.0157124
-0.0153527
-0.0144434
-0.0141632
-0.014898
-0.0143033
-0.0147579
-0.0153527
-0.0141632
-0.0162606
-0.0147579
-0.0152119
-0.0158067
-0.0153527
-0.0165529
-0.0144434
-0.0159528
-0.0154982
-0.014898
-0.0153527
-0.0162606
-0.0165529
-0.0158067
-0.0164068
-0.0159528
-0.0110942
-0.00962683
-0.0121313
-0.0103605
-0.0108791
-0.0116128
-0.0110942
-0.0121313
-0.0125804
-0.0116128
-0.0123559
-0.0118373
-0.0110942
-0.00999291
-0.00962683
-0.0105436
-0.00980987
-0.0103605
-0.0110942
-0.0125804
-0.00999291
-0.0118373
-0.0112867
-0.0105436
-0.0135224
-0.0121313
-0.0144434
-0.0128269
-0.0132874
-0.0139829
-0.0135224
-0.0125804
-0.0121313
-0.0130514
-0.0123559
-0.0128269
-0.0135224
-0.0144434
-0.0149284
-0.0139829
-0.0146859
-0.0142254
-0.0135224
-0.0149284
-0.0125804
-0.0142254
-0.0137544
-0.0130514
-0.0177428
-0.0184603
-0.0165529
-0.0181016
-0.0175066
-0.0171479
-0.0177428
-0.0165529
-0.0170478
-0.0171479
-0.0168004
-0.0173953
-0.0177428
-0.0189553
-0.0184603
-0.018349
-0.0187078
-0.0181016
-0.0177428
-0.0170478
-0.0189553
-0.0173953
-0.0180016
-0.018349
-0.0173513
-0.0165529
-0.0184603
-0.0169521
-0.0175066
-0.0179058
-0.0173513
-0.0162606
-0.0165529
-0.016806
-0.0164068
-0.0169521
-0.0173513
-0.0184603
-0.0181635
-0.0179058
-0.0183119
-0.0177574
-0.0173513
-0.0181635
-0.0162606
-0.0177574
-0.0172121
-0.016806
-0.0195485
-0.0184603
-0.0189553
-0.0190044
-0.0187078
-0.0192519
-0.0195485
-0.0189553
-0.0206655
-0.0192519
-0.0198104
-0.020107
-0.0195485
-0.0201693
-0.0184603
-0.0198589
-0.0193148
-0.0190044
-0.0195485
-0.0206655
-0.0201693
-0.020107
-0.0204174
-0.0198589
-0.0201375
-0.0189553
-0.0196464
-0.0195464
-0.0193008
-0.0198919
-0.0201375
-0.0206655
-0.0189553
-0.0204015
-0.0198104
-0.0195464
-0.0201375
-0.0196464
-0.0213483
-0.0198919
-0.0204973
-0.0207429
-0.0201375
-0.0213483
-0.0206655
-0.0207429
-0.0210069
-0.0204015
-0.0171567
-0.0180646
-0.0161641
-0.0176107
-0.0171143
-0.0166604
-0.0171567
-0.0161641
-0.0162606
-0.0166604
-0.0162124
-0.0167087
-0.0171567
-0.0181635
-0.0180646
-0.0176601
-0.018114
-0.0176107
-0.0171567
-0.0162606
-0.0181635
-0.0167087
-0.0172121
-0.0176601
-0.0171567
-0.0161641
-0.0180646
-0.0166604
-0.0171143
-0.0176107
-0.0171567
-0.0162606
-0.0161641
-0.0167087
-0.0162124
-0.0166604
-0.0171567
-0.0180646
-0.0181635
-0.0176107
-0.018114
-0.0176601
-0.0171567
-0.0181635
-0.0162606
-0.0176601
-0.0172121
-0.0167087
-0.0191532
-0.0181635
-0.0184603
-0.0186583
-0.0183119
-0.0188068
-0.0191532
-0.0198684
-0.0181635
-0.0195108
-0.0190159
-0.0186583
-0.0191532
-0.0184603
-0.0201693
-0.0188068
-0.0193148
-0.0196612
-0.0191532
-0.0201693
-0.0198684
-0.0196612
-0.0200188
-0.0195108
-0.0189549
-0.0180646
-0.0181635
-0.0185097
-0.018114
-0.0185592
-0.0189549
-0.0181635
-0.0198684
-0.0185592
-0.0190159
-0.0194116
-0.0189549
-0.0197676
-0.0180646
-0.0193612
-0.0189161
-0.0185097
-0.0189549
-0.0198684
-0.0197676
-0.0194116
-0.019818
-0.0193612
-0.0205546
-0.0212683
-0.0197676
-0.0209114
-0.0205179
-0.0201611
-0.0205546
-0.0197676
-0.0198684
-0.0201611
-0.019818
-0.0202115
-0.0205546
-0.0213724
-0.0212683
-0.0209635
-0.0213204
-0.0209114
-0.0205546
-0.0198684
-0.0213724
-0.0202115
-0.0206204
-0.0209635
-0.0205546
-0.0197676
-0.0212683
-0.0201611
-0.0205179
-0.0209114
-0.0205546
-0.0198684
-0.0197676
-0.0202115
-0.019818
-0.0201611
-0.0205546
-0.0212683
-0.0213724
-0.0209114
-0.0213204
-0.0209635
-0.0205546
-0.0213724
-0.0198684
-0.0209635
-0.0206204
-0.0202115
-0.0189549
-0.0180646
-0.0197676
-0.0185097
-0.0189161
-0.0193612
-0.0189549
-0.0197676
-0.0198684
-0.0193612
-0.019818
-0.0194116
-0.0189549
-0.0181635
-0.0180646
-0.0185592
-0.018114
-0.0185097
-0.0189549
-0.0198684
-0.0181635
-0.0194116
-0.0190159
-0.0185592
-0.0207579
-0.021682
-0.0213724
-0.02122
-0.0215272
-0.0210652
-0.0207579
-0.0213724
-0.0198684
-0.0210652
-0.0206204
-0.0203131
-0.0207579
-0.0201693
-0.021682
-0.0204636
-0.0209256
-0.02122
-0.0207579
-0.0198684
-0.0201693
-0.0203131
-0.0200188
-0.0204636
-0.0219507
-0.0212683
-0.0213724
-0.0216095
-0.0213204
-0.0216616
-0.0219507
-0.0213724
-0.0226698
-0.0216616
-0.0220211
-0.0223103
-0.0219507
-0.0225594
-0.0212683
-0.0222551
-0.0219138
-0.0216095
-0.0219507
-0.0226698
-0.0225594
-0.0223103
-0.0226146
-0.0222551
-0.0221633
-0.0213724
-0.021682
-0.0217679
-0.0215272
-0.0219226
-0.0221633
-0.0226698
-0.0213724
-0.0224166
-0.0220211
-0.0217679
-0.0221633
-0.021682
-0.0229968
-0.0219226
-0.0223394
-0.0225801
-0.0221633
-0.0229968
-0.0226698
-0.0225801
-0.0228333
-0.0224166
-0.0211604
-0.021682
-0.0201693
-0.0214212
-0.0209256
-0.0206649
-0.0211604
-0.0201693
-0.0206655
-0.0206649
-0.0204174
-0.020913
-0.0211604
-0.0221881
-0.021682
-0.0216743
-0.021935
-0.0214212
-0.0211604
-0.0206655
-0.0221881
-0.020913
-0.0214268
-0.0216743
-0.0191532
-0.0184603
-0.0181635
-0.0188068
-0.0183119
-0.0186583
-0.0191532
-0.0181635
-0.0198684
-0.0186583
-0.0190159
-0.0195108
-0.0191532
-0.0201693
-0.0184603
-0.0196612
-0.0193148
-0.0188068
-0.0191532
-0.0198684
-0.0201693
-0.0195108
-0.0200188
-0.0196612
-0.0173513
-0.0181635
-0.0184603
-0.0177574
-0.0183119
-0.0179058
-0.0173513
-0.0162606
-0.0181635
-0.016806
-0.0172121
-0.0177574
-0.0173513
-0.0184603
-0.0165529
-0.0179058
-0.0175066
-0.0169521
-0.0173513
-0.0165529
-0.0162606
-0.0169521
-0.0164068
-0.016806
-0.0207579
-0.0213724
-0.021682
-0.0210652
-0.0215272
-0.02122
-0.0207579
-0.0198684
-0.0213724
-0.0203131
-0.0206204
-0.0210652
-0.0207579
-0.021682
-0.0201693
-0.02122
-0.0209256
-0.0204636
-0.0207579
-0.0201693
-0.0198684
-0.0204636
-0.0200188
-0.0203131
-0.0219507
-0.0213724
-0.0212683
-0.0216616
-0.0213204
-0.0216095
-0.0219507
-0.0226698
-0.0213724
-0.0223103
-0.0220211
-0.0216616
-0.0219507
-0.0212683
-0.0225594
-0.0216095
-0.0219138
-0.0222551
-0.0219507
-0.0225594
-0.0226698
-0.0222551
-0.0226146
-0.0223103
-0.0221633
-0.021682
-0.0213724
-0.0219226
-0.0215272
-0.0217679
-0.0221633
-0.0213724
-0.0226698
-0.0217679
-0.0220211
-0.0224166
-0.0221633
-0.0229968
-0.021682
-0.0225801
-0.0223394
-0.0219226
-0.0221633
-0.0226698
-0.0229968
-0.0224166
-0.0228333
-0.0225801
-0.0195485
-0.0184603
-0.0201693
-0.0190044
-0.0193148
-0.0198589
-0.0195485
-0.0201693
-0.0206655
-0.0198589
-0.0204174
-0.020107
-0.0195485
-0.0189553
-0.0184603
-0.0192519
-0.0187078
-0.0190044
-0.0195485
-0.0206655
-0.0189553
-0.020107
-0.0198104
-0.0192519
-0.0211604
-0.0201693
-0.021682
-0.0206649
-0.0209256
-0.0214212
-0.0211604
-0.0206655
-0.0201693
-0.020913
-0.0204174
-0.0206649
-0.0211604
-0.021682
-0.0221881
-0.0214212
-0.021935
-0.0216743
-0.0211604
-0.0221881
-0.0206655
-0.0216743
-0.0214268
-0.020913
-0.0177428
-0.0165529
-0.0184603
-0.0171479
-0.0175066
-0.0181016
-0.0177428
-0.0170478
-0.0165529
-0.0173953
-0.0168004
-0.0171479
-0.0177428
-0.0184603
-0.0189553
-0.0181016
-0.0187078
-0.018349
-0.0177428
-0.0189553
-0.0170478
-0.018349
-0.0180016
-0.0173953
-0.0157368
-0.0144434
-0.0165529
-0.0150901
-0.0154982
-0.0161449
-0.0157368
-0.0165529
-0.0170478
-0.0161449
-0.0168004
-0.0163923
-0.0157368
-0.0149284
-0.0144434
-0.0153326
-0.0146859
-0.0150901
-0.0157368
-0.0170478
-0.0149284
-0.0163923
-0.0159881
-0.0153326
-0.0217534
-0.0228761
-0.0221881
-0.0223148
-0.0225321
-0.0219708
-0.0217534
-0.0221881
-0.0206655
-0.0219708
-0.0214268
-0.0212095
-0.0217534
-0.0213483
-0.0228761
-0.0215509
-0.0221122
-0.0223148
-0.0217534
-0.0206655
-0.0213483
-0.0212095
-0.0210069
-0.0215509
-0.0231921
-0.0221881
-0.0228761
-0.0226901
-0.0225321
-0.0230341
-0.0231921
-0.0235276
-0.0221881
-0.0233598
-0.0228579
-0.0226901
-0.0231921
-0.0228761
-0.024241
-0.0230341
-0.0235586
-0.0237165
-0.0231921
-0.024241
-0.0235276
-0.0237165
-0.0238843
-0.0233598
-0.0225816
-0.021682
-0.0221881
-0.0221318
-0.021935
-0.0223849
-0.0225816
-0.0221881
-0.0235276
-0.0223849
-0.0228579
-0.0230546
-0.0225816
-0.0229968
-0.021682
-0.0227892
-0.0223394
-0.0221318
-0.0225816
-0.0235276
-0.0229968
-0.0230546
-0.0232622
-0.0227892
-0.0225235
-0.0228761
-0.0213483
-0.0226998
-0.0221122
-0.0219359
-0.0225235
-0.0213483
-0.0222041
-0.0219359
-0.0217762
-0.0223638
-0.0225235
-0.0237264
-0.0228761
-0.023125
-0.0233013
-0.0226998
-0.0225235
-0.0222041
-0.0237264
-0.0223638
-0.0229653
-0.023125
-0.0233625
-0.0229968
-0.024106
-0.0231797
-0.0235514
-0.0237343
-0.0233625
-0.0226698
-0.0229968
-0.0230162
-0.0228333
-0.0231797
-0.0233625
-0.024106
-0.0237487
-0.0237343
-0.0239273
-0.0235556
-0.0233625
-0.0237487
-0.0226698
-0.0235556
-0.0232093
-0.0230162
-0.0238103
-0.024106
-0.0229968
-0.0239582
-0.0235514
-0.0234036
-0.0238103
-0.0229968
-0.0235276
-0.0234036
-0.0232622
-0.023669
-0.0238103
-0.0246829
-0.024106
-0.0242466
-0.0243944
-0.0239582
-0.0238103
-0.0235276
-0.0246829
-0.023669
-0.0241052
-0.0242466
-0.023134
-0.0236278
-0.0225594
-0.0233809
-0.0230936
-0.0228467
-0.023134
-0.0225594
-0.0226698
-0.0228467
-0.0226146
-0.0229019
-0.023134
-0.0237487
-0.0236278
-0.0234413
-0.0236882
-0.0233809
-0.023134
-0.0226698
-0.0237487
-0.0229019
-0.0232093
-0.0234413
-0.023134
-0.0225594
-0.0236278
-0.0228467
-0.0230936
-0.0233809
-0.023134
-0.0226698
-0.0225594
-0.0229019
-0.0226146
-0.0228467
-0.023134
-0.0236278
-0.0237487
-0.0233809
-0.0236882
-0.0234413
-0.023134
-0.0237487
-0.0226698
-0.0234413
-0.0232093
-0.0229019
-0.024342
-0.0237487
-0.024106
-0.0240454
-0.0239273
-0.024224
-0.024342
-0.0245887
-0.0237487
-0.0244654
-0.0241687
-0.0240454
-0.024342
-0.024106
-0.0249928
-0.024224
-0.0245494
-0.0246674
-0.024342
-0.0249928
-0.0245887
-0.0246674
-0.0247908
-0.0244654
-0.0240882
-0.0236278
-0.0237487
-0.023858
-0.0236882
-0.0239185
-0.0240882
-0.0237487
-0.0245887
-0.0239185
-0.0241687
-0.0243385
-0.0240882
-0.024452
-0.0236278
-0.0242701
-0.0240399
-0.023858
-0.0240882
-0.0245887
-0.024452
-0.0243385
-0.0245204
-0.0242701
-0.0244585
-0.024241
-0.0254505
-0.0243497
-0.0248458
-0.0249545
-0.0244585
-0.0235276
-0.024241
-0.0239931
-0.0238843
-0.0243497
-0.0244585
-0.0254505
-0.0246829
-0.0249545
-0.0250667
-0.0245707
-0.0244585
-0.0246829
-0.0235276
-0.0245707
-0.0241052
-0.0239931
-0.0239744
-0.024241
-0.0228761
-0.0241077
-0.0235586
-0.0234252
-0.0239744
-0.0251089
-0.024241
-0.0245416
-0.0246749
-0.0241077
-0.0239744
-0.0228761
-0.0237264
-0.0234252
-0.0233013
-0.0238504
-0.0239744
-0.0237264
-0.0251089
-0.0238504
-0.0244176
-0.0245416
-0.0252785
-0.0254505
-0.024241
-0.0253645
-0.0248458
-0.0247597
-0.0252785
-0.024241
-0.0251089
-0.0247597
-0.0246749
-0.0251937
-0.0252785
-0.0263686
-0.0254505
-0.0258235
-0.0259096
-0.0253645
-0.0252785
-0.0251089
-0.0263686
-0.0251937
-0.0257387
-0.0258235
-0.0248382
-0.024106
-0.0246829
-0.0244721
-0.0243944
-0.0247605
-0.0248382
-0.0246829
-0.0256445
-0.0247605
-0.0251637
-0.0252414
-0.0248382
-0.0249928
-0.024106
-0.0249155
-0.0245494
-0.0244721
-0.0248382
-0.0256445
-0.0249928
-0.0252414
-0.0253187
-0.0249155
-0.0255527
-0.0246829
-0.0254505
-0.0251178
-0.0250667
-0.0255016
-0.0255527
-0.0256445
-0.0246829
-0.0255986
-0.0251637
-0.0251178
-0.0255527
-0.0254505
-0.0265077
-0.0255016
-0.0259791
-0.0260302
-0.0255527
-0.0265077
-0.0256445
-0.0260302
-0.0260761
-0.0255986
-0.0234527
-0.0247172
-0.0237264
-0.0240849
-0.0242218
-0.0235896
-0.0234527
-0.0237264
-0.0222041
-0.0235896
-0.0229653
-0.0228284
-0.0234527
-0.0232149
-0.0247172
-0.0233338
-0.023966
-0.0240849
-0.0234527
-0.0222041
-0.0232149
-0.0228284
-0.0227095
-0.0233338
-0.0249032
-0.0237264
-0.0247172
-0.0243148
-0.0242218
-0.0248102
-0.0249032
-0.0251089
-0.0237264
-0.025006
-0.0244176
-0.0243148
-0.0249032
-0.0247172
-0.0261003
-0.0248102
-0.0254087
-0.0255018
-0.0249032
-0.0261003
-0.0251089
-0.0255018
-0.0256046
-0.025006
-0.0245206
-0.0247172
-0.0232149
-0.0246189
-0.023966
-0.0238678
-0.0245206
-0.0232149
-0.024361
-0.0238678
-0.0237879
-0.0244408
-0.0245206
-0.0258293
-0.0247172
-0.025175
-0.0252732
-0.0246189
-0.0245206
-0.024361
-0.0258293
-0.0244408
-0.0250952
-0.025175
-0.0163293
-0.0156434
-0.0149284
-0.0159864
-0.0152859
-0.0156289
-0.0163293
-0.0149284
-0.0170478
-0.0156289
-0.0159881
-0.0166886
-0.0163293
-0.0177536
-0.0156434
-0.0170415
-0.0166985
-0.0159864
-0.0163293
-0.0170478
-0.0177536
-0.0166886
-0.0174007
-0.0170415
-0.0141005
-0.0149284
-0.0156434
-0.0145145
-0.0152859
-0.014872
-0.0141005
-0.0125804
-0.0149284
-0.0133404
-0.0137544
-0.0145145
-0.0141005
-0.0156434
-0.0132733
-0.014872
-0.0144584
-0.0136869
-0.0141005
-0.0132733
-0.0125804
-0.0136869
-0.0129268
-0.0133404
-0.0183345
-0.0196464
-0.0177536
-0.0189904
-0.0187
-0.0180441
-0.0183345
-0.0177536
-0.0170478
-0.0180441
-0.0174007
-0.0176912
-0.0183345
-0.0189553
-0.0196464
-0.0186449
-0.0193008
-0.0189904
-0.0183345
-0.0170478
-0.0189553
-0.0176912
-0.0180016
-0.0186449
-0.0171457
-0.0156434
-0.0177536
-0.0163946
-0.0166985
-0.0174497
-0.0171457
-0.0177536
-0.0186734
-0.0174497
-0.0182135
-0.0179096
-0.0171457
-0.0166133
-0.0156434
-0.0168795
-0.0161284
-0.0163946
-0.0171457
-0.0186734
-0.0166133
-0.0179096
-0.0176434
-0.0168795
-0.0191282
-0.0177536
-0.0196464
-0.0184409
-0.0187
-0.0193873
-0.0191282
-0.0186734
-0.0177536
-0.0189008
-0.0182135
-0.0184409
-0.0191282
-0.0196464
-0.0205261
-0.0193873
-0.0200862
-0.0198272
-0.0191282
-0.0205261
-0.0186734
-0.0198272
-0.0195998
-0.0189008
-0.0201375
-0.0196464
-0.0189553
-0.0198919
-0.0193008
-0.0195464
-0.0201375
-0.0189553
-0.0206655
-0.0195464
-0.0198104
-0.0204015
-0.0201375
-0.0213483
-0.0196464
-0.0207429
-0.0204973
-0.0198919
-0.0201375
-0.0206655
-0.0213483
-0.0204015
-0.0210069
-0.0207429
-0.01162
-0.0132733
-0.0105949
-0.0124467
-0.0119341
-0.0111074
-0.01162
-0.0125804
-0.0132733
-0.0121002
-0.0129268
-0.0124467
-0.01162
-0.0105949
-0.00999291
-0.0111074
-0.0102939
-0.0108065
-0.01162
-0.00999291
-0.0125804
-0.0108065
-0.0112867
-0.0121002
-0.014929
-0.0132733
-0.0156434
-0.0141012
-0.0144584
-0.0152862
-0.014929
-0.014283
-0.0132733
-0.014606
-0.0137781
-0.0141012
-0.014929
-0.0156434
-0.0166133
-0.0152862
-0.0161284
-0.0157712
-0.014929
-0.0166133
-0.014283
-0.0157712
-0.0154481
-0.014606
-0.0124235
-0.0105949
-0.0132733
-0.0115092
-0.0119341
-0.0128484
-0.0124235
-0.0132733
-0.014283
-0.0128484
-0.0137781
-0.0133532
-0.0124235
-0.011545
-0.0105949
-0.0119843
-0.0110699
-0.0115092
-0.0124235
-0.014283
-0.011545
-0.0133532
-0.012914
-0.0119843
-0.00886402
-0.00999291
-0.0105949
-0.00942846
-0.0102939
-0.00972944
-0.00886402
-0.00718279
-0.00999291
-0.0080234
-0.00858785
-0.00942846
-0.00886402
-0.0105949
-0.0075756
-0.00972944
-0.00908523
-0.00821981
-0.00886402
-0.0075756
-0.00718279
-0.00821981
-0.0073792
-0.0080234
-0.0217534
-0.0221881
-0.0228761
-0.0219708
-0.0225321
-0.0223148
-0.0217534
-0.0206655
-0.0221881
-0.0212095
-0.0214268
-0.0219708
-0.0217534
-0.0228761
-0.0213483
-0.0223148
-0.0221122
-0.0215509
-0.0217534
-0.0213483
-0.0206655
-0.0215509
-0.0210069
-0.0212095
-0.0231921
-0.0228761
-0.0221881
-0.0230341
-0.0225321
-0.0226901
-0.0231921
-0.0221881
-0.0235276
-0.0226901
-0.0228579
-0.0233598
-0.0231921
-0.024241
-0.0228761
-0.0237165
-0.0235586
-0.0230341
-0.0231921
-0.0235276
-0.024241
-0.0233598
-0.0238843
-0.0237165
-0.0225816
-0.0221881
-0.021682
-0.0223849
-0.021935
-0.0221318
-0.0225816
-0.0235276
-0.0221881
-0.0230546
-0.0228579
-0.0223849
-0.0225816
-0.021682
-0.0229968
-0.0221318
-0.0223394
-0.0227892
-0.0225816
-0.0229968
-0.0235276
-0.0227892
-0.0232622
-0.0230546
-0.0225235
-0.0213483
-0.0228761
-0.0219359
-0.0221122
-0.0226998
-0.0225235
-0.0222041
-0.0213483
-0.0223638
-0.0217762
-0.0219359
-0.0225235
-0.0228761
-0.0237264
-0.0226998
-0.0233013
-0.023125
-0.0225235
-0.0237264
-0.0222041
-0.023125
-0.0229653
-0.0223638
-0.0209133
-0.0196464
-0.0213483
-0.0202798
-0.0204973
-0.0211308
-0.0209133
-0.0213483
-0.0222041
-0.0211308
-0.0217762
-0.0215587
-0.0209133
-0.0205261
-0.0196464
-0.0207197
-0.0200862
-0.0202798
-0.0209133
-0.0222041
-0.0205261
-0.0215587
-0.0213651
-0.0207197
-0.0233625
-0.024106
-0.0229968
-0.0237343
-0.0235514
-0.0231797
-0.0233625
-0.0229968
-0.0226698
-0.0231797
-0.0228333
-0.0230162
-0.0233625
-0.0237487
-0.024106
-0.0235556
-0.0239273
-0.0237343
-0.0233625
-0.0226698
-0.0237487
-0.0230162
-0.0232093
-0.0235556
-0.0238103
-0.0229968
-0.024106
-0.0234036
-0.0235514
-0.0239582
-0.0238103
-0.0235276
-0.0229968
-0.023669
-0.0232622
-0.0234036
-0.0238103
-0.024106
-0.0246829
-0.0239582
-0.0243944
-0.0242466
-0.0238103
-0.0246829
-0.0235276
-0.0242466
-0.0241052
-0.023669
-0.024342
-0.024106
-0.0237487
-0.024224
-0.0239273
-0.0240454
-0.024342
-0.0237487
-0.0245887
-0.0240454
-0.0241687
-0.0244654
-0.024342
-0.0249928
-0.024106
-0.0246674
-0.0245494
-0.024224
-0.024342
-0.0245887
-0.0249928
-0.0244654
-0.0247908
-0.0246674
-0.0240882
-0.0237487
-0.0236278
-0.0239185
-0.0236882
-0.023858
-0.0240882
-0.0245887
-0.0237487
-0.0243385
-0.0241687
-0.0239185
-0.0240882
-0.0236278
-0.024452
-0.023858
-0.0240399
-0.0242701
-0.0240882
-0.024452
-0.0245887
-0.0242701
-0.0245204
-0.0243385
-0.0244585
-0.0254505
-0.024241
-0.0249545
-0.0248458
-0.0243497
-0.0244585
-0.024241
-0.0235276
-0.0243497
-0.0238843
-0.0239931
-0.0244585
-0.0246829
-0.0254505
-0.0245707
-0.0250667
-0.0249545
-0.0244585
-0.0235276
-0.0246829
-0.0239931
-0.0241052
-0.0245707
-0.0239744
-0.0228761
-0.024241
-0.0234252
-0.0235586
-0.0241077
-0.0239744
-0.024241
-0.0251089
-0.0241077
-0.0246749
-0.0245416
-0.0239744
-0.0237264
-0.0228761
-0.0238504
-0.0233013
-0.0234252
-0.0239744
-0.0251089
-0.0237264
-0.0245416
-0.0244176
-0.0238504
-0.0252785
-0.024241
-0.0254505
-0.0247597
-0.0248458
-0.0253645
-0.0252785
-0.0251089
-0.024241
-0.0251937
-0.0246749
-0.0247597
-0.0252785
-0.0254505
-0.0263686
-0.0253645
-0.0259096
-0.0258235
-0.0252785
-0.0263686
-0.0251089
-0.0258235
-0.0257387
-0.0251937
-0.0248382
-0.0246829
-0.024106
-0.0247605
-0.0243944
-0.0244721
-0.0248382
-0.0256445
-0.0246829
-0.0252414
-0.0251637
-0.0247605
-0.0248382
-0.024106
-0.0249928
-0.0244721
-0.0245494
-0.0249155
-0.0248382
-0.0249928
-0.0256445
-0.0249155
-0.0253187
-0.0252414
-0.0255527
-0.0254505
-0.0246829
-0.0255016
-0.0250667
-0.0251178
-0.0255527
-0.0246829
-0.0256445
-0.0251178
-0.0251637
-0.0255986
-0.0255527
-0.0265077
-0.0254505
-0.0260302
-0.0259791
-0.0255016
-0.0255527
-0.0256445
-0.0265077
-0.0255986
-0.0260761
-0.0260302
-0.0201188
-0.0205261
-0.021578
-0.0203225
-0.0210521
-0.0208484
-0.0201188
-0.0186734
-0.0205261
-0.0193961
-0.0195998
-0.0203225
-0.0201188
-0.021578
-0.0197942
-0.0208484
-0.0206861
-0.0199565
-0.0201188
-0.0197942
-0.0186734
-0.0199565
-0.0192338
-0.0193961
-0.0218635
-0.021578
-0.0205261
-0.0217208
-0.0210521
-0.0211948
-0.0218635
-0.0205261
-0.0222041
-0.0211948
-0.0213651
-0.0220338
-0.0218635
-0.0232149
-0.021578
-0.0225392
-0.0223965
-0.0217208
-0.0218635
-0.0222041
-0.0232149
-0.0220338
-0.0227095
-0.0225392
-0.0181957
-0.0178422
-0.0166133
-0.018019
-0.0172278
-0.0174045
-0.0181957
-0.0166133
-0.0186734
-0.0174045
-0.0176434
-0.0184346
-0.0181957
-0.0197942
-0.0178422
-0.0189949
-0.0188182
-0.018019
-0.0181957
-0.0186734
-0.0197942
-0.0184346
-0.0192338
-0.0189949
-0.0160497
-0.0166133
-0.0178422
-0.0163315
-0.0172278
-0.0169459
-0.0160497
-0.014283
-0.0166133
-0.0151663
-0.0154481
-0.0163315
-0.0160497
-0.0178422
-0.0156648
-0.0169459
-0.0167535
-0.0158573
-0.0160497
-0.0156648
-0.014283
-0.0158573
-0.0149739
-0.0151663
-0.0212865
-0.0197942
-0.021578
-0.0205403
-0.0206861
-0.0214323
-0.0212865
-0.021077
-0.0197942
-0.0211817
-0.0204356
-0.0205403
-0.0212865
-0.021578
-0.0227757
-0.0214323
-0.0221769
-0.0220311
-0.0212865
-0.0227757
-0.021077
-0.0220311
-0.0219263
-0.0211817
-0.0194657
-0.0178422
-0.0197942
-0.018654
-0.0188182
-0.0196299
-0.0194657
-0.0197942
-0.021077
-0.0196299
-0.0204356
-0.0202713
-0.0194657
-0.019277
-0.0178422
-0.0193714
-0.0185596
-0.018654
-0.0194657
-0.021077
-0.019277
-0.0202713
-0.020177
-0.0193714
-0.0234527
-0.0237264
-0.0247172
-0.0235896
-0.0242218
-0.0240849
-0.0234527
-0.0222041
-0.0237264
-0.0228284
-0.0229653
-0.0235896
-0.0234527
-0.0247172
-0.0232149
-0.0240849
-0.023966
-0.0233338
-0.0234527
-0.0232149
-0.0222041
-0.0233338
-0.0227095
-0.0228284
-0.0249032
-0.0247172
-0.0237264
-0.0248102
-0.0242218
-0.0243148
-0.0249032
-0.0237264
-0.0251089
-0.0243148
-0.0244176
-0.025006
-0.0249032
-0.0261003
-0.0247172
-0.0255018
-0.0254087
-0.0248102
-0.0249032
-0.0251089
-0.0261003
-0.025006
-0.0256046
-0.0255018
-0.0229686
-0.021578
-0.0232149
-0.0222733
-0.0223965
-0.0230917
-0.0229686
-0.0232149
-0.024361
-0.0230917
-0.0237879
-0.0236648
-0.0229686
-0.0227757
-0.021578
-0.0228721
-0.0221769
-0.0222733
-0.0229686
-0.024361
-0.0227757
-0.0236648
-0.0235683
-0.0228721
-0.0245206
-0.0232149
-0.0247172
-0.0238678
-0.023966
-0.0246189
-0.0245206
-0.024361
-0.0232149
-0.0244408
-0.0237879
-0.0238678
-0.0245206
-0.0247172
-0.0258293
-0.0246189
-0.0252732
-0.025175
-0.0245206
-0.0258293
-0.024361
-0.025175
-0.0250952
-0.0244408
-0.00584154
-0.00428457
-0.00421248
-0.00506306
-0.00424853
-0.00502701
-0.00584154
-0.00421248
-0.00718279
-0.00502701
-0.00569763
-0.00651216
-0.00584154
-0.0075756
-0.00428457
-0.00670857
-0.00593009
-0.00506306
-0.00584154
-0.00718279
-0.0075756
-0.00651216
-0.0073792
-0.00670857
-0.00621152
-0.00428457
-0.0075756
-0.00524805
-0.00593009
-0.00689356
-0.00621152
-0.0075756
-0.00828857
-0.00689356
-0.00793209
-0.00725005
-0.00621152
-0.00445969
-0.00428457
-0.00533561
-0.00437213
-0.00524805
-0.00621152
-0.00828857
-0.00445969
-0.00725005
-0.00637413
-0.00533561
-0.00954045
-0.0075756
-0.0105949
-0.00855802
-0.00908523
-0.0100677
-0.00954045
-0.00828857
-0.0075756
-0.00891451
-0.00793209
-0.00855802
-0.00954045
-0.0105949
-0.011545
-0.0100677
-0.0110699
-0.0105427
-0.00954045
-0.011545
-0.00828857
-0.0105427
-0.0099168
-0.00891451
-0.0135894
-0.0131111
-0.011545
-0.0133502
-0.0123281
-0.0125672
-0.0135894
-0.011545
-0.014283
-0.0125672
-0.012914
-0.0139362
-0.0135894
-0.0156648
-0.0131111
-0.0146271
-0.014388
-0.0133502
-0.0135894
-0.014283
-0.0156648
-0.0139362
-0.0149739
-0.0146271
-0.0106903
-0.011545
-0.0131111
-0.0111177
-0.0123281
-0.0119007
-0.0106903
-0.00828857
-0.011545
-0.00948945
-0.0099168
-0.0111177
-0.0106903
-0.0131111
-0.00951952
-0.0119007
-0.0113153
-0.0101049
-0.0106903
-0.00951952
-0.00828857
-0.0101049
-0.00890405
-0.00948945
-0.0152414
-0.0131111
-0.0156648
-0.0141762
-0.014388
-0.0154531
-0.0152414
-0.0156648
-0.0173841
-0.0154531
-0.0165245
-0.0163127
-0.0152414
-0.0153702
-0.0131111
-0.0153058
-0.0142406
-0.0141762
-0.0152414
-0.0173841
-0.0153702
-0.0163127
-0.0163771
-0.0153058
-0.0174828
-0.0156648
-0.0178422
-0.0165738
-0.0167535
-0.0176625
-0.0174828
-0.0173841
-0.0156648
-0.0174335
-0.0165245
-0.0165738
-0.0174828
-0.0178422
-0.019277
-0.0176625
-0.0185596
-0.0183799
-0.0174828
-0.019277
-0.0173841
-0.0183799
-0.0183306
-0.0174335
-0.00697269
-0.00492037
-0.00445969
-0.00594653
-0.00469003
-0.00571619
-0.00697269
-0.00445969
-0.00828857
-0.00571619
-0.00637413
-0.00763063
-0.00697269
-0.00951952
-0.00492037
-0.0082461
-0.00721995
-0.00594653
-0.00697269
-0.00828857
-0.00951952
-0.00763063
-0.00890405
-0.0082461
-0.0124749
-0.00951952
-0.0131111
-0.0109972
-0.0113153
-0.012793
-0.0124749
-0.0129233
-0.00951952
-0.0126991
-0.0112214
-0.0109972
-0.0124749
-0.0131111
-0.0153702
-0.012793
-0.0142406
-0.0139225
-0.0124749
-0.0153702
-0.0129233
-0.0139225
-0.0141467
-0.0126991
-0.00915299
-0.00492037
-0.00951952
-0.00703668
-0.00721995
-0.00933625
-0.00915299
-0.00951952
-0.0129233
-0.00933625
-0.0112214
-0.0110382
-0.00915299
-0.00508661
-0.00492037
-0.0071198
-0.00500349
-0.00703668
-0.00915299
-0.0129233
-0.00508661
-0.0110382
-0.00900497
-0.0071198
-0.0257092
-0.0256269
-0.0270533
-0.025668
-0.0263401
-0.0263812
-0.0257092
-0.024361
-0.0256269
-0.0250351
-0.024994
-0.025668
-0.0257092
-0.0270533
-0.0258293
-0.0263812
-0.0264413
-0.0257692
-0.0257092
-0.0258293
-0.024361
-0.0257692
-0.0250952
-0.0250351
-0.0271031
-0.0258293
-0.0270533
-0.0264662
-0.0264413
-0.0270782
-0.0271031
-0.0271894
-0.0258293
-0.0271463
-0.0265093
-0.0264662
-0.0271031
-0.0270533
-0.0283653
-0.0270782
-0.0277093
-0.0277342
-0.0271031
-0.0283653
-0.0271894
-0.0277342
-0.0277774
-0.0271463
-0.0259526
-0.0247172
-0.0258293
-0.0253349
-0.0252732
-0.0258909
-0.0259526
-0.0258293
-0.0271894
-0.0258909
-0.0265093
-0.026571
-0.0259526
-0.0261003
-0.0247172
-0.0260264
-0.0254087
-0.0253349
-0.0259526
-0.0271894
-0.0261003
-0.026571
-0.0266449
-0.0260264
-0.0272842
-0.0273892
-0.0261003
-0.0273367
-0.0267448
-0.0266922
-0.0272842
-0.0261003
-0.0271894
-0.0266922
-0.0266449
-0.0272368
-0.0272842
-0.0284683
-0.0273892
-0.0278762
-0.0279288
-0.0273367
-0.0272842
-0.0271894
-0.0284683
-0.0272368
-0.0278289
-0.0278762
-0.0262336
-0.0261003
-0.0273892
-0.0261669
-0.0267448
-0.0268114
-0.0262336
-0.0251089
-0.0261003
-0.0256712
-0.0256046
-0.0261669
-0.0262336
-0.0273892
-0.0263686
-0.0268114
-0.0268789
-0.0263011
-0.0262336
-0.0263686
-0.0251089
-0.0263011
-0.0257387
-0.0256712
-0.0283996
-0.0283653
-0.029583
-0.0283825
-0.0289742
-0.0289913
-0.0283996
-0.0271894
-0.0283653
-0.0277945
-0.0277774
-0.0283825
-0.0283996
-0.029583
-0.0284683
-0.0289913
-0.0290257
-0.028434
-0.0283996
-0.0284683
-0.0271894
-0.028434
-0.0278289
-0.0277945
-0.0285523
-0.0273892
-0.0284683
-0.0279708
-0.0279288
-0.0285103
-0.0285523
-0.0284683
-0.0297207
-0.0285103
-0.0290945
-0.0291365
-0.0285523
-0.0286244
-0.0273892
-0.0285884
-0.0280068
-0.0279708
-0.0285523
-0.0297207
-0.0286244
-0.0291365
-0.0291726
-0.0285884
-0.0296386
-0.0284683
-0.029583
-0.0290535
-0.0290257
-0.0296108
-0.0296386
-0.0297207
-0.0284683
-0.0296797
-0.0290945
-0.0290535
-0.0296386
-0.029583
-0.0307591
-0.0296108
-0.0301711
-0.0301989
-0.0296386
-0.0307591
-0.0297207
-0.0301989
-0.0302399
-0.0296797
-0.0274686
-0.0263686
-0.0273892
-0.0269186
-0.0268789
-0.0274289
-0.0274686
-0.0275262
-0.0263686
-0.0274974
-0.0269474
-0.0269186
-0.0274686
-0.0273892
-0.0286244
-0.0274289
-0.0280068
-0.0280465
-0.0274686
-0.0286244
-0.0275262
-0.0280465
-0.0280753
-0.0274974
-0.0264472
-0.0254505
-0.0263686
-0.0259489
-0.0259096
-0.0264079
-0.0264472
-0.0263686
-0.0275262
-0.0264079
-0.0269474
-0.0269867
-0.0264472
-0.0265077
-0.0254505
-0.0264774
-0.0259791
-0.0259489
-0.0264472
-0.0275262
-0.0265077
-0.0269867
-0.0270169
-0.0264774
-0.026466
-0.0265077
-0.0274046
-0.0264868
-0.0269561
-0.0269353
-0.026466
-0.0256445
-0.0265077
-0.0260553
-0.0260761
-0.0264868
-0.026466
-0.0274046
-0.0263902
-0.0269353
-0.0268974
-0.0264281
-0.026466
-0.0263902
-0.0256445
-0.0264281
-0.0260174
-0.0260553
-0.0274883
-0.0274046
-0.0265077
-0.0274464
-0.0269561
-0.026998
-0.0274883
-0.0265077
-0.0275262
-0.026998
-0.0270169
-0.0275073
-0.0274883
-0.0286014
-0.0274046
-0.0280449
-0.028003
-0.0274464
-0.0274883
-0.0275262
-0.0286014
-0.0275073
-0.0280638
-0.0280449
-0.0256471
-0.0263902
-0.0256285
-0.0260186
-0.0260094
-0.0256378
-0.0256471
-0.0256445
-0.0263902
-0.0256458
-0.0260174
-0.0260186
-0.0256471
-0.0256285
-0.0249928
-0.0256378
-0.0253107
-0.02532
-0.0256471
-0.0249928
-0.0256445
-0.02532
-0.0253187
-0.0256458
-0.0271749
-0.0263902
-0.0274046
-0.0267825
-0.0268974
-0.0272897
-0.0271749
-0.0268767
-0.0263902
-0.0270258
-0.0266334
-0.0267825
-0.0271749
-0.0274046
-0.0281078
-0.0272897
-0.0277562
-0.0276414
-0.0271749
-0.0281078
-0.0268767
-0.0276414
-0.0274923
-0.0270258
-0.0262045
-0.0256285
-0.0263902
-0.0259165
-0.0260094
-0.0262974
-0.0262045
-0.0263902
-0.0268767
-0.0262974
-0.0266334
-0.0265406
-0.0262045
-0.0259685
-0.0256285
-0.0260865
-0.0257985
-0.0259165
-0.0262045
-0.0268767
-0.0259685
-0.0265406
-0.0264226
-0.0260865
-0.0250786
-0.0249928
-0.0256285
-0.0250357
-0.0253107
-0.0253536
-0.0250786
-0.0245887
-0.0249928
-0.0248337
-0.0247908
-0.0250357
-0.0250786
-0.0256285
-0.0251586
-0.0253536
-0.0253936
-0.0251186
-0.0250786
-0.0251586
-0.0245887
-0.0251186
-0.0248737
-0.0248337
-0.0286409
-0.029867
-0.0286014
-0.029254
-0.0292342
-0.0286212
-0.0286409
-0.0286014
-0.0275262
-0.0286212
-0.0280638
-0.0280836
-0.0286409
-0.0286244
-0.029867
-0.0286327
-0.0292457
-0.029254
-0.0286409
-0.0275262
-0.0286244
-0.0280836
-0.0280753
-0.0286327
-0.0283975
-0.0274046
-0.0286014
-0.027901
-0.028003
-0.0284994
-0.0283975
-0.0286014
-0.0295976
-0.0284994
-0.0290995
-0.0289975
-0.0283975
-0.0281078
-0.0274046
-0.0282526
-0.0277562
-0.027901
-0.0283975
-0.0295976
-0.0281078
-0.0289975
-0.0288527
-0.0282526
-0.029785
-0.0286014
-0.029867
-0.0291932
-0.0292342
-0.029826
-0.029785
-0.0295976
-0.0286014
-0.0296913
-0.0290995
-0.0291932
-0.029785
-0.029867
-0.0311944
-0.029826
-0.0305307
-0.0304897
-0.029785
-0.0311944
-0.0295976
-0.0304897
-0.030396
-0.0296913
-0.0298195
-0.029867
-0.0286244
-0.0298433
-0.0292457
-0.029222
-0.0298195
-0.0286244
-0.0297207
-0.029222
-0.0291726
-0.0297701
-0.0298195
-0.0310464
-0.029867
-0.030433
-0.0304567
-0.0298433
-0.0298195
-0.0297207
-0.0310464
-0.0297701
-0.0303836
-0.030433
-0.024788
-0.0249999
-0.024452
-0.024894
-0.024726
-0.02462
-0.024788
-0.024452
-0.0245887
-0.02462
-0.0245204
-0.0246884
-0.024788
-0.0251586
-0.0249999
-0.0249733
-0.0250793
-0.024894
-0.024788
-0.0245887
-0.0251586
-0.0246884
-0.0248737
-0.0249733
-0.024788
-0.024452
-0.0249999
-0.02462
-0.024726
-0.024894
-0.024788
-0.0245887
-0.024452
-0.0246884
-0.0245204
-0.02462
-0.024788
-0.0249999
-0.0251586
-0.024894
-0.0250793
-0.0249733
-0.024788
-0.0251586
-0.0245887
-0.0249733
-0.0248737
-0.0246884
-0.0251966
-0.0249999
-0.0251586
-0.0250982
-0.0250793
-0.0251776
-0.0251966
-0.0251586
-0.0254142
-0.0251776
-0.0252864
-0.0253054
-0.0251966
-0.0252281
-0.0249999
-0.0252123
-0.025114
-0.0250982
-0.0251966
-0.0254142
-0.0252281
-0.0253054
-0.0253212
-0.0252123
-0.0255363
-0.0251586
-0.0256285
-0.0253475
-0.0253936
-0.0255824
-0.0255363
-0.0254142
-0.0251586
-0.0254753
-0.0252864
-0.0253475
-0.0255363
-0.0256285
-0.0259685
-0.0255824
-0.0257985
-0.0257524
-0.0255363
-0.0259685
-0.0254142
-0.0257524
-0.0256914
-0.0254753
-0.0250786
-0.0251586
-0.0256285
-0.0251186
-0.0253936
-0.0253536
-0.0250786
-0.0245887
-0.0251586
-0.0248337
-0.0248737
-0.0251186
-0.0250786
-0.0256285
-0.0249928
-0.0253536
-0.0253107
-0.0250357
-0.0250786
-0.0249928
-0.0245887
-0.0250357
-0.0247908
-0.0248337
-0.0251966
-0.0251586
-0.0249999
-0.0251776
-0.0250793
-0.0250982
-0.0251966
-0.0254142
-0.0251586
-0.0253054
-0.0252864
-0.0251776
-0.0251966
-0.0249999
-0.0252281
-0.0250982
-0.025114
-0.0252123
-0.0251966
-0.0252281
-0.0254142
-0.0252123
-0.0253212
-0.0253054
-0.0255363
-0.0256285
-0.0251586
-0.0255824
-0.0253936
-0.0253475
-0.0255363
-0.0251586
-0.0254142
-0.0253475
-0.0252864
-0.0254753
-0.0255363
-0.0259685
-0.0256285
-0.0257524
-0.0257985
-0.0255824
-0.0255363
-0.0254142
-0.0259685
-0.0254753
-0.0256914
-0.0257524
-0.0256471
-0.0249928
-0.0256285
-0.02532
-0.0253107
-0.0256378
-0.0256471
-0.0256445
-0.0249928
-0.0256458
-0.0253187
-0.02532
-0.0256471
-0.0256285
-0.0263902
-0.0256378
-0.0260094
-0.0260186
-0.0256471
-0.0263902
-0.0256445
-0.0260186
-0.0260174
-0.0256458
-0.0264585
-0.0259513
-0.0259685
-0.0262049
-0.0259599
-0.0262135
-0.0264585
-0.0259685
-0.0268767
-0.0262135
-0.0264226
-0.0266676
-0.0264585
-0.0270336
-0.0259513
-0.0267461
-0.0264925
-0.0262049
-0.0264585
-0.0268767
-0.0270336
-0.0266676
-0.0269552
-0.0267461
-0.0256648
-0.0259685
-0.0259513
-0.0258166
-0.0259599
-0.025808
-0.0256648
-0.0254142
-0.0259685
-0.0255395
-0.0256914
-0.0258166
-0.0256648
-0.0259513
-0.0252998
-0.025808
-0.0256255
-0.0254823
-0.0256648
-0.0252998
-0.0254142
-0.0254823
-0.025357
-0.0255395
-0.0276296
-0.0281078
-0.0285389
-0.0278687
-0.0283234
-0.0280843
-0.0276296
-0.0268767
-0.0281078
-0.0272531
-0.0274923
-0.0278687
-0.0276296
-0.0285389
-0.0270336
-0.0280843
-0.0277863
-0.0273316
-0.0276296
-0.0270336
-0.0268767
-0.0273316
-0.0269552
-0.0272531
-0.0291418
-0.0285389
-0.0281078
-0.0288404
-0.0283234
-0.0286248
-0.0291418
-0.0281078
-0.0295976
-0.0286248
-0.0288527
-0.0293697
-0.0291418
-0.0304431
-0.0285389
-0.0297924
-0.029491
-0.0288404
-0.0291418
-0.0295976
-0.0304431
-0.0293697
-0.0300204
-0.0297924
-0.0263337
-0.0259513
-0.0270336
-0.0261425
-0.0264925
-0.0266836
-0.0263337
-0.0270336
-0.0267656
-0.0266836
-0.0268996
-0.0265496
-0.0263337
-0.0255027
-0.0259513
-0.0259182
-0.025727
-0.0261425
-0.0263337
-0.0267656
-0.0255027
-0.0265496
-0.0261341
-0.0259182
-0.0277397
-0.0270336
-0.0285389
-0.0273867
-0.0277863
-0.0281393
-0.0277397
-0.0267656
-0.0270336
-0.0272526
-0.0268996
-0.0273867
-0.0277397
-0.0285389
-0.0285607
-0.0281393
-0.0285498
-0.0281502
-0.0277397
-0.0285607
-0.0267656
-0.0281502
-0.0276631
-0.0272526
-0.0252646
-0.0250822
-0.0252281
-0.0251734
-0.0251552
-0.0252464
-0.0252646
-0.0252281
-0.0254142
-0.0252464
-0.0253212
-0.0253394
-0.0252646
-0.0252998
-0.0250822
-0.0252822
-0.025191
-0.0251734
-0.0252646
-0.0254142
-0.0252998
-0.0253394
-0.025357
-0.0252822
-0.0252646
-0.0252281
-0.0250822
-0.0252464
-0.0251552
-0.0251734
-0.0252646
-0.0254142
-0.0252281
-0.0253394
-0.0253212
-0.0252464
-0.0252646
-0.0250822
-0.0252998
-0.0251734
-0.025191
-0.0252822
-0.0252646
-0.0252998
-0.0254142
-0.0252822
-0.025357
-0.0253394
-0.0253989
-0.0252998
-0.0259513
-0.0253493
-0.0256255
-0.0256751
-0.0253989
-0.0247508
-0.0252998
-0.0250748
-0.0250253
-0.0253493
-0.0253989
-0.0259513
-0.0255027
-0.0256751
-0.025727
-0.0254508
-0.0253989
-0.0255027
-0.0247508
-0.0254508
-0.0251267
-0.0250748
-0.0249321
-0.0250822
-0.0252998
-0.0250072
-0.025191
-0.0251159
-0.0249321
-0.0252998
-0.0247508
-0.0251159
-0.0250253
-0.0248414
-0.0249321
-0.0245009
-0.0250822
-0.0247165
-0.0247916
-0.0250072
-0.0249321
-0.0247508
-0.0245009
-0.0248414
-0.0246258
-0.0247165
-0.0309018
-0.0307591
-0.0320033
-0.0308305
-0.0313812
-0.0314525
-0.0309018
-0.0297207
-0.0307591
-0.0303113
-0.0302399
-0.0308305
-0.0309018
-0.0320033
-0.0310464
-0.0314525
-0.0315249
-0.0309741
-0.0309018
-0.0310464
-0.0297207
-0.0309741
-0.0303836
-0.0303113
-0.0323459
-0.0310464
-0.0320033
-0.0316962
-0.0315249
-0.0321746
-0.0323459
-0.032625
-0.0310464
-0.0324854
-0.0318357
-0.0316962
-0.0323459
-0.0320033
-0.0335355
-0.0321746
-0.0327694
-0.0329407
-0.0323459
-0.0335355
-0.032625
-0.0329407
-0.0330802
-0.0324854
-0.0311834
-0.029867
-0.0310464
-0.0305252
-0.0304567
-0.0311149
-0.0311834
-0.0310464
-0.032625
-0.0311149
-0.0318357
-0.0319042
-0.0311834
-0.0311944
-0.029867
-0.0311889
-0.0305307
-0.0305252
-0.0311834
-0.032625
-0.0311944
-0.0319042
-0.0319097
-0.0311889
-0.0309103
-0.0311944
-0.0326739
-0.0310524
-0.0319341
-0.0317921
-0.0309103
-0.0295976
-0.0311944
-0.030254
-0.030396
-0.0310524
-0.0309103
-0.0326739
-0.0304431
-0.0317921
-0.0315585
-0.0306767
-0.0309103
-0.0304431
-0.0295976
-0.0306767
-0.0300204
-0.030254
-0.0327709
-0.0326739
-0.0311944
-0.0327224
-0.0319341
-0.0319826
-0.0327709
-0.0311944
-0.032625
-0.0319826
-0.0319097
-0.0326979
-0.0327709
-0.0347615
-0.0326739
-0.0337662
-0.0337177
-0.0327224
-0.0327709
-0.032625
-0.0347615
-0.0326979
-0.0336932
-0.0337662
-0.0319665
-0.0304431
-0.0326739
-0.0312048
-0.0315585
-0.0323202
-0.0319665
-0.0309397
-0.0304431
-0.0314531
-0.0306914
-0.0312048
-0.0319665
-0.0326739
-0.0340048
-0.0323202
-0.0333394
-0.0329856
-0.0319665
-0.0340048
-0.0309397
-0.0329856
-0.0324722
-0.0314531
-0.0296212
-0.0285389
-0.0304431
-0.0290801
-0.029491
-0.0300322
-0.0296212
-0.0304431
-0.0309397
-0.0300322
-0.0306914
-0.0302804
-0.0296212
-0.0285607
-0.0285389
-0.029091
-0.0285498
-0.0290801
-0.0296212
-0.0309397
-0.0285607
-0.0302804
-0.0297502
-0.029091
-0.0342814
-0.0335355
-0.0358455
-0.0339085
-0.0346905
-0.0350634
-0.0342814
-0.032625
-0.0335355
-0.0334532
-0.0330802
-0.0339085
-0.0342814
-0.0358455
-0.0347615
-0.0350634
-0.0353035
-0.0345214
-0.0342814
-0.0347615
-0.032625
-0.0345214
-0.0336932
-0.0334532
-0.0346335
-0.0326739
-0.0347615
-0.0336537
-0.0337177
-0.0346975
-0.0346335
-0.0347615
-0.0380583
-0.0346975
-0.0364099
-0.0363459
-0.0346335
-0.0340048
-0.0326739
-0.0343192
-0.0333394
-0.0336537
-0.0346335
-0.0380583
-0.0340048
-0.0363459
-0.0360316
-0.0343192
-0.0373238
-0.0347615
-0.0358455
-0.0360427
-0.0353035
-0.0365847
-0.0373238
-0.0380583
-0.0347615
-0.0376911
-0.0364099
-0.0360427
-0.0373238
-0.0358455
-0.0402882
-0.0365847
-0.0380668
-0.038806
-0.0373238
-0.0402882
-0.0380583
-0.038806
-0.0391732
-0.0376911
-0.0120184
-0.0232489
-0.00508661
-0.0176337
-0.0141678
-0.00855251
-0.0120184
-0.00508661
-0.0129233
-0.00855251
-0.00900497
-0.0124709
-0.0120184
-0.0181326
-0.0232489
-0.0150755
-0.0206908
-0.0176337
-0.0120184
-0.0129233
-0.0181326
-0.0124709
-0.015528
-0.0150755
-0.0155159
-0.0178843
-0.0181326
-0.0167001
-0.0180085
-0.0168243
-0.0155159
-0.0181326
-0.0129233
-0.0168243
-0.015528
-0.0142196
-0.0155159
-0.0153702
-0.0178843
-0.015443
-0.0166272
-0.0167001
-0.0155159
-0.0129233
-0.0153702
-0.0142196
-0.0141467
-0.015443
-0.0174047
-0.0178843
-0.0153702
-0.0176445
-0.0166272
-0.0163874
-0.0174047
-0.0153702
-0.0173841
-0.0163874
-0.0163771
-0.0173944
-0.0174047
-0.0192096
-0.0178843
-0.0183072
-0.018547
-0.0176445
-0.0174047
-0.0173841
-0.0192096
-0.0173944
-0.0182969
-0.0183072
-0.019146
-0.020799
-0.0192096
-0.0199725
-0.0200043
-0.0191778
-0.019146
-0.0192096
-0.0173841
-0.0191778
-0.0182969
-0.0182651
-0.019146
-0.019277
-0.020799
-0.0192115
-0.020038
-0.0199725
-0.019146
-0.0173841
-0.019277
-0.0182651
-0.0183306
-0.0192115
-0.0208921
-0.020799
-0.019277
-0.0208456
-0.020038
-0.0200846
-0.0208921
-0.019277
-0.021077
-0.0200846
-0.020177
-0.0209845
-0.0208921
-0.0224626
-0.020799
-0.0216774
-0.0216308
-0.0208456
-0.0208921
-0.021077
-0.0224626
-0.0209845
-0.0217698
-0.0216774
-0.0225909
-0.0240889
-0.0224626
-0.0233399
-0.0232757
-0.0225267
-0.0225909
-0.0224626
-0.021077
-0.0225267
-0.0217698
-0.0218339
-0.0225909
-0.0227757
-0.0240889
-0.0226833
-0.0234323
-0.0233399
-0.0225909
-0.021077
-0.0227757
-0.0218339
-0.0219263
-0.0226833
-0.0242036
-0.0240889
-0.0227757
-0.0241462
-0.0234323
-0.0234896
-0.0242036
-0.0227757
-0.024361
-0.0234896
-0.0235683
-0.0242823
-0.0242036
-0.0256269
-0.0240889
-0.0249153
-0.0248579
-0.0241462
-0.0242036
-0.024361
-0.0256269
-0.0242823
-0.024994
-0.0249153
-0.0257092
-0.0270533
-0.0256269
-0.0263812
-0.0263401
-0.025668
-0.0257092
-0.0256269
-0.024361
-0.025668
-0.024994
-0.0250351
-0.0257092
-0.0258293
-0.0270533
-0.0257692
-0.0264413
-0.0263812
-0.0257092
-0.024361
-0.0258293
-0.0250351
-0.0250952
-0.0257692
-0.0271031
-0.0270533
-0.0258293
-0.0270782
-0.0264413
-0.0264662
-0.0271031
-0.0258293
-0.0271894
-0.0264662
-0.0265093
-0.0271463
-0.0271031
-0.0283653
-0.0270533
-0.0277342
-0.0277093
-0.0270782
-0.0271031
-0.0271894
-0.0283653
-0.0271463
-0.0277774
-0.0277342
-0.0259526
-0.0258293
-0.0247172
-0.0258909
-0.0252732
-0.0253349
-0.0259526
-0.0271894
-0.0258293
-0.026571
-0.0265093
-0.0258909
-0.0259526
-0.0247172
-0.0261003
-0.0253349
-0.0254087
-0.0260264
-0.0259526
-0.0261003
-0.0271894
-0.0260264
-0.0266449
-0.026571
-0.0272842
-0.0261003
-0.0273892
-0.0266922
-0.0267448
-0.0273367
-0.0272842
-0.0271894
-0.0261003
-0.0272368
-0.0266449
-0.0266922
-0.0272842
-0.0273892
-0.0284683
-0.0273367
-0.0279288
-0.0278762
-0.0272842
-0.0284683
-0.0271894
-0.0278762
-0.0278289
-0.0272368
-0.0262336
-0.0273892
-0.0261003
-0.0268114
-0.0267448
-0.0261669
-0.0262336
-0.0261003
-0.0251089
-0.0261669
-0.0256046
-0.0256712
-0.0262336
-0.0263686
-0.0273892
-0.0263011
-0.0268789
-0.0268114
-0.0262336
-0.0251089
-0.0263686
-0.0256712
-0.0257387
-0.0263011
-0.0283996
-0.029583
-0.0283653
-0.0289913
-0.0289742
-0.0283825
-0.0283996
-0.0283653
-0.0271894
-0.0283825
-0.0277774
-0.0277945
-0.0283996
-0.0284683
-0.029583
-0.028434
-0.0290257
-0.0289913
-0.0283996
-0.0271894
-0.0284683
-0.0277945
-0.0278289
-0.028434
-0.0285523
-0.0284683
-0.0273892
-0.0285103
-0.0279288
-0.0279708
-0.0285523
-0.0297207
-0.0284683
-0.0291365
-0.0290945
-0.0285103
-0.0285523
-0.0273892
-0.0286244
-0.0279708
-0.0280068
-0.0285884
-0.0285523
-0.0286244
-0.0297207
-0.0285884
-0.0291726
-0.0291365
-0.0296386
-0.029583
-0.0284683
-0.0296108
-0.0290257
-0.0290535
-0.0296386
-0.0284683
-0.0297207
-0.0290535
-0.0290945
-0.0296797
-0.0296386
-0.0307591
-0.029583
-0.0301989
-0.0301711
-0.0296108
-0.0296386
-0.0297207
-0.0307591
-0.0296797
-0.0302399
-0.0301989
-0.0274686
-0.0273892
-0.0263686
-0.0274289
-0.0268789
-0.0269186
-0.0274686
-0.0263686
-0.0275262
-0.0269186
-0.0269474
-0.0274974
-0.0274686
-0.0286244
-0.0273892
-0.0280465
-0.0280068
-0.0274289
-0.0274686
-0.0275262
-0.0286244
-0.0274974
-0.0280753
-0.0280465
-0.0264472
-0.0263686
-0.0254505
-0.0264079
-0.0259096
-0.0259489
-0.0264472
-0.0275262
-0.0263686
-0.0269867
-0.0269474
-0.0264079
-0.0264472
-0.0254505
-0.0265077
-0.0259489
-0.0259791
-0.0264774
-0.0264472
-0.0265077
-0.0275262
-0.0264774
-0.0270169
-0.0269867
-0.026466
-0.0274046
-0.0265077
-0.0269353
-0.0269561
-0.0264868
-0.026466
-0.0265077
-0.0256445
-0.0264868
-0.0260761
-0.0260553
-0.026466
-0.0263902
-0.0274046
-0.0264281
-0.0268974
-0.0269353
-0.026466
-0.0256445
-0.0263902
-0.0260553
-0.0260174
-0.0264281
-0.0274883
-0.0265077
-0.0274046
-0.026998
-0.0269561
-0.0274464
-0.0274883
-0.0275262
-0.0265077
-0.0275073
-0.0270169
-0.026998
-0.0274883
-0.0274046
-0.0286014
-0.0274464
-0.028003
-0.0280449
-0.0274883
-0.0286014
-0.0275262
-0.0280449
-0.0280638
-0.0275073
-0.0271749
-0.0274046
-0.0263902
-0.0272897
-0.0268974
-0.0267825
-0.0271749
-0.0263902
-0.0268767
-0.0267825
-0.0266334
-0.0270258
-0.0271749
-0.0281078
-0.0274046
-0.0276414
-0.0277562
-0.0272897
-0.0271749
-0.0268767
-0.0281078
-0.0270258
-0.0274923
-0.0276414
-0.0262045
-0.0263902
-0.0256285
-0.0262974
-0.0260094
-0.0259165
-0.0262045
-0.0268767
-0.0263902
-0.0265406
-0.0266334
-0.0262974
-0.0262045
-0.0256285
-0.0259685
-0.0259165
-0.0257985
-0.0260865
-0.0262045
-0.0259685
-0.0268767
-0.0260865
-0.0264226
-0.0265406
-0.0286409
-0.0286014
-0.029867
-0.0286212
-0.0292342
-0.029254
-0.0286409
-0.0275262
-0.0286014
-0.0280836
-0.0280638
-0.0286212
-0.0286409
-0.029867
-0.0286244
-0.029254
-0.0292457
-0.0286327
-0.0286409
-0.0286244
-0.0275262
-0.0286327
-0.0280753
-0.0280836
-0.0283975
-0.0286014
-0.0274046
-0.0284994
-0.028003
-0.027901
-0.0283975
-0.0295976
-0.0286014
-0.0289975
-0.0290995
-0.0284994
-0.0283975
-0.0274046
-0.0281078
-0.027901
-0.0277562
-0.0282526
-0.0283975
-0.0281078
-0.0295976
-0.0282526
-0.0288527
-0.0289975
-0.029785
-0.029867
-0.0286014
-0.029826
-0.0292342
-0.0291932
-0.029785
-0.0286014
-0.0295976
-0.0291932
-0.0290995
-0.0296913
-0.029785
-0.0311944
-0.029867
-0.0304897
-0.0305307
-0.029826
-0.029785
-0.0295976
-0.0311944
-0.0296913
-0.030396
-0.0304897
-0.0298195
-0.0286244
-0.029867
-0.029222
-0.0292457
-0.0298433
-0.0298195
-0.0297207
-0.0286244
-0.0297701
-0.0291726
-0.029222
-0.0298195
-0.029867
-0.0310464
-0.0298433
-0.0304567
-0.030433
-0.0298195
-0.0310464
-0.0297207
-0.030433
-0.0303836
-0.0297701
-0.0264585
-0.0259685
-0.0259513
-0.0262135
-0.0259599
-0.0262049
-0.0264585
-0.0268767
-0.0259685
-0.0266676
-0.0264226
-0.0262135
-0.0264585
-0.0259513
-0.0270336
-0.0262049
-0.0264925
-0.0267461
-0.0264585
-0.0270336
-0.0268767
-0.0267461
-0.0269552
-0.0266676
-0.0256648
-0.0259513
-0.0259685
-0.025808
-0.0259599
-0.0258166
-0.0256648
-0.0259685
-0.0254142
-0.0258166
-0.0256914
-0.0255395
-0.0256648
-0.0252998
-0.0259513
-0.0254823
-0.0256255
-0.025808
-0.0256648
-0.0254142
-0.0252998
-0.0255395
-0.025357
-0.0254823
-0.0276296
-0.0285389
-0.0281078
-0.0280843
-0.0283234
-0.0278687
-0.0276296
-0.0281078
-0.0268767
-0.0278687
-0.0274923
-0.0272531
-0.0276296
-0.0270336
-0.0285389
-0.0273316
-0.0277863
-0.0280843
-0.0276296
-0.0268767
-0.0270336
-0.0272531
-0.0269552
-0.0273316
-0.0291418
-0.0281078
-0.0285389
-0.0286248
-0.0283234
-0.0288404
-0.0291418
-0.0295976
-0.0281078
-0.0293697
-0.0288527
-0.0286248
-0.0291418
-0.0285389
-0.0304431
-0.0288404
-0.029491
-0.0297924
-0.0291418
-0.0304431
-0.0295976
-0.0297924
-0.0300204
-0.0293697
-0.0263337
-0.0270336
-0.0259513
-0.0266836
-0.0264925
-0.0261425
-0.0263337
-0.0267656
-0.0270336
-0.0265496
-0.0268996
-0.0266836
-0.0263337
-0.0259513
-0.0255027
-0.0261425
-0.025727
-0.0259182
-0.0263337
-0.0255027
-0.0267656
-0.0259182
-0.0261341
-0.0265496
-0.0277397
-0.0285389
-0.0270336
-0.0281393
-0.0277863
-0.0273867
-0.0277397
-0.0270336
-0.0267656
-0.0273867
-0.0268996
-0.0272526
-0.0277397
-0.0285607
-0.0285389
-0.0281502
-0.0285498
-0.0281393
-0.0277397
-0.0267656
-0.0285607
-0.0272526
-0.0276631
-0.0281502
-0.0253989
-0.0259513
-0.0252998
-0.0256751
-0.0256255
-0.0253493
-0.0253989
-0.0252998
-0.0247508
-0.0253493
-0.0250253
-0.0250748
-0.0253989
-0.0255027
-0.0259513
-0.0254508
-0.025727
-0.0256751
-0.0253989
-0.0247508
-0.0255027
-0.0250748
-0.0251267
-0.0254508
-0.0249321
-0.0252998
-0.0250822
-0.0251159
-0.025191
-0.0250072
-0.0249321
-0.0247508
-0.0252998
-0.0248414
-0.0250253
-0.0251159
-0.0249321
-0.0250822
-0.0245009
-0.0250072
-0.0247916
-0.0247165
-0.0249321
-0.0245009
-0.0247508
-0.0247165
-0.0246258
-0.0248414
-0.0309018
-0.0320033
-0.0307591
-0.0314525
-0.0313812
-0.0308305
-0.0309018
-0.0307591
-0.0297207
-0.0308305
-0.0302399
-0.0303113
-0.0309018
-0.0310464
-0.0320033
-0.0309741
-0.0315249
-0.0314525
-0.0309018
-0.0297207
-0.0310464
-0.0303113
-0.0303836
-0.0309741
-0.0323459
-0.0320033
-0.0310464
-0.0321746
-0.0315249
-0.0316962
-0.0323459
-0.0310464
-0.032625
-0.0316962
-0.0318357
-0.0324854
-0.0323459
-0.0335355
-0.0320033
-0.0329407
-0.0327694
-0.0321746
-0.0323459
-0.032625
-0.0335355
-0.0324854
-0.0330802
-0.0329407
-0.0311834
-0.0310464
-0.029867
-0.0311149
-0.0304567
-0.0305252
-0.0311834
-0.032625
-0.0310464
-0.0319042
-0.0318357
-0.0311149
-0.0311834
-0.029867
-0.0311944
-0.0305252
-0.0305307
-0.0311889
-0.0311834
-0.0311944
-0.032625
-0.0311889
-0.0319097
-0.0319042
-0.0309103
-0.0326739
-0.0311944
-0.0317921
-0.0319341
-0.0310524
-0.0309103
-0.0311944
-0.0295976
-0.0310524
-0.030396
-0.030254
-0.0309103
-0.0304431
-0.0326739
-0.0306767
-0.0315585
-0.0317921
-0.0309103
-0.0295976
-0.0304431
-0.030254
-0.0300204
-0.0306767
-0.0327709
-0.0311944
-0.0326739
-0.0319826
-0.0319341
-0.0327224
-0.0327709
-0.032625
-0.0311944
-0.0326979
-0.0319097
-0.0319826
-0.0327709
-0.0326739
-0.0347615
-0.0327224
-0.0337177
-0.0337662
-0.0327709
-0.0347615
-0.032625
-0.0337662
-0.0336932
-0.0326979
-0.0319665
-0.0326739
-0.0304431
-0.0323202
-0.0315585
-0.0312048
-0.0319665
-0.0304431
-0.0309397
-0.0312048
-0.0306914
-0.0314531
-0.0319665
-0.0340048
-0.0326739
-0.0329856
-0.0333394
-0.0323202
-0.0319665
-0.0309397
-0.0340048
-0.0314531
-0.0324722
-0.0329856
-0.0296212
-0.0304431
-0.0285389
-0.0300322
-0.029491
-0.0290801
-0.0296212
-0.0309397
-0.0304431
-0.0302804
-0.0306914
-0.0300322
-0.0296212
-0.0285389
-0.0285607
-0.0290801
-0.0285498
-0.029091
-0.0296212
-0.0285607
-0.0309397
-0.029091
-0.0297502
-0.0302804
-0.0342814
-0.0358455
-0.0335355
-0.0350634
-0.0346905
-0.0339085
-0.0342814
-0.0335355
-0.032625
-0.0339085
-0.0330802
-0.0334532
-0.0342814
-0.0347615
-0.0358455
-0.0345214
-0.0353035
-0.0350634
-0.0342814
-0.032625
-0.0347615
-0.0334532
-0.0336932
-0.0345214
-0.0346335
-0.0347615
-0.0326739
-0.0346975
-0.0337177
-0.0336537
-0.0346335
-0.0380583
-0.0347615
-0.0363459
-0.0364099
-0.0346975
-0.0346335
-0.0326739
-0.0340048
-0.0336537
-0.0333394
-0.0343192
-0.0346335
-0.0340048
-0.0380583
-0.0343192
-0.0360316
-0.0363459
-0.0373238
-0.0358455
-0.0347615
-0.0365847
-0.0353035
-0.0360427
-0.0373238
-0.0347615
-0.0380583
-0.0360427
-0.0364099
-0.0376911
-0.0373238
-0.0402882
-0.0358455
-0.038806
-0.0380668
-0.0365847
-0.0373238
-0.0380583
-0.0402882
-0.0376911
-0.0391732
-0.038806
-0.0427606
-0.0554935
-0.0402882
-0.0491271
-0.0478908
-0.0415244
-0.0427606
-0.0402882
-0.0380583
-0.0415244
-0.0391732
-0.0404094
-0.0427606
-0.0400761
-0.0554935
-0.0414183
-0.0477848
-0.0491271
-0.0427606
-0.0380583
-0.0400761
-0.0404094
-0.0390672
-0.0414183
-0.0367141
-0.0344804
-0.0400761
-0.0355973
-0.0372782
-0.0383951
-0.0367141
-0.0400761
-0.0380583
-0.0383951
-0.0390672
-0.0373862
-0.0367141
-0.0340048
-0.0344804
-0.0353595
-0.0342426
-0.0355973
-0.0367141
-0.0380583
-0.0340048
-0.0373862
-0.0360316
-0.0353595
-0.0326254
-0.0344804
-0.0340048
-0.0335529
-0.0342426
-0.0333151
-0.0326254
-0.0340048
-0.0309397
-0.0333151
-0.0324722
-0.0317825
-0.0326254
-0.0307644
-0.0344804
-0.0316949
-0.0326224
-0.0335529
-0.0326254
-0.0309397
-0.0307644
-0.0317825
-0.030852
-0.0316949
-0.0296226
-0.0280138
-0.0307644
-0.0288182
-0.0293891
-0.0301935
-0.0296226
-0.0307644
-0.0309397
-0.0301935
-0.030852
-0.0302811
-0.0296226
-0.0285607
-0.0280138
-0.0290916
-0.0282872
-0.0288182
-0.0296226
-0.0309397
-0.0285607
-0.0302811
-0.0297502
-0.0290916
-0.027372
-0.0280138
-0.0285607
-0.0276929
-0.0282872
-0.0279663
-0.027372
-0.0285607
-0.0267656
-0.0279663
-0.0276631
-0.0270688
-0.027372
-0.025971
-0.0280138
-0.0266715
-0.0269924
-0.0276929
-0.027372
-0.0267656
-0.025971
-0.0270688
-0.0263683
-0.0266715
-0.0257371
-0.0245462
-0.025971
-0.0251416
-0.0252586
-0.025854
-0.0257371
-0.025971
-0.0267656
-0.025854
-0.0263683
-0.0262513
-0.0257371
-0.0255027
-0.0245462
-0.0256199
-0.0250244
-0.0251416
-0.0257371
-0.0267656
-0.0255027
-0.0262513
-0.0261341
-0.0256199
-0.0246646
-0.0245462
-0.0255027
-0.0246054
-0.0250244
-0.0250837
-0.0246646
-0.0255027
-0.0247508
-0.0250837
-0.0251267
-0.0247077
-0.0246646
-0.0237014
-0.0245462
-0.024183
-0.0241238
-0.0246054
-0.0246646
-0.0247508
-0.0237014
-0.0247077
-0.0242261
-0.024183
-0.0241325
-0.0234213
-0.0237014
-0.0237769
-0.0235613
-0.023917
-0.0241325
-0.0237014
-0.0247508
-0.023917
-0.0242261
-0.0244416
-0.0241325
-0.0245009
-0.0234213
-0.0243167
-0.0239611
-0.0237769
-0.0241325
-0.0247508
-0.0245009
-0.0244416
-0.0246258
-0.0243167
-0.0241325
-0.0234213
-0.0245009
-0.0237769
-0.0239611
-0.0243167
-0.0241325
-0.0245009
-0.0247508
-0.0243167
-0.0246258
-0.0244416
-0.0241325
-0.0237014
-0.0234213
-0.023917
-0.0235613
-0.0237769
-0.0241325
-0.0247508
-0.0237014
-0.0244416
-0.0242261
-0.023917
-0.0246646
-0.0245462
-0.0237014
-0.0246054
-0.0241238
-0.024183
-0.0246646
-0.0237014
-0.0247508
-0.024183
-0.0242261
-0.0247077
-0.0246646
-0.0255027
-0.0245462
-0.0250837
-0.0250244
-0.0246054
-0.0246646
-0.0247508
-0.0255027
-0.0247077
-0.0251267
-0.0250837
-0.0257371
-0.0245462
-0.0255027
-0.0251416
-0.0250244
-0.0256199
-0.0257371
-0.0255027
-0.0267656
-0.0256199
-0.0261341
-0.0262513
-0.0257371
-0.025971
-0.0245462
-0.025854
-0.0252586
-0.0251416
-0.0257371
-0.0267656
-0.025971
-0.0262513
-0.0263683
-0.025854
-0.027372
-0.0280138
-0.025971
-0.0276929
-0.0269924
-0.0266715
-0.027372
-0.025971
-0.0267656
-0.0266715
-0.0263683
-0.0270688
-0.027372
-0.0285607
-0.0280138
-0.0279663
-0.0282872
-0.0276929
-0.027372
-0.0267656
-0.0285607
-0.0270688
-0.0276631
-0.0279663
-0.0296226
-0.0280138
-0.0285607
-0.0288182
-0.0282872
-0.0290916
-0.0296226
-0.0285607
-0.0309397
-0.0290916
-0.0297502
-0.0302811
-0.0296226
-0.0307644
-0.0280138
-0.0301935
-0.0293891
-0.0288182
-0.0296226
-0.0309397
-0.0307644
-0.0302811
-0.030852
-0.0301935
-0.0326254
-0.0344804
-0.0307644
-0.0335529
-0.0326224
-0.0316949
-0.0326254
-0.0307644
-0.0309397
-0.0316949
-0.030852
-0.0317825
-0.0326254
-0.0340048
-0.0344804
-0.0333151
-0.0342426
-0.0335529
-0.0326254
-0.0309397
-0.0340048
-0.0317825
-0.0324722
-0.0333151
-0.0367141
-0.0344804
-0.0340048
-0.0355973
-0.0342426
-0.0353595
-0.0367141
-0.0340048
-0.0380583
-0.0353595
-0.0360316
-0.0373862
-0.0367141
-0.0400761
-0.0344804
-0.0383951
-0.0372782
-0.0355973
-0.0367141
-0.0380583
-0.0400761
-0.0373862
-0.0390672
-0.0383951
-0.0427606
-0.0402882
-0.0554935
-0.0415244
-0.0478908
-0.0491271
-0.0427606
-0.0380583
-0.0402882
-0.0404094
-0.0391732
-0.0415244
-0.0427606
-0.0554935
-0.0400761
-0.0491271
-0.0477848
-0.0414183
-0.0427606
-0.0400761
-0.0380583
-0.0414183
-0.0390672
-0.0404094
