# vtk DataFile Version 1.0
2D Unstructured Grid of Linear Triangles
ASCII

DATASET UNSTRUCTURED_GRID
POINTS 3072 float
0 0.0625 0
0 0 0
0.0625 0.0625 0
0 0.03125 0
0.03125 0.03125 0
0.03125 0.0625 0
0 0.0625 0
0.0625 0.0625 0
0 0.125 0
0.03125 0.0625 0
0.03125 0.09375 0
0 0.09375 0
0.0625 0.125 0
0.0625 0.0625 0
0.125 0.125 0
0.0625 0.09375 0
0.09375 0.09375 0
0.09375 0.125 0
0.0625 0.125 0
0 0.125 0
0.0625 0.0625 0
0.03125 0.125 0
0.03125 0.09375 0
0.0625 0.09375 0
0.0625 0.125 0
0.125 0.125 0
0.0625 0.1875 0
0.09375 0.125 0
0.09375 0.15625 0
0.0625 0.15625 0
0.0625 0.125 0
0.0625 0.1875 0
0 0.125 0
0.0625 0.15625 0
0.03125 0.15625 0
0.03125 0.125 0
0.0625 0 0
0.0625 0.0625 0
0 0 0
0.0625 0.03125 0
0.03125 0.03125 0
0.03125 0 0
0.0625 0 0
0.125 0 0
0.0625 0.0625 0
0.09375 0 0
0.09375 0.03125 0
0.0625 0.03125 0
0.125 0.0625 0
0.125 0.125 0
0.0625 0.0625 0
0.125 0.09375 0
0.09375 0.09375 0
0.09375 0.0625 0
0.125 0.0625 0
0.0625 0.0625 0
0.125 0 0
0.09375 0.0625 0
0.09375 0.03125 0
0.125 0.03125 0
0.125 0.0625 0
0.1875 0.0625 0
0.125 0.125 0
0.15625 0.0625 0
0.15625 0.09375 0
0.125 0.09375 0
0.125 0.0625 0
0.125 0 0
0.1875 0.0625 0
0.125 0.03125 0
0.15625 0.03125 0
0.15625 0.0625 0
0 0.1875 0
0.0625 0.1875 0
0 0.25 0
0.03125 0.1875 0
0.03125 0.21875 0
0 0.21875 0
0 0.1875 0
0 0.125 0
0.0625 0.1875 0
0 0.15625 0
0.03125 0.15625 0
0.03125 0.1875 0
0.0625 0.25 0
0 0.25 0
0.0625 0.1875 0
0.03125 0.25 0
0.03125 0.21875 0
0.0625 0.21875 0
0.0625 0.25 0
0.0625 0.1875 0
0.125 0.25 0
0.0625 0.21875 0
0.09375 0.21875 0
0.09375 0.25 0
0.0625 0.25 0
0.0625 0.3125 0
0 0.25 0
0.0625 0.28125 0
0.03125 0.28125 0
0.03125 0.25 0
0.0625 0.25 0
0.125 0.25 0
0.0625 0.3125 0
0.09375 0.25 0
0.09375 0.28125 0
0.0625 0.28125 0
0.125 0.1875 0
0.0625 0.1875 0
0.125 0.125 0
0.09375 0.1875 0
0.09375 0.15625 0
0.125 0.15625 0
0.125 0.1875 0
0.125 0.25 0
0.0625 0.1875 0
0.125 0.21875 0
0.09375 0.21875 0
0.09375 0.1875 0
0.125 0.1875 0
0.125 0.125 0
0.1875 0.1875 0
0.125 0.15625 0
0.15625 0.15625 0
0.15625 0.1875 0
0.125 0.1875 0
0.1875 0.1875 0
0.125 0.25 0
0.15625 0.1875 0
0.15625 0.21875 0
0.125 0.21875 0
0.1875 0.25 0
0.1875 0.1875 0
0.25 0.25 0
0.1875 0.21875 0
0.21875 0.21875 0
0.21875 0.25 0
0.1875 0.25 0
0.125 0.25 0
0.1875 0.1875 0
0.15625 0.25 0
0.15625 0.21875 0
0.1875 0.21875 0
0.1875 0.25 0
0.25 0.25 0
0.1875 0.3125 0
0.21875 0.25 0
0.21875 0.28125 0
0.1875 0.28125 0
0.1875 0.25 0
0.1875 0.3125 0
0.125 0.25 0
0.1875 0.28125 0
0.15625 0.28125 0
0.15625 0.25 0
0.25 0.1875 0
0.25 0.25 0
0.1875 0.1875 0
0.25 0.21875 0
0.21875 0.21875 0
0.21875 0.1875 0
0.25 0.1875 0
0.1875 0.1875 0
0.25 0.125 0
0.21875 0.1875 0
0.21875 0.15625 0
0.25 0.15625 0
0.25 0.1875 0
0.3125 0.1875 0
0.25 0.25 0
0.28125 0.1875 0
0.28125 0.21875 0
0.25 0.21875 0
0.25 0.1875 0
0.25 0.125 0
0.3125 0.1875 0
0.25 0.15625 0
0.28125 0.15625 0
0.28125 0.1875 0
0.1875 0.125 0
0.1875 0.1875 0
0.125 0.125 0
0.1875 0.15625 0
0.15625 0.15625 0
0.15625 0.125 0
0.1875 0.125 0
0.25 0.125 0
0.1875 0.1875 0
0.21875 0.125 0
0.21875 0.15625 0
0.1875 0.15625 0
0.1875 0.125 0
0.125 0.125 0
0.1875 0.0625 0
0.15625 0.125 0
0.15625 0.09375 0
0.1875 0.09375 0
0.1875 0.125 0
0.1875 0.0625 0
0.25 0.125 0
0.1875 0.09375 0
0.21875 0.09375 0
0.21875 0.125 0
0.125 0.3125 0
0.1875 0.3125 0
0.125 0.375 0
0.15625 0.3125 0
0.15625 0.34375 0
0.125 0.34375 0
0.125 0.3125 0
0.125 0.25 0
0.1875 0.3125 0
0.125 0.28125 0
0.15625 0.28125 0
0.15625 0.3125 0
0.125 0.3125 0
0.125 0.375 0
0.0625 0.3125 0
0.125 0.34375 0
0.09375 0.34375 0
0.09375 0.3125 0
0.125 0.3125 0
0.0625 0.3125 0
0.125 0.25 0
0.09375 0.3125 0
0.09375 0.28125 0
0.125 0.28125 0
0.25 0.3125 0
0.1875 0.3125 0
0.25 0.25 0
0.21875 0.3125 0
0.21875 0.28125 0
0.25 0.28125 0
0.25 0.3125 0
0.25 0.375 0
0.1875 0.3125 0
0.25 0.34375 0
0.21875 0.34375 0
0.21875 0.3125 0
0.25 0.3125 0
0.25 0.25 0
0.3125 0.3125 0
0.25 0.28125 0
0.28125 0.28125 0
0.28125 0.3125 0
0.25 0.3125 0
0.3125 0.3125 0
0.25 0.375 0
0.28125 0.3125 0
0.28125 0.34375 0
0.25 0.34375 0
0.1875 0.375 0
0.125 0.375 0
0.1875 0.3125 0
0.15625 0.375 0
0.15625 0.34375 0
0.1875 0.34375 0
0.1875 0.375 0
0.1875 0.3125 0
0.25 0.375 0
0.1875 0.34375 0
0.21875 0.34375 0
0.21875 0.375 0
0.1875 0.375 0
0.1875 0.4375 0
0.125 0.375 0
0.1875 0.40625 0
0.15625 0.40625 0
0.15625 0.375 0
0.1875 0.375 0
0.25 0.375 0
0.1875 0.4375 0
0.21875 0.375 0
0.21875 0.40625 0
0.1875 0.40625 0
0 0.3125 0
0 0.25 0
0.0625 0.3125 0
0 0.28125 0
0.03125 0.28125 0
0.03125 0.3125 0
0 0.3125 0
0.0625 0.3125 0
0 0.375 0
0.03125 0.3125 0
0.03125 0.34375 0
0 0.34375 0
0.0625 0.375 0
0.0625 0.3125 0
0.125 0.375 0
0.0625 0.34375 0
0.09375 0.34375 0
0.09375 0.375 0
0.0625 0.375 0
0 0.375 0
0.0625 0.3125 0
0.03125 0.375 0
0.03125 0.34375 0
0.0625 0.34375 0
0.0625 0.375 0
0.125 0.375 0
0.0625 0.4375 0
0.09375 0.375 0
0.09375 0.40625 0
0.0625 0.40625 0
0.0625 0.375 0
0.0625 0.4375 0
0 0.375 0
0.0625 0.40625 0
0.03125 0.40625 0
0.03125 0.375 0
0.1875 0 0
0.25 0 0
0.1875 0.0625 0
0.21875 0 0
0.21875 0.03125 0
0.1875 0.03125 0
0.1875 0 0
0.1875 0.0625 0
0.125 0 0
0.1875 0.03125 0
0.15625 0.03125 0
0.15625 0 0
0.25 0.0625 0
0.1875 0.0625 0
0.25 0 0
0.21875 0.0625 0
0.21875 0.03125 0
0.25 0.03125 0
0.25 0.0625 0
0.25 0.125 0
0.1875 0.0625 0
0.25 0.09375 0
0.21875 0.09375 0
0.21875 0.0625 0
0.25 0.0625 0
0.25 0 0
0.3125 0.0625 0
0.25 0.03125 0
0.28125 0.03125 0
0.28125 0.0625 0
0.25 0.0625 0
0.3125 0.0625 0
0.25 0.125 0
0.28125 0.0625 0
0.28125 0.09375 0
0.25 0.09375 0
0.3125 0.125 0
0.375 0.125 0
0.3125 0.1875 0
0.34375 0.125 0
0.34375 0.15625 0
0.3125 0.15625 0
0.3125 0.125 0
0.3125 0.1875 0
0.25 0.125 0
0.3125 0.15625 0
0.28125 0.15625 0
0.28125 0.125 0
0.3125 0.125 0
0.3125 0.0625 0
0.375 0.125 0
0.3125 0.09375 0
0.34375 0.09375 0
0.34375 0.125 0
0.3125 0.125 0
0.25 0.125 0
0.3125 0.0625 0
0.28125 0.125 0
0.28125 0.09375 0
0.3125 0.09375 0
0.3125 0.25 0
0.25 0.25 0
0.3125 0.1875 0
0.28125 0.25 0
0.28125 0.21875 0
0.3125 0.21875 0
0.3125 0.25 0
0.3125 0.1875 0
0.375 0.25 0
0.3125 0.21875 0
0.34375 0.21875 0
0.34375 0.25 0
0.3125 0.25 0
0.3125 0.3125 0
0.25 0.25 0
0.3125 0.28125 0
0.28125 0.28125 0
0.28125 0.25 0
0.3125 0.25 0
0.375 0.25 0
0.3125 0.3125 0
0.34375 0.25 0
0.34375 0.28125 0
0.3125 0.28125 0
0.375 0.1875 0
0.3125 0.1875 0
0.375 0.125 0
0.34375 0.1875 0
0.34375 0.15625 0
0.375 0.15625 0
0.375 0.1875 0
0.375 0.25 0
0.3125 0.1875 0
0.375 0.21875 0
0.34375 0.21875 0
0.34375 0.1875 0
0.375 0.1875 0
0.375 0.125 0
0.4375 0.1875 0
0.375 0.15625 0
0.40625 0.15625 0
0.40625 0.1875 0
0.375 0.1875 0
0.4375 0.1875 0
0.375 0.25 0
0.40625 0.1875 0
0.40625 0.21875 0
0.375 0.21875 0
0.3125 0 0
0.3125 0.0625 0
0.25 0 0
0.3125 0.03125 0
0.28125 0.03125 0
0.28125 0 0
0.3125 0 0
0.375 0 0
0.3125 0.0625 0
0.34375 0 0
0.34375 0.03125 0
0.3125 0.03125 0
0.375 0.0625 0
0.375 0.125 0
0.3125 0.0625 0
0.375 0.09375 0
0.34375 0.09375 0
0.34375 0.0625 0
0.375 0.0625 0
0.3125 0.0625 0
0.375 0 0
0.34375 0.0625 0
0.34375 0.03125 0
0.375 0.03125 0
0.375 0.0625 0
0.4375 0.0625 0
0.375 0.125 0
0.40625 0.0625 0
0.40625 0.09375 0
0.375 0.09375 0
0.375 0.0625 0
0.375 0 0
0.4375 0.0625 0
0.375 0.03125 0
0.40625 0.03125 0
0.40625 0.0625 0
0 0.4375 0
0.0625 0.4375 0
0 0.5 0
0.03125 0.4375 0
0.03125 0.46875 0
0 0.46875 0
0 0.4375 0
0 0.375 0
0.0625 0.4375 0
0 0.40625 0
0.03125 0.40625 0
0.03125 0.4375 0
0.0625 0.5 0
0 0.5 0
0.0625 0.4375 0
0.03125 0.5 0
0.03125 0.46875 0
0.0625 0.46875 0
0.0625 0.5 0
0.0625 0.4375 0
0.125 0.5 0
0.0625 0.46875 0
0.09375 0.46875 0
0.09375 0.5 0
0.0625 0.5 0
0.0625 0.5625 0
0 0.5 0
0.0625 0.53125 0
0.03125 0.53125 0
0.03125 0.5 0
0.0625 0.5 0
0.125 0.5 0
0.0625 0.5625 0
0.09375 0.5 0
0.09375 0.53125 0
0.0625 0.53125 0
0.125 0.4375 0
0.0625 0.4375 0
0.125 0.375 0
0.09375 0.4375 0
0.09375 0.40625 0
0.125 0.40625 0
0.125 0.4375 0
0.125 0.5 0
0.0625 0.4375 0
0.125 0.46875 0
0.09375 0.46875 0
0.09375 0.4375 0
0.125 0.4375 0
0.125 0.375 0
0.1875 0.4375 0
0.125 0.40625 0
0.15625 0.40625 0
0.15625 0.4375 0
0.125 0.4375 0
0.1875 0.4375 0
0.125 0.5 0
0.15625 0.4375 0
0.15625 0.46875 0
0.125 0.46875 0
0.1875 0.5 0
0.1875 0.4375 0
0.25 0.5 0
0.1875 0.46875 0
0.21875 0.46875 0
0.21875 0.5 0
0.1875 0.5 0
0.125 0.5 0
0.1875 0.4375 0
0.15625 0.5 0
0.15625 0.46875 0
0.1875 0.46875 0
0.1875 0.5 0
0.25 0.5 0
0.1875 0.5625 0
0.21875 0.5 0
0.21875 0.53125 0
0.1875 0.53125 0
0.1875 0.5 0
0.1875 0.5625 0
0.125 0.5 0
0.1875 0.53125 0
0.15625 0.53125 0
0.15625 0.5 0
0.25 0.4375 0
0.25 0.5 0
0.1875 0.4375 0
0.25 0.46875 0
0.21875 0.46875 0
0.21875 0.4375 0
0.25 0.4375 0
0.1875 0.4375 0
0.25 0.375 0
0.21875 0.4375 0
0.21875 0.40625 0
0.25 0.40625 0
0.25 0.4375 0
0.3125 0.4375 0
0.25 0.5 0
0.28125 0.4375 0
0.28125 0.46875 0
0.25 0.46875 0
0.25 0.4375 0
0.25 0.375 0
0.3125 0.4375 0
0.25 0.40625 0
0.28125 0.40625 0
0.28125 0.4375 0
0.125 0.5625 0
0.125 0.625 0
0.0625 0.5625 0
0.125 0.59375 0
0.09375 0.59375 0
0.09375 0.5625 0
0.125 0.5625 0
0.0625 0.5625 0
0.125 0.5 0
0.09375 0.5625 0
0.09375 0.53125 0
0.125 0.53125 0
0.125 0.5625 0
0.1875 0.5625 0
0.125 0.625 0
0.15625 0.5625 0
0.15625 0.59375 0
0.125 0.59375 0
0.125 0.5625 0
0.125 0.5 0
0.1875 0.5625 0
0.125 0.53125 0
0.15625 0.53125 0
0.15625 0.5625 0
0 0.5625 0
0 0.5 0
0.0625 0.5625 0
0 0.53125 0
0.03125 0.53125 0
0.03125 0.5625 0
0 0.5625 0
0.0625 0.5625 0
0 0.625 0
0.03125 0.5625 0
0.03125 0.59375 0
0 0.59375 0
0.0625 0.625 0
0.0625 0.5625 0
0.125 0.625 0
0.0625 0.59375 0
0.09375 0.59375 0
0.09375 0.625 0
0.0625 0.625 0
0 0.625 0
0.0625 0.5625 0
0.03125 0.625 0
0.03125 0.59375 0
0.0625 0.59375 0
0.0625 0.625 0
0.125 0.625 0
0.0625 0.6875 0
0.09375 0.625 0
0.09375 0.65625 0
0.0625 0.65625 0
0.0625 0.625 0
0.0625 0.6875 0
0 0.625 0
0.0625 0.65625 0
0.03125 0.65625 0
0.03125 0.625 0
0.25 0.5625 0
0.1875 0.5625 0
0.25 0.5 0
0.21875 0.5625 0
0.21875 0.53125 0
0.25 0.53125 0
0.25 0.5625 0
0.25 0.625 0
0.1875 0.5625 0
0.25 0.59375 0
0.21875 0.59375 0
0.21875 0.5625 0
0.25 0.5625 0
0.25 0.5 0
0.3125 0.5625 0
0.25 0.53125 0
0.28125 0.53125 0
0.28125 0.5625 0
0.25 0.5625 0
0.3125 0.5625 0
0.25 0.625 0
0.28125 0.5625 0
0.28125 0.59375 0
0.25 0.59375 0
0.1875 0.625 0
0.125 0.625 0
0.1875 0.5625 0
0.15625 0.625 0
0.15625 0.59375 0
0.1875 0.59375 0
0.1875 0.625 0
0.1875 0.5625 0
0.25 0.625 0
0.1875 0.59375 0
0.21875 0.59375 0
0.21875 0.625 0
0.1875 0.625 0
0.1875 0.6875 0
0.125 0.625 0
0.1875 0.65625 0
0.15625 0.65625 0
0.15625 0.625 0
0.1875 0.625 0
0.25 0.625 0
0.1875 0.6875 0
0.21875 0.625 0
0.21875 0.65625 0
0.1875 0.65625 0
0.3125 0.375 0
0.3125 0.3125 0
0.375 0.375 0
0.3125 0.34375 0
0.34375 0.34375 0
0.34375 0.375 0
0.3125 0.375 0
0.25 0.375 0
0.3125 0.3125 0
0.28125 0.375 0
0.28125 0.34375 0
0.3125 0.34375 0
0.3125 0.375 0
0.375 0.375 0
0.3125 0.4375 0
0.34375 0.375 0
0.34375 0.40625 0
0.3125 0.40625 0
0.3125 0.375 0
0.3125 0.4375 0
0.25 0.375 0
0.3125 0.40625 0
0.28125 0.40625 0
0.28125 0.375 0
0.375 0.3125 0
0.375 0.375 0
0.3125 0.3125 0
0.375 0.34375 0
0.34375 0.34375 0
0.34375 0.3125 0
0.375 0.3125 0
0.3125 0.3125 0
0.375 0.25 0
0.34375 0.3125 0
0.34375 0.28125 0
0.375 0.28125 0
0.375 0.3125 0
0.4375 0.3125 0
0.375 0.375 0
0.40625 0.3125 0
0.40625 0.34375 0
0.375 0.34375 0
0.375 0.3125 0
0.375 0.25 0
0.4375 0.3125 0
0.375 0.28125 0
0.40625 0.28125 0
0.40625 0.3125 0
0.3125 0.5 0
0.25 0.5 0
0.3125 0.4375 0
0.28125 0.5 0
0.28125 0.46875 0
0.3125 0.46875 0
0.3125 0.5 0
0.3125 0.4375 0
0.375 0.5 0
0.3125 0.46875 0
0.34375 0.46875 0
0.34375 0.5 0
0.3125 0.5 0
0.3125 0.5625 0
0.25 0.5 0
0.3125 0.53125 0
0.28125 0.53125 0
0.28125 0.5 0
0.3125 0.5 0
0.375 0.5 0
0.3125 0.5625 0
0.34375 0.5 0
0.34375 0.53125 0
0.3125 0.53125 0
0.375 0.4375 0
0.3125 0.4375 0
0.375 0.375 0
0.34375 0.4375 0
0.34375 0.40625 0
0.375 0.40625 0
0.375 0.4375 0
0.375 0.5 0
0.3125 0.4375 0
0.375 0.46875 0
0.34375 0.46875 0
0.34375 0.4375 0
0.375 0.4375 0
0.375 0.375 0
0.4375 0.4375 0
0.375 0.40625 0
0.40625 0.40625 0
0.40625 0.4375 0
0.375 0.4375 0
0.4375 0.4375 0
0.375 0.5 0
0.40625 0.4375 0
0.40625 0.46875 0
0.375 0.46875 0
0.4375 0.5 0
0.4375 0.4375 0
0.5 0.5 0
0.4375 0.46875 0
0.46875 0.46875 0
0.46875 0.5 0
0.4375 0.5 0
0.375 0.5 0
0.4375 0.4375 0
0.40625 0.5 0
0.40625 0.46875 0
0.4375 0.46875 0
0.4375 0.5 0
0.5 0.5 0
0.4375 0.5625 0
0.46875 0.5 0
0.46875 0.53125 0
0.4375 0.53125 0
0.4375 0.5 0
0.4375 0.5625 0
0.375 0.5 0
0.4375 0.53125 0
0.40625 0.53125 0
0.40625 0.5 0
0.5 0.4375 0
0.5 0.5 0
0.4375 0.4375 0
0.5 0.46875 0
0.46875 0.46875 0
0.46875 0.4375 0
0.5 0.4375 0
0.4375 0.4375 0
0.5 0.375 0
0.46875 0.4375 0
0.46875 0.40625 0
0.5 0.40625 0
0.5 0.4375 0
0.5625 0.4375 0
0.5 0.5 0
0.53125 0.4375 0
0.53125 0.46875 0
0.5 0.46875 0
0.5 0.4375 0
0.5 0.375 0
0.5625 0.4375 0
0.5 0.40625 0
0.53125 0.40625 0
0.53125 0.4375 0
0.4375 0.375 0
0.4375 0.4375 0
0.375 0.375 0
0.4375 0.40625 0
0.40625 0.40625 0
0.40625 0.375 0
0.4375 0.375 0
0.5 0.375 0
0.4375 0.4375 0
0.46875 0.375 0
0.46875 0.40625 0
0.4375 0.40625 0
0.4375 0.375 0
0.375 0.375 0
0.4375 0.3125 0
0.40625 0.375 0
0.40625 0.34375 0
0.4375 0.34375 0
0.4375 0.375 0
0.4375 0.3125 0
0.5 0.375 0
0.4375 0.34375 0
0.46875 0.34375 0
0.46875 0.375 0
0.375 0.5625 0
0.4375 0.5625 0
0.375 0.625 0
0.40625 0.5625 0
0.40625 0.59375 0
0.375 0.59375 0
0.375 0.5625 0
0.375 0.5 0
0.4375 0.5625 0
0.375 0.53125 0
0.40625 0.53125 0
0.40625 0.5625 0
0.375 0.5625 0
0.375 0.625 0
0.3125 0.5625 0
0.375 0.59375 0
0.34375 0.59375 0
0.34375 0.5625 0
0.375 0.5625 0
0.3125 0.5625 0
0.375 0.5 0
0.34375 0.5625 0
0.34375 0.53125 0
0.375 0.53125 0
0.5 0.5625 0
0.4375 0.5625 0
0.5 0.5 0
0.46875 0.5625 0
0.46875 0.53125 0
0.5 0.53125 0
0.5 0.5625 0
0.5 0.625 0
0.4375 0.5625 0
0.5 0.59375 0
0.46875 0.59375 0
0.46875 0.5625 0
0.5 0.5625 0
0.5 0.5 0
0.5625 0.5625 0
0.5 0.53125 0
0.53125 0.53125 0
0.53125 0.5625 0
0.5 0.5625 0
0.5625 0.5625 0
0.5 0.625 0
0.53125 0.5625 0
0.53125 0.59375 0
0.5 0.59375 0
0.4375 0.625 0
0.375 0.625 0
0.4375 0.5625 0
0.40625 0.625 0
0.40625 0.59375 0
0.4375 0.59375 0
0.4375 0.625 0
0.4375 0.5625 0
0.5 0.625 0
0.4375 0.59375 0
0.46875 0.59375 0
0.46875 0.625 0
0.4375 0.625 0
0.4375 0.6875 0
0.375 0.625 0
0.4375 0.65625 0
0.40625 0.65625 0
0.40625 0.625 0
0.4375 0.625 0
0.5 0.625 0
0.4375 0.6875 0
0.46875 0.625 0
0.46875 0.65625 0
0.4375 0.65625 0
0.3125 0.625 0
0.3125 0.5625 0
0.375 0.625 0
0.3125 0.59375 0
0.34375 0.59375 0
0.34375 0.625 0
0.3125 0.625 0
0.25 0.625 0
0.3125 0.5625 0
0.28125 0.625 0
0.28125 0.59375 0
0.3125 0.59375 0
0.3125 0.625 0
0.375 0.625 0
0.3125 0.6875 0
0.34375 0.625 0
0.34375 0.65625 0
0.3125 0.65625 0
0.3125 0.625 0
0.3125 0.6875 0
0.25 0.625 0
0.3125 0.65625 0
0.28125 0.65625 0
0.28125 0.625 0
0.5 0.3125 0
0.4375 0.3125 0
0.5 0.25 0
0.46875 0.3125 0
0.46875 0.28125 0
0.5 0.28125 0
0.5 0.3125 0
0.5 0.375 0
0.4375 0.3125 0
0.5 0.34375 0
0.46875 0.34375 0
0.46875 0.3125 0
0.5 0.3125 0
0.5 0.25 0
0.5625 0.3125 0
0.5 0.28125 0
0.53125 0.28125 0
0.53125 0.3125 0
0.5 0.3125 0
0.5625 0.3125 0
0.5 0.375 0
0.53125 0.3125 0
0.53125 0.34375 0
0.5 0.34375 0
0.4375 0.25 0
0.5 0.25 0
0.4375 0.3125 0
0.46875 0.25 0
0.46875 0.28125 0
0.4375 0.28125 0
0.4375 0.25 0
0.4375 0.3125 0
0.375 0.25 0
0.4375 0.28125 0
0.40625 0.28125 0
0.40625 0.25 0
0.4375 0.25 0
0.4375 0.1875 0
0.5 0.25 0
0.4375 0.21875 0
0.46875 0.21875 0
0.46875 0.25 0
0.4375 0.25 0
0.375 0.25 0
0.4375 0.1875 0
0.40625 0.25 0
0.40625 0.21875 0
0.4375 0.21875 0
0.5625 0.375 0
0.625 0.375 0
0.5625 0.4375 0
0.59375 0.375 0
0.59375 0.40625 0
0.5625 0.40625 0
0.5625 0.375 0
0.5625 0.4375 0
0.5 0.375 0
0.5625 0.40625 0
0.53125 0.40625 0
0.53125 0.375 0
0.5625 0.375 0
0.5625 0.3125 0
0.625 0.375 0
0.5625 0.34375 0
0.59375 0.34375 0
0.59375 0.375 0
0.5625 0.375 0
0.5 0.375 0
0.5625 0.3125 0
0.53125 0.375 0
0.53125 0.34375 0
0.5625 0.34375 0
0.5625 0.5 0
0.5 0.5 0
0.5625 0.4375 0
0.53125 0.5 0
0.53125 0.46875 0
0.5625 0.46875 0
0.5625 0.5 0
0.5625 0.4375 0
0.625 0.5 0
0.5625 0.46875 0
0.59375 0.46875 0
0.59375 0.5 0
0.5625 0.5 0
0.5625 0.5625 0
0.5 0.5 0
0.5625 0.53125 0
0.53125 0.53125 0
0.53125 0.5 0
0.5625 0.5 0
0.625 0.5 0
0.5625 0.5625 0
0.59375 0.5 0
0.59375 0.53125 0
0.5625 0.53125 0
0.625 0.4375 0
0.5625 0.4375 0
0.625 0.375 0
0.59375 0.4375 0
0.59375 0.40625 0
0.625 0.40625 0
0.625 0.4375 0
0.625 0.5 0
0.5625 0.4375 0
0.625 0.46875 0
0.59375 0.46875 0
0.59375 0.4375 0
0.625 0.4375 0
0.625 0.375 0
0.6875 0.4375 0
0.625 0.40625 0
0.65625 0.40625 0
0.65625 0.4375 0
0.625 0.4375 0
0.6875 0.4375 0
0.625 0.5 0
0.65625 0.4375 0
0.65625 0.46875 0
0.625 0.46875 0
0.5625 0.25 0
0.5625 0.3125 0
0.5 0.25 0
0.5625 0.28125 0
0.53125 0.28125 0
0.53125 0.25 0
0.5625 0.25 0
0.625 0.25 0
0.5625 0.3125 0
0.59375 0.25 0
0.59375 0.28125 0
0.5625 0.28125 0
0.5625 0.25 0
0.5 0.25 0
0.5625 0.1875 0
0.53125 0.25 0
0.53125 0.21875 0
0.5625 0.21875 0
0.5625 0.25 0
0.5625 0.1875 0
0.625 0.25 0
0.5625 0.21875 0
0.59375 0.21875 0
0.59375 0.25 0
0.625 0.3125 0
0.625 0.375 0
0.5625 0.3125 0
0.625 0.34375 0
0.59375 0.34375 0
0.59375 0.3125 0
0.625 0.3125 0
0.5625 0.3125 0
0.625 0.25 0
0.59375 0.3125 0
0.59375 0.28125 0
0.625 0.28125 0
0.625 0.3125 0
0.6875 0.3125 0
0.625 0.375 0
0.65625 0.3125 0
0.65625 0.34375 0
0.625 0.34375 0
0.625 0.3125 0
0.625 0.25 0
0.6875 0.3125 0
0.625 0.28125 0
0.65625 0.28125 0
0.65625 0.3125 0
0.5 0.1875 0
0.5 0.25 0
0.4375 0.1875 0
0.5 0.21875 0
0.46875 0.21875 0
0.46875 0.1875 0
0.5 0.1875 0
0.4375 0.1875 0
0.5 0.125 0
0.46875 0.1875 0
0.46875 0.15625 0
0.5 0.15625 0
0.5 0.1875 0
0.5625 0.1875 0
0.5 0.25 0
0.53125 0.1875 0
0.53125 0.21875 0
0.5 0.21875 0
0.5 0.1875 0
0.5 0.125 0
0.5625 0.1875 0
0.5 0.15625 0
0.53125 0.15625 0
0.53125 0.1875 0
0.4375 0.125 0
0.4375 0.1875 0
0.375 0.125 0
0.4375 0.15625 0
0.40625 0.15625 0
0.40625 0.125 0
0.4375 0.125 0
0.5 0.125 0
0.4375 0.1875 0
0.46875 0.125 0
0.46875 0.15625 0
0.4375 0.15625 0
0.4375 0.125 0
0.375 0.125 0
0.4375 0.0625 0
0.40625 0.125 0
0.40625 0.09375 0
0.4375 0.09375 0
0.4375 0.125 0
0.4375 0.0625 0
0.5 0.125 0
0.4375 0.09375 0
0.46875 0.09375 0
0.46875 0.125 0
0.25 0.6875 0
0.3125 0.6875 0
0.25 0.75 0
0.28125 0.6875 0
0.28125 0.71875 0
0.25 0.71875 0
0.25 0.6875 0
0.25 0.625 0
0.3125 0.6875 0
0.25 0.65625 0
0.28125 0.65625 0
0.28125 0.6875 0
0.25 0.6875 0
0.25 0.75 0
0.1875 0.6875 0
0.25 0.71875 0
0.21875 0.71875 0
0.21875 0.6875 0
0.25 0.6875 0
0.1875 0.6875 0
0.25 0.625 0
0.21875 0.6875 0
0.21875 0.65625 0
0.25 0.65625 0
0.3125 0.75 0
0.25 0.75 0
0.3125 0.6875 0
0.28125 0.75 0
0.28125 0.71875 0
0.3125 0.71875 0
0.3125 0.75 0
0.3125 0.6875 0
0.375 0.75 0
0.3125 0.71875 0
0.34375 0.71875 0
0.34375 0.75 0
0.3125 0.75 0
0.3125 0.8125 0
0.25 0.75 0
0.3125 0.78125 0
0.28125 0.78125 0
0.28125 0.75 0
0.3125 0.75 0
0.375 0.75 0
0.3125 0.8125 0
0.34375 0.75 0
0.34375 0.78125 0
0.3125 0.78125 0
0.375 0.6875 0
0.3125 0.6875 0
0.375 0.625 0
0.34375 0.6875 0
0.34375 0.65625 0
0.375 0.65625 0
0.375 0.6875 0
0.375 0.75 0
0.3125 0.6875 0
0.375 0.71875 0
0.34375 0.71875 0
0.34375 0.6875 0
0.375 0.6875 0
0.375 0.625 0
0.4375 0.6875 0
0.375 0.65625 0
0.40625 0.65625 0
0.40625 0.6875 0
0.375 0.6875 0
0.4375 0.6875 0
0.375 0.75 0
0.40625 0.6875 0
0.40625 0.71875 0
0.375 0.71875 0
0.1875 0.75 0
0.1875 0.6875 0
0.25 0.75 0
0.1875 0.71875 0
0.21875 0.71875 0
0.21875 0.75 0
0.1875 0.75 0
0.125 0.75 0
0.1875 0.6875 0
0.15625 0.75 0
0.15625 0.71875 0
0.1875 0.71875 0
0.1875 0.75 0
0.25 0.75 0
0.1875 0.8125 0
0.21875 0.75 0
0.21875 0.78125 0
0.1875 0.78125 0
0.1875 0.75 0
0.1875 0.8125 0
0.125 0.75 0
0.1875 0.78125 0
0.15625 0.78125 0
0.15625 0.75 0
0.125 0.6875 0
0.125 0.625 0
0.1875 0.6875 0
0.125 0.65625 0
0.15625 0.65625 0
0.15625 0.6875 0
0.125 0.6875 0
0.1875 0.6875 0
0.125 0.75 0
0.15625 0.6875 0
0.15625 0.71875 0
0.125 0.71875 0
0.125 0.6875 0
0.0625 0.6875 0
0.125 0.625 0
0.09375 0.6875 0
0.09375 0.65625 0
0.125 0.65625 0
0.125 0.6875 0
0.125 0.75 0
0.0625 0.6875 0
0.125 0.71875 0
0.09375 0.71875 0
0.09375 0.6875 0
0.5 0.6875 0
0.5 0.75 0
0.4375 0.6875 0
0.5 0.71875 0
0.46875 0.71875 0
0.46875 0.6875 0
0.5 0.6875 0
0.4375 0.6875 0
0.5 0.625 0
0.46875 0.6875 0
0.46875 0.65625 0
0.5 0.65625 0
0.5 0.6875 0
0.5625 0.6875 0
0.5 0.75 0
0.53125 0.6875 0
0.53125 0.71875 0
0.5 0.71875 0
0.5 0.6875 0
0.5 0.625 0
0.5625 0.6875 0
0.5 0.65625 0
0.53125 0.65625 0
0.53125 0.6875 0
0.4375 0.75 0
0.4375 0.6875 0
0.5 0.75 0
0.4375 0.71875 0
0.46875 0.71875 0
0.46875 0.75 0
0.4375 0.75 0
0.375 0.75 0
0.4375 0.6875 0
0.40625 0.75 0
0.40625 0.71875 0
0.4375 0.71875 0
0.4375 0.75 0
0.5 0.75 0
0.4375 0.8125 0
0.46875 0.75 0
0.46875 0.78125 0
0.4375 0.78125 0
0.4375 0.75 0
0.4375 0.8125 0
0.375 0.75 0
0.4375 0.78125 0
0.40625 0.78125 0
0.40625 0.75 0
0.5625 0.625 0
0.5625 0.5625 0
0.625 0.625 0
0.5625 0.59375 0
0.59375 0.59375 0
0.59375 0.625 0
0.5625 0.625 0
0.5 0.625 0
0.5625 0.5625 0
0.53125 0.625 0
0.53125 0.59375 0
0.5625 0.59375 0
0.5625 0.625 0
0.625 0.625 0
0.5625 0.6875 0
0.59375 0.625 0
0.59375 0.65625 0
0.5625 0.65625 0
0.5625 0.625 0
0.5625 0.6875 0
0.5 0.625 0
0.5625 0.65625 0
0.53125 0.65625 0
0.53125 0.625 0
0.625 0.5625 0
0.625 0.625 0
0.5625 0.5625 0
0.625 0.59375 0
0.59375 0.59375 0
0.59375 0.5625 0
0.625 0.5625 0
0.5625 0.5625 0
0.625 0.5 0
0.59375 0.5625 0
0.59375 0.53125 0
0.625 0.53125 0
0.625 0.5625 0
0.6875 0.5625 0
0.625 0.625 0
0.65625 0.5625 0
0.65625 0.59375 0
0.625 0.59375 0
0.625 0.5625 0
0.625 0.5 0
0.6875 0.5625 0
0.625 0.53125 0
0.65625 0.53125 0
0.65625 0.5625 0
0.5625 0.75 0
0.5 0.75 0
0.5625 0.6875 0
0.53125 0.75 0
0.53125 0.71875 0
0.5625 0.71875 0
0.5625 0.75 0
0.5625 0.6875 0
0.625 0.75 0
0.5625 0.71875 0
0.59375 0.71875 0
0.59375 0.75 0
0.5625 0.75 0
0.5625 0.8125 0
0.5 0.75 0
0.5625 0.78125 0
0.53125 0.78125 0
0.53125 0.75 0
0.5625 0.75 0
0.625 0.75 0
0.5625 0.8125 0
0.59375 0.75 0
0.59375 0.78125 0
0.5625 0.78125 0
0.625 0.6875 0
0.5625 0.6875 0
0.625 0.625 0
0.59375 0.6875 0
0.59375 0.65625 0
0.625 0.65625 0
0.625 0.6875 0
0.625 0.75 0
0.5625 0.6875 0
0.625 0.71875 0
0.59375 0.71875 0
0.59375 0.6875 0
0.625 0.6875 0
0.625 0.625 0
0.6875 0.6875 0
0.625 0.65625 0
0.65625 0.65625 0
0.65625 0.6875 0
0.625 0.6875 0
0.6875 0.6875 0
0.625 0.75 0
0.65625 0.6875 0
0.65625 0.71875 0
0.625 0.71875 0
0.375 0.8125 0
0.375 0.875 0
0.3125 0.8125 0
0.375 0.84375 0
0.34375 0.84375 0
0.34375 0.8125 0
0.375 0.8125 0
0.3125 0.8125 0
0.375 0.75 0
0.34375 0.8125 0
0.34375 0.78125 0
0.375 0.78125 0
0.375 0.8125 0
0.4375 0.8125 0
0.375 0.875 0
0.40625 0.8125 0
0.40625 0.84375 0
0.375 0.84375 0
0.375 0.8125 0
0.375 0.75 0
0.4375 0.8125 0
0.375 0.78125 0
0.40625 0.78125 0
0.40625 0.8125 0
0.25 0.8125 0
0.25 0.75 0
0.3125 0.8125 0
0.25 0.78125 0
0.28125 0.78125 0
0.28125 0.8125 0
0.25 0.8125 0
0.3125 0.8125 0
0.25 0.875 0
0.28125 0.8125 0
0.28125 0.84375 0
0.25 0.84375 0
0.25 0.8125 0
0.1875 0.8125 0
0.25 0.75 0
0.21875 0.8125 0
0.21875 0.78125 0
0.25 0.78125 0
0.25 0.8125 0
0.25 0.875 0
0.1875 0.8125 0
0.25 0.84375 0
0.21875 0.84375 0
0.21875 0.8125 0
0.3125 0.875 0
0.3125 0.8125 0
0.375 0.875 0
0.3125 0.84375 0
0.34375 0.84375 0
0.34375 0.875 0
0.3125 0.875 0
0.25 0.875 0
0.3125 0.8125 0
0.28125 0.875 0
0.28125 0.84375 0
0.3125 0.84375 0
0.3125 0.875 0
0.375 0.875 0
0.3125 0.9375 0
0.34375 0.875 0
0.34375 0.90625 0
0.3125 0.90625 0
0.3125 0.875 0
0.3125 0.9375 0
0.25 0.875 0
0.3125 0.90625 0
0.28125 0.90625 0
0.28125 0.875 0
0.5 0.8125 0
0.4375 0.8125 0
0.5 0.75 0
0.46875 0.8125 0
0.46875 0.78125 0
0.5 0.78125 0
0.5 0.8125 0
0.5 0.875 0
0.4375 0.8125 0
0.5 0.84375 0
0.46875 0.84375 0
0.46875 0.8125 0
0.5 0.8125 0
0.5 0.75 0
0.5625 0.8125 0
0.5 0.78125 0
0.53125 0.78125 0
0.53125 0.8125 0
0.5 0.8125 0
0.5625 0.8125 0
0.5 0.875 0
0.53125 0.8125 0
0.53125 0.84375 0
0.5 0.84375 0
0.4375 0.875 0
0.375 0.875 0
0.4375 0.8125 0
0.40625 0.875 0
0.40625 0.84375 0
0.4375 0.84375 0
0.4375 0.875 0
0.4375 0.8125 0
0.5 0.875 0
0.4375 0.84375 0
0.46875 0.84375 0
0.46875 0.875 0
0.4375 0.875 0
0.4375 0.9375 0
0.375 0.875 0
0.4375 0.90625 0
0.40625 0.90625 0
0.40625 0.875 0
0.4375 0.875 0
0.5 0.875 0
0.4375 0.9375 0
0.46875 0.875 0
0.46875 0.90625 0
0.4375 0.90625 0
0 0.6875 0
0.0625 0.6875 0
0 0.75 0
0.03125 0.6875 0
0.03125 0.71875 0
0 0.71875 0
0 0.6875 0
0 0.625 0
0.0625 0.6875 0
0 0.65625 0
0.03125 0.65625 0
0.03125 0.6875 0
0.0625 0.75 0
0 0.75 0
0.0625 0.6875 0
0.03125 0.75 0
0.03125 0.71875 0
0.0625 0.71875 0
0.0625 0.75 0
0.0625 0.6875 0
0.125 0.75 0
0.0625 0.71875 0
0.09375 0.71875 0
0.09375 0.75 0
0.0625 0.75 0
0.0625 0.8125 0
0 0.75 0
0.0625 0.78125 0
0.03125 0.78125 0
0.03125 0.75 0
0.0625 0.75 0
0.125 0.75 0
0.0625 0.8125 0
0.09375 0.75 0
0.09375 0.78125 0
0.0625 0.78125 0
0.125 0.8125 0
0.1875 0.8125 0
0.125 0.875 0
0.15625 0.8125 0
0.15625 0.84375 0
0.125 0.84375 0
0.125 0.8125 0
0.125 0.75 0
0.1875 0.8125 0
0.125 0.78125 0
0.15625 0.78125 0
0.15625 0.8125 0
0.125 0.8125 0
0.125 0.875 0
0.0625 0.8125 0
0.125 0.84375 0
0.09375 0.84375 0
0.09375 0.8125 0
0.125 0.8125 0
0.0625 0.8125 0
0.125 0.75 0
0.09375 0.8125 0
0.09375 0.78125 0
0.125 0.78125 0
0.1875 0.875 0
0.125 0.875 0
0.1875 0.8125 0
0.15625 0.875 0
0.15625 0.84375 0
0.1875 0.84375 0
0.1875 0.875 0
0.1875 0.8125 0
0.25 0.875 0
0.1875 0.84375 0
0.21875 0.84375 0
0.21875 0.875 0
0.1875 0.875 0
0.1875 0.9375 0
0.125 0.875 0
0.1875 0.90625 0
0.15625 0.90625 0
0.15625 0.875 0
0.1875 0.875 0
0.25 0.875 0
0.1875 0.9375 0
0.21875 0.875 0
0.21875 0.90625 0
0.1875 0.90625 0
0 0.8125 0
0 0.75 0
0.0625 0.8125 0
0 0.78125 0
0.03125 0.78125 0
0.03125 0.8125 0
0 0.8125 0
0.0625 0.8125 0
0 0.875 0
0.03125 0.8125 0
0.03125 0.84375 0
0 0.84375 0
0.0625 0.875 0
0.0625 0.8125 0
0.125 0.875 0
0.0625 0.84375 0
0.09375 0.84375 0
0.09375 0.875 0
0.0625 0.875 0
0 0.875 0
0.0625 0.8125 0
0.03125 0.875 0
0.03125 0.84375 0
0.0625 0.84375 0
0.0625 0.875 0
0.125 0.875 0
0.0625 0.9375 0
0.09375 0.875 0
0.09375 0.90625 0
0.0625 0.90625 0
0.0625 0.875 0
0.0625 0.9375 0
0 0.875 0
0.0625 0.90625 0
0.03125 0.90625 0
0.03125 0.875 0
0.4375 0 0
0.5 0 0
0.4375 0.0625 0
0.46875 0 0
0.46875 0.03125 0
0.4375 0.03125 0
0.4375 0 0
0.4375 0.0625 0
0.375 0 0
0.4375 0.03125 0
0.40625 0.03125 0
0.40625 0 0
0.5 0.0625 0
0.4375 0.0625 0
0.5 0 0
0.46875 0.0625 0
0.46875 0.03125 0
0.5 0.03125 0
0.5 0.0625 0
0.5 0.125 0
0.4375 0.0625 0
0.5 0.09375 0
0.46875 0.09375 0
0.46875 0.0625 0
0.5 0.0625 0
0.5 0 0
0.5625 0.0625 0
0.5 0.03125 0
0.53125 0.03125 0
0.53125 0.0625 0
0.5 0.0625 0
0.5625 0.0625 0
0.5 0.125 0
0.53125 0.0625 0
0.53125 0.09375 0
0.5 0.09375 0
0.5625 0.125 0
0.5625 0.0625 0
0.625 0.125 0
0.5625 0.09375 0
0.59375 0.09375 0
0.59375 0.125 0
0.5625 0.125 0
0.5 0.125 0
0.5625 0.0625 0
0.53125 0.125 0
0.53125 0.09375 0
0.5625 0.09375 0
0.5625 0.125 0
0.625 0.125 0
0.5625 0.1875 0
0.59375 0.125 0
0.59375 0.15625 0
0.5625 0.15625 0
0.5625 0.125 0
0.5625 0.1875 0
0.5 0.125 0
0.5625 0.15625 0
0.53125 0.15625 0
0.53125 0.125 0
0.5625 0 0
0.5625 0.0625 0
0.5 0 0
0.5625 0.03125 0
0.53125 0.03125 0
0.53125 0 0
0.5625 0 0
0.625 0 0
0.5625 0.0625 0
0.59375 0 0
0.59375 0.03125 0
0.5625 0.03125 0
0.625 0.0625 0
0.625 0.125 0
0.5625 0.0625 0
0.625 0.09375 0
0.59375 0.09375 0
0.59375 0.0625 0
0.625 0.0625 0
0.5625 0.0625 0
0.625 0 0
0.59375 0.0625 0
0.59375 0.03125 0
0.625 0.03125 0
0.625 0.0625 0
0.6875 0.0625 0
0.625 0.125 0
0.65625 0.0625 0
0.65625 0.09375 0
0.625 0.09375 0
0.625 0.0625 0
0.625 0 0
0.6875 0.0625 0
0.625 0.03125 0
0.65625 0.03125 0
0.65625 0.0625 0
0.625 0.1875 0
0.5625 0.1875 0
0.625 0.125 0
0.59375 0.1875 0
0.59375 0.15625 0
0.625 0.15625 0
0.625 0.1875 0
0.625 0.25 0
0.5625 0.1875 0
0.625 0.21875 0
0.59375 0.21875 0
0.59375 0.1875 0
0.625 0.1875 0
0.625 0.125 0
0.6875 0.1875 0
0.625 0.15625 0
0.65625 0.15625 0
0.65625 0.1875 0
0.625 0.1875 0
0.6875 0.1875 0
0.625 0.25 0
0.65625 0.1875 0
0.65625 0.21875 0
0.625 0.21875 0
0.6875 0.25 0
0.75 0.25 0
0.6875 0.3125 0
0.71875 0.25 0
0.71875 0.28125 0
0.6875 0.28125 0
0.6875 0.25 0
0.6875 0.3125 0
0.625 0.25 0
0.6875 0.28125 0
0.65625 0.28125 0
0.65625 0.25 0
0.6875 0.25 0
0.6875 0.1875 0
0.75 0.25 0
0.6875 0.21875 0
0.71875 0.21875 0
0.71875 0.25 0
0.6875 0.25 0
0.625 0.25 0
0.6875 0.1875 0
0.65625 0.25 0
0.65625 0.21875 0
0.6875 0.21875 0
0.75 0.3125 0
0.6875 0.3125 0
0.75 0.25 0
0.71875 0.3125 0
0.71875 0.28125 0
0.75 0.28125 0
0.75 0.3125 0
0.75 0.375 0
0.6875 0.3125 0
0.75 0.34375 0
0.71875 0.34375 0
0.71875 0.3125 0
0.75 0.3125 0
0.75 0.25 0
0.8125 0.3125 0
0.75 0.28125 0
0.78125 0.28125 0
0.78125 0.3125 0
0.75 0.3125 0
0.8125 0.3125 0
0.75 0.375 0
0.78125 0.3125 0
0.78125 0.34375 0
0.75 0.34375 0
0.6875 0.375 0
0.625 0.375 0
0.6875 0.3125 0
0.65625 0.375 0
0.65625 0.34375 0
0.6875 0.34375 0
0.6875 0.375 0
0.6875 0.3125 0
0.75 0.375 0
0.6875 0.34375 0
0.71875 0.34375 0
0.71875 0.375 0
0.6875 0.375 0
0.6875 0.4375 0
0.625 0.375 0
0.6875 0.40625 0
0.65625 0.40625 0
0.65625 0.375 0
0.6875 0.375 0
0.75 0.375 0
0.6875 0.4375 0
0.71875 0.375 0
0.71875 0.40625 0
0.6875 0.40625 0
0.75 0.1875 0
0.75 0.25 0
0.6875 0.1875 0
0.75 0.21875 0
0.71875 0.21875 0
0.71875 0.1875 0
0.75 0.1875 0
0.6875 0.1875 0
0.75 0.125 0
0.71875 0.1875 0
0.71875 0.15625 0
0.75 0.15625 0
0.75 0.1875 0
0.8125 0.1875 0
0.75 0.25 0
0.78125 0.1875 0
0.78125 0.21875 0
0.75 0.21875 0
0.75 0.1875 0
0.75 0.125 0
0.8125 0.1875 0
0.75 0.15625 0
0.78125 0.15625 0
0.78125 0.1875 0
0.6875 0.125 0
0.6875 0.1875 0
0.625 0.125 0
0.6875 0.15625 0
0.65625 0.15625 0
0.65625 0.125 0
0.6875 0.125 0
0.75 0.125 0
0.6875 0.1875 0
0.71875 0.125 0
0.71875 0.15625 0
0.6875 0.15625 0
0.6875 0.125 0
0.625 0.125 0
0.6875 0.0625 0
0.65625 0.125 0
0.65625 0.09375 0
0.6875 0.09375 0
0.6875 0.125 0
0.6875 0.0625 0
0.75 0.125 0
0.6875 0.09375 0
0.71875 0.09375 0
0.71875 0.125 0
0.6875 0.5 0
0.6875 0.4375 0
0.75 0.5 0
0.6875 0.46875 0
0.71875 0.46875 0
0.71875 0.5 0
0.6875 0.5 0
0.625 0.5 0
0.6875 0.4375 0
0.65625 0.5 0
0.65625 0.46875 0
0.6875 0.46875 0
0.6875 0.5 0
0.75 0.5 0
0.6875 0.5625 0
0.71875 0.5 0
0.71875 0.53125 0
0.6875 0.53125 0
0.6875 0.5 0
0.6875 0.5625 0
0.625 0.5 0
0.6875 0.53125 0
0.65625 0.53125 0
0.65625 0.5 0
0.75 0.4375 0
0.75 0.5 0
0.6875 0.4375 0
0.75 0.46875 0
0.71875 0.46875 0
0.71875 0.4375 0
0.75 0.4375 0
0.6875 0.4375 0
0.75 0.375 0
0.71875 0.4375 0
0.71875 0.40625 0
0.75 0.40625 0
0.75 0.4375 0
0.8125 0.4375 0
0.75 0.5 0
0.78125 0.4375 0
0.78125 0.46875 0
0.75 0.46875 0
0.75 0.4375 0
0.75 0.375 0
0.8125 0.4375 0
0.75 0.40625 0
0.78125 0.40625 0
0.78125 0.4375 0
0.75 0.5625 0
0.6875 0.5625 0
0.75 0.5 0
0.71875 0.5625 0
0.71875 0.53125 0
0.75 0.53125 0
0.75 0.5625 0
0.75 0.625 0
0.6875 0.5625 0
0.75 0.59375 0
0.71875 0.59375 0
0.71875 0.5625 0
0.75 0.5625 0
0.75 0.5 0
0.8125 0.5625 0
0.75 0.53125 0
0.78125 0.53125 0
0.78125 0.5625 0
0.75 0.5625 0
0.8125 0.5625 0
0.75 0.625 0
0.78125 0.5625 0
0.78125 0.59375 0
0.75 0.59375 0
0.6875 0.625 0
0.625 0.625 0
0.6875 0.5625 0
0.65625 0.625 0
0.65625 0.59375 0
0.6875 0.59375 0
0.6875 0.625 0
0.6875 0.5625 0
0.75 0.625 0
0.6875 0.59375 0
0.71875 0.59375 0
0.71875 0.625 0
0.6875 0.625 0
0.6875 0.6875 0
0.625 0.625 0
0.6875 0.65625 0
0.65625 0.65625 0
0.65625 0.625 0
0.6875 0.625 0
0.75 0.625 0
0.6875 0.6875 0
0.71875 0.625 0
0.71875 0.65625 0
0.6875 0.65625 0
0.8125 0.375 0
0.8125 0.3125 0
0.875 0.375 0
0.8125 0.34375 0
0.84375 0.34375 0
0.84375 0.375 0
0.8125 0.375 0
0.75 0.375 0
0.8125 0.3125 0
0.78125 0.375 0
0.78125 0.34375 0
0.8125 0.34375 0
0.8125 0.375 0
0.875 0.375 0
0.8125 0.4375 0
0.84375 0.375 0
0.84375 0.40625 0
0.8125 0.40625 0
0.8125 0.375 0
0.8125 0.4375 0
0.75 0.375 0
0.8125 0.40625 0
0.78125 0.40625 0
0.78125 0.375 0
0.8125 0.25 0
0.8125 0.3125 0
0.75 0.25 0
0.8125 0.28125 0
0.78125 0.28125 0
0.78125 0.25 0
0.8125 0.25 0
0.875 0.25 0
0.8125 0.3125 0
0.84375 0.25 0
0.84375 0.28125 0
0.8125 0.28125 0
0.8125 0.25 0
0.75 0.25 0
0.8125 0.1875 0
0.78125 0.25 0
0.78125 0.21875 0
0.8125 0.21875 0
0.8125 0.25 0
0.8125 0.1875 0
0.875 0.25 0
0.8125 0.21875 0
0.84375 0.21875 0
0.84375 0.25 0
0.875 0.3125 0
0.875 0.375 0
0.8125 0.3125 0
0.875 0.34375 0
0.84375 0.34375 0
0.84375 0.3125 0
0.875 0.3125 0
0.8125 0.3125 0
0.875 0.25 0
0.84375 0.3125 0
0.84375 0.28125 0
0.875 0.28125 0
0.875 0.3125 0
0.9375 0.3125 0
0.875 0.375 0
0.90625 0.3125 0
0.90625 0.34375 0
0.875 0.34375 0
0.875 0.3125 0
0.875 0.25 0
0.9375 0.3125 0
0.875 0.28125 0
0.90625 0.28125 0
0.90625 0.3125 0
0.8125 0.5 0
0.75 0.5 0
0.8125 0.4375 0
0.78125 0.5 0
0.78125 0.46875 0
0.8125 0.46875 0
0.8125 0.5 0
0.8125 0.4375 0
0.875 0.5 0
0.8125 0.46875 0
0.84375 0.46875 0
0.84375 0.5 0
0.8125 0.5 0
0.8125 0.5625 0
0.75 0.5 0
0.8125 0.53125 0
0.78125 0.53125 0
0.78125 0.5 0
0.8125 0.5 0
0.875 0.5 0
0.8125 0.5625 0
0.84375 0.5 0
0.84375 0.53125 0
0.8125 0.53125 0
0.875 0.4375 0
0.8125 0.4375 0
0.875 0.375 0
0.84375 0.4375 0
0.84375 0.40625 0
0.875 0.40625 0
0.875 0.4375 0
0.875 0.5 0
0.8125 0.4375 0
0.875 0.46875 0
0.84375 0.46875 0
0.84375 0.4375 0
0.875 0.4375 0
0.875 0.375 0
0.9375 0.4375 0
0.875 0.40625 0
0.90625 0.40625 0
0.90625 0.4375 0
0.875 0.4375 0
0.9375 0.4375 0
0.875 0.5 0
0.90625 0.4375 0
0.90625 0.46875 0
0.875 0.46875 0
0.6875 0 0
0.75 0 0
0.6875 0.0625 0
0.71875 0 0
0.71875 0.03125 0
0.6875 0.03125 0
0.6875 0 0
0.6875 0.0625 0
0.625 0 0
0.6875 0.03125 0
0.65625 0.03125 0
0.65625 0 0
0.75 0.0625 0
0.6875 0.0625 0
0.75 0 0
0.71875 0.0625 0
0.71875 0.03125 0
0.75 0.03125 0
0.75 0.0625 0
0.75 0.125 0
0.6875 0.0625 0
0.75 0.09375 0
0.71875 0.09375 0
0.71875 0.0625 0
0.75 0.0625 0
0.75 0 0
0.8125 0.0625 0
0.75 0.03125 0
0.78125 0.03125 0
0.78125 0.0625 0
0.75 0.0625 0
0.8125 0.0625 0
0.75 0.125 0
0.78125 0.0625 0
0.78125 0.09375 0
0.75 0.09375 0
0.8125 0.125 0
0.875 0.125 0
0.8125 0.1875 0
0.84375 0.125 0
0.84375 0.15625 0
0.8125 0.15625 0
0.8125 0.125 0
0.8125 0.1875 0
0.75 0.125 0
0.8125 0.15625 0
0.78125 0.15625 0
0.78125 0.125 0
0.8125 0.125 0
0.8125 0.0625 0
0.875 0.125 0
0.8125 0.09375 0
0.84375 0.09375 0
0.84375 0.125 0
0.8125 0.125 0
0.75 0.125 0
0.8125 0.0625 0
0.78125 0.125 0
0.78125 0.09375 0
0.8125 0.09375 0
0.875 0.1875 0
0.8125 0.1875 0
0.875 0.125 0
0.84375 0.1875 0
0.84375 0.15625 0
0.875 0.15625 0
0.875 0.1875 0
0.875 0.25 0
0.8125 0.1875 0
0.875 0.21875 0
0.84375 0.21875 0
0.84375 0.1875 0
0.875 0.1875 0
0.875 0.125 0
0.9375 0.1875 0
0.875 0.15625 0
0.90625 0.15625 0
0.90625 0.1875 0
0.875 0.1875 0
0.9375 0.1875 0
0.875 0.25 0
0.90625 0.1875 0
0.90625 0.21875 0
0.875 0.21875 0
0.8125 0 0
0.8125 0.0625 0
0.75 0 0
0.8125 0.03125 0
0.78125 0.03125 0
0.78125 0 0
0.8125 0 0
0.875 0 0
0.8125 0.0625 0
0.84375 0 0
0.84375 0.03125 0
0.8125 0.03125 0
0.875 0.0625 0
0.875 0.125 0
0.8125 0.0625 0
0.875 0.09375 0
0.84375 0.09375 0
0.84375 0.0625 0
0.875 0.0625 0
0.8125 0.0625 0
0.875 0 0
0.84375 0.0625 0
0.84375 0.03125 0
0.875 0.03125 0
0.875 0.0625 0
0.9375 0.0625 0
0.875 0.125 0
0.90625 0.0625 0
0.90625 0.09375 0
0.875 0.09375 0
0.875 0.0625 0
0.875 0 0
0.9375 0.0625 0
0.875 0.03125 0
0.90625 0.03125 0
0.90625 0.0625 0
0 0.9375 0
0.0625 0.9375 0
0 1 0
0.03125 0.9375 0
0.03125 0.96875 0
0 0.96875 0
0 0.9375 0
0 0.875 0
0.0625 0.9375 0
0 0.90625 0
0.03125 0.90625 0
0.03125 0.9375 0
0.0625 1 0
0 1 0
0.0625 0.9375 0
0.03125 1 0
0.03125 0.96875 0
0.0625 0.96875 0
0.0625 1 0
0.0625 0.9375 0
0.125 1 0
0.0625 0.96875 0
0.09375 0.96875 0
0.09375 1 0
0.125 0.9375 0
0.0625 0.9375 0
0.125 0.875 0
0.09375 0.9375 0
0.09375 0.90625 0
0.125 0.90625 0
0.125 0.9375 0
0.125 1 0
0.0625 0.9375 0
0.125 0.96875 0
0.09375 0.96875 0
0.09375 0.9375 0
0.125 0.9375 0
0.125 0.875 0
0.1875 0.9375 0
0.125 0.90625 0
0.15625 0.90625 0
0.15625 0.9375 0
0.125 0.9375 0
0.1875 0.9375 0
0.125 1 0
0.15625 0.9375 0
0.15625 0.96875 0
0.125 0.96875 0
0.1875 1 0
0.1875 0.9375 0
0.25 1 0
0.1875 0.96875 0
0.21875 0.96875 0
0.21875 1 0
0.1875 1 0
0.125 1 0
0.1875 0.9375 0
0.15625 1 0
0.15625 0.96875 0
0.1875 0.96875 0
0.25 0.9375 0
0.25 1 0
0.1875 0.9375 0
0.25 0.96875 0
0.21875 0.96875 0
0.21875 0.9375 0
0.25 0.9375 0
0.1875 0.9375 0
0.25 0.875 0
0.21875 0.9375 0
0.21875 0.90625 0
0.25 0.90625 0
0.25 0.9375 0
0.3125 0.9375 0
0.25 1 0
0.28125 0.9375 0
0.28125 0.96875 0
0.25 0.96875 0
0.25 0.9375 0
0.25 0.875 0
0.3125 0.9375 0
0.25 0.90625 0
0.28125 0.90625 0
0.28125 0.9375 0
0.3125 1 0
0.25 1 0
0.3125 0.9375 0
0.28125 1 0
0.28125 0.96875 0
0.3125 0.96875 0
0.3125 1 0
0.3125 0.9375 0
0.375 1 0
0.3125 0.96875 0
0.34375 0.96875 0
0.34375 1 0
0.375 0.9375 0
0.3125 0.9375 0
0.375 0.875 0
0.34375 0.9375 0
0.34375 0.90625 0
0.375 0.90625 0
0.375 0.9375 0
0.375 1 0
0.3125 0.9375 0
0.375 0.96875 0
0.34375 0.96875 0
0.34375 0.9375 0
0.375 0.9375 0
0.375 0.875 0
0.4375 0.9375 0
0.375 0.90625 0
0.40625 0.90625 0
0.40625 0.9375 0
0.375 0.9375 0
0.4375 0.9375 0
0.375 1 0
0.40625 0.9375 0
0.40625 0.96875 0
0.375 0.96875 0
0.4375 1 0
0.4375 0.9375 0
0.5 1 0
0.4375 0.96875 0
0.46875 0.96875 0
0.46875 1 0
0.4375 1 0
0.375 1 0
0.4375 0.9375 0
0.40625 1 0
0.40625 0.96875 0
0.4375 0.96875 0
0.5 0.9375 0
0.5 1 0
0.4375 0.9375 0
0.5 0.96875 0
0.46875 0.96875 0
0.46875 0.9375 0
0.5 0.9375 0
0.4375 0.9375 0
0.5 0.875 0
0.46875 0.9375 0
0.46875 0.90625 0
0.5 0.90625 0
0.5 0.9375 0
0.5625 0.9375 0
0.5 1 0
0.53125 0.9375 0
0.53125 0.96875 0
0.5 0.96875 0
0.5 0.9375 0
0.5 0.875 0
0.5625 0.9375 0
0.5 0.90625 0
0.53125 0.90625 0
0.53125 0.9375 0
0.5625 0.875 0
0.625 0.875 0
0.5625 0.9375 0
0.59375 0.875 0
0.59375 0.90625 0
0.5625 0.90625 0
0.5625 0.875 0
0.5625 0.9375 0
0.5 0.875 0
0.5625 0.90625 0
0.53125 0.90625 0
0.53125 0.875 0
0.5625 0.875 0
0.5625 0.8125 0
0.625 0.875 0
0.5625 0.84375 0
0.59375 0.84375 0
0.59375 0.875 0
0.5625 0.875 0
0.5 0.875 0
0.5625 0.8125 0
0.53125 0.875 0
0.53125 0.84375 0
0.5625 0.84375 0
0.5625 1 0
0.5 1 0
0.5625 0.9375 0
0.53125 1 0
0.53125 0.96875 0
0.5625 0.96875 0
0.5625 1 0
0.5625 0.9375 0
0.625 1 0
0.5625 0.96875 0
0.59375 0.96875 0
0.59375 1 0
0.625 0.9375 0
0.5625 0.9375 0
0.625 0.875 0
0.59375 0.9375 0
0.59375 0.90625 0
0.625 0.90625 0
0.625 0.9375 0
0.625 1 0
0.5625 0.9375 0
0.625 0.96875 0
0.59375 0.96875 0
0.59375 0.9375 0
0.625 0.9375 0
0.625 0.875 0
0.6875 0.9375 0
0.625 0.90625 0
0.65625 0.90625 0
0.65625 0.9375 0
0.625 0.9375 0
0.6875 0.9375 0
0.625 1 0
0.65625 0.9375 0
0.65625 0.96875 0
0.625 0.96875 0
0.625 0.8125 0
0.625 0.875 0
0.5625 0.8125 0
0.625 0.84375 0
0.59375 0.84375 0
0.59375 0.8125 0
0.625 0.8125 0
0.5625 0.8125 0
0.625 0.75 0
0.59375 0.8125 0
0.59375 0.78125 0
0.625 0.78125 0
0.625 0.8125 0
0.6875 0.8125 0
0.625 0.875 0
0.65625 0.8125 0
0.65625 0.84375 0
0.625 0.84375 0
0.625 0.8125 0
0.625 0.75 0
0.6875 0.8125 0
0.625 0.78125 0
0.65625 0.78125 0
0.65625 0.8125 0
0.6875 0.75 0
0.6875 0.6875 0
0.75 0.75 0
0.6875 0.71875 0
0.71875 0.71875 0
0.71875 0.75 0
0.6875 0.75 0
0.625 0.75 0
0.6875 0.6875 0
0.65625 0.75 0
0.65625 0.71875 0
0.6875 0.71875 0
0.6875 0.75 0
0.75 0.75 0
0.6875 0.8125 0
0.71875 0.75 0
0.71875 0.78125 0
0.6875 0.78125 0
0.6875 0.75 0
0.6875 0.8125 0
0.625 0.75 0
0.6875 0.78125 0
0.65625 0.78125 0
0.65625 0.75 0
0.75 0.6875 0
0.75 0.75 0
0.6875 0.6875 0
0.75 0.71875 0
0.71875 0.71875 0
0.71875 0.6875 0
0.75 0.6875 0
0.6875 0.6875 0
0.75 0.625 0
0.71875 0.6875 0
0.71875 0.65625 0
0.75 0.65625 0
0.75 0.6875 0
0.8125 0.6875 0
0.75 0.75 0
0.78125 0.6875 0
0.78125 0.71875 0
0.75 0.71875 0
0.75 0.6875 0
0.75 0.625 0
0.8125 0.6875 0
0.75 0.65625 0
0.78125 0.65625 0
0.78125 0.6875 0
0.75 0.8125 0
0.6875 0.8125 0
0.75 0.75 0
0.71875 0.8125 0
0.71875 0.78125 0
0.75 0.78125 0
0.75 0.8125 0
0.75 0.875 0
0.6875 0.8125 0
0.75 0.84375 0
0.71875 0.84375 0
0.71875 0.8125 0
0.75 0.8125 0
0.75 0.75 0
0.8125 0.8125 0
0.75 0.78125 0
0.78125 0.78125 0
0.78125 0.8125 0
0.75 0.8125 0
0.8125 0.8125 0
0.75 0.875 0
0.78125 0.8125 0
0.78125 0.84375 0
0.75 0.84375 0
0.6875 0.875 0
0.625 0.875 0
0.6875 0.8125 0
0.65625 0.875 0
0.65625 0.84375 0
0.6875 0.84375 0
0.6875 0.875 0
0.6875 0.8125 0
0.75 0.875 0
0.6875 0.84375 0
0.71875 0.84375 0
0.71875 0.875 0
0.6875 0.875 0
0.6875 0.9375 0
0.625 0.875 0
0.6875 0.90625 0
0.65625 0.90625 0
0.65625 0.875 0
0.6875 0.875 0
0.75 0.875 0
0.6875 0.9375 0
0.71875 0.875 0
0.71875 0.90625 0
0.6875 0.90625 0
0.8125 0.625 0
0.875 0.625 0
0.8125 0.6875 0
0.84375 0.625 0
0.84375 0.65625 0
0.8125 0.65625 0
0.8125 0.625 0
0.8125 0.6875 0
0.75 0.625 0
0.8125 0.65625 0
0.78125 0.65625 0
0.78125 0.625 0
0.8125 0.625 0
0.8125 0.5625 0
0.875 0.625 0
0.8125 0.59375 0
0.84375 0.59375 0
0.84375 0.625 0
0.8125 0.625 0
0.75 0.625 0
0.8125 0.5625 0
0.78125 0.625 0
0.78125 0.59375 0
0.8125 0.59375 0
0.8125 0.75 0
0.75 0.75 0
0.8125 0.6875 0
0.78125 0.75 0
0.78125 0.71875 0
0.8125 0.71875 0
0.8125 0.75 0
0.8125 0.6875 0
0.875 0.75 0
0.8125 0.71875 0
0.84375 0.71875 0
0.84375 0.75 0
0.8125 0.75 0
0.8125 0.8125 0
0.75 0.75 0
0.8125 0.78125 0
0.78125 0.78125 0
0.78125 0.75 0
0.8125 0.75 0
0.875 0.75 0
0.8125 0.8125 0
0.84375 0.75 0
0.84375 0.78125 0
0.8125 0.78125 0
0.875 0.6875 0
0.8125 0.6875 0
0.875 0.625 0
0.84375 0.6875 0
0.84375 0.65625 0
0.875 0.65625 0
0.875 0.6875 0
0.875 0.75 0
0.8125 0.6875 0
0.875 0.71875 0
0.84375 0.71875 0
0.84375 0.6875 0
0.875 0.6875 0
0.875 0.625 0
0.9375 0.6875 0
0.875 0.65625 0
0.90625 0.65625 0
0.90625 0.6875 0
0.875 0.6875 0
0.9375 0.6875 0
0.875 0.75 0
0.90625 0.6875 0
0.90625 0.71875 0
0.875 0.71875 0
0.875 0.5625 0
0.875 0.625 0
0.8125 0.5625 0
0.875 0.59375 0
0.84375 0.59375 0
0.84375 0.5625 0
0.875 0.5625 0
0.8125 0.5625 0
0.875 0.5 0
0.84375 0.5625 0
0.84375 0.53125 0
0.875 0.53125 0
0.875 0.5625 0
0.9375 0.5625 0
0.875 0.625 0
0.90625 0.5625 0
0.90625 0.59375 0
0.875 0.59375 0
0.875 0.5625 0
0.875 0.5 0
0.9375 0.5625 0
0.875 0.53125 0
0.90625 0.53125 0
0.90625 0.5625 0
0.6875 1 0
0.6875 0.9375 0
0.75 1 0
0.6875 0.96875 0
0.71875 0.96875 0
0.71875 1 0
0.6875 1 0
0.625 1 0
0.6875 0.9375 0
0.65625 1 0
0.65625 0.96875 0
0.6875 0.96875 0
0.75 0.9375 0
0.75 1 0
0.6875 0.9375 0
0.75 0.96875 0
0.71875 0.96875 0
0.71875 0.9375 0
0.75 0.9375 0
0.6875 0.9375 0
0.75 0.875 0
0.71875 0.9375 0
0.71875 0.90625 0
0.75 0.90625 0
0.75 0.9375 0
0.8125 0.9375 0
0.75 1 0
0.78125 0.9375 0
0.78125 0.96875 0
0.75 0.96875 0
0.75 0.9375 0
0.75 0.875 0
0.8125 0.9375 0
0.75 0.90625 0
0.78125 0.90625 0
0.78125 0.9375 0
0.8125 0.875 0
0.8125 0.8125 0
0.875 0.875 0
0.8125 0.84375 0
0.84375 0.84375 0
0.84375 0.875 0
0.8125 0.875 0
0.75 0.875 0
0.8125 0.8125 0
0.78125 0.875 0
0.78125 0.84375 0
0.8125 0.84375 0
0.8125 0.875 0
0.875 0.875 0
0.8125 0.9375 0
0.84375 0.875 0
0.84375 0.90625 0
0.8125 0.90625 0
0.8125 0.875 0
0.8125 0.9375 0
0.75 0.875 0
0.8125 0.90625 0
0.78125 0.90625 0
0.78125 0.875 0
0.875 0.8125 0
0.875 0.875 0
0.8125 0.8125 0
0.875 0.84375 0
0.84375 0.84375 0
0.84375 0.8125 0
0.875 0.8125 0
0.8125 0.8125 0
0.875 0.75 0
0.84375 0.8125 0
0.84375 0.78125 0
0.875 0.78125 0
0.875 0.8125 0
0.9375 0.8125 0
0.875 0.875 0
0.90625 0.8125 0
0.90625 0.84375 0
0.875 0.84375 0
0.875 0.8125 0
0.875 0.75 0
0.9375 0.8125 0
0.875 0.78125 0
0.90625 0.78125 0
0.90625 0.8125 0
0.8125 1 0
0.75 1 0
0.8125 0.9375 0
0.78125 1 0
0.78125 0.96875 0
0.8125 0.96875 0
0.8125 1 0
0.8125 0.9375 0
0.875 1 0
0.8125 0.96875 0
0.84375 0.96875 0
0.84375 1 0
0.875 0.9375 0
0.8125 0.9375 0
0.875 0.875 0
0.84375 0.9375 0
0.84375 0.90625 0
0.875 0.90625 0
0.875 0.9375 0
0.875 1 0
0.8125 0.9375 0
0.875 0.96875 0
0.84375 0.96875 0
0.84375 0.9375 0
0.875 0.9375 0
0.875 0.875 0
0.9375 0.9375 0
0.875 0.90625 0
0.90625 0.90625 0
0.90625 0.9375 0
0.875 0.9375 0
0.9375 0.9375 0
0.875 1 0
0.90625 0.9375 0
0.90625 0.96875 0
0.875 0.96875 0
0.9375 1 0
0.9375 0.9375 0
1 1 0
0.9375 0.96875 0
0.96875 0.96875 0
0.96875 1 0
0.9375 1 0
0.875 1 0
0.9375 0.9375 0
0.90625 1 0
0.90625 0.96875 0
0.9375 0.96875 0
1 0.9375 0
1 1 0
0.9375 0.9375 0
1 0.96875 0
0.96875 0.96875 0
0.96875 0.9375 0
1 0.9375 0
0.9375 0.9375 0
1 0.875 0
0.96875 0.9375 0
0.96875 0.90625 0
1 0.90625 0
0.9375 0.875 0
0.9375 0.9375 0
0.875 0.875 0
0.9375 0.90625 0
0.90625 0.90625 0
0.90625 0.875 0
0.9375 0.875 0
1 0.875 0
0.9375 0.9375 0
0.96875 0.875 0
0.96875 0.90625 0
0.9375 0.90625 0
0.9375 0.875 0
0.875 0.875 0
0.9375 0.8125 0
0.90625 0.875 0
0.90625 0.84375 0
0.9375 0.84375 0
0.9375 0.875 0
0.9375 0.8125 0
1 0.875 0
0.9375 0.84375 0
0.96875 0.84375 0
0.96875 0.875 0
1 0.8125 0
0.9375 0.8125 0
1 0.75 0
0.96875 0.8125 0
0.96875 0.78125 0
1 0.78125 0
1 0.8125 0
1 0.875 0
0.9375 0.8125 0
1 0.84375 0
0.96875 0.84375 0
0.96875 0.8125 0
0.9375 0.75 0
1 0.75 0
0.9375 0.8125 0
0.96875 0.75 0
0.96875 0.78125 0
0.9375 0.78125 0
0.9375 0.75 0
0.9375 0.8125 0
0.875 0.75 0
0.9375 0.78125 0
0.90625 0.78125 0
0.90625 0.75 0
0.9375 0.75 0
0.9375 0.6875 0
1 0.75 0
0.9375 0.71875 0
0.96875 0.71875 0
0.96875 0.75 0
0.9375 0.75 0
0.875 0.75 0
0.9375 0.6875 0
0.90625 0.75 0
0.90625 0.71875 0
0.9375 0.71875 0
1 0.6875 0
1 0.75 0
0.9375 0.6875 0
1 0.71875 0
0.96875 0.71875 0
0.96875 0.6875 0
1 0.6875 0
0.9375 0.6875 0
1 0.625 0
0.96875 0.6875 0
0.96875 0.65625 0
1 0.65625 0
0.9375 0.625 0
0.9375 0.6875 0
0.875 0.625 0
0.9375 0.65625 0
0.90625 0.65625 0
0.90625 0.625 0
0.9375 0.625 0
1 0.625 0
0.9375 0.6875 0
0.96875 0.625 0
0.96875 0.65625 0
0.9375 0.65625 0
0.9375 0.625 0
0.875 0.625 0
0.9375 0.5625 0
0.90625 0.625 0
0.90625 0.59375 0
0.9375 0.59375 0
0.9375 0.625 0
0.9375 0.5625 0
1 0.625 0
0.9375 0.59375 0
0.96875 0.59375 0
0.96875 0.625 0
1 0.5625 0
0.9375 0.5625 0
1 0.5 0
0.96875 0.5625 0
0.96875 0.53125 0
1 0.53125 0
1 0.5625 0
1 0.625 0
0.9375 0.5625 0
1 0.59375 0
0.96875 0.59375 0
0.96875 0.5625 0
0.9375 0.5 0
1 0.5 0
0.9375 0.5625 0
0.96875 0.5 0
0.96875 0.53125 0
0.9375 0.53125 0
0.9375 0.5 0
0.9375 0.5625 0
0.875 0.5 0
0.9375 0.53125 0
0.90625 0.53125 0
0.90625 0.5 0
0.9375 0.5 0
0.9375 0.4375 0
1 0.5 0
0.9375 0.46875 0
0.96875 0.46875 0
0.96875 0.5 0
0.9375 0.5 0
0.875 0.5 0
0.9375 0.4375 0
0.90625 0.5 0
0.90625 0.46875 0
0.9375 0.46875 0
1 0.4375 0
1 0.5 0
0.9375 0.4375 0
1 0.46875 0
0.96875 0.46875 0
0.96875 0.4375 0
1 0.4375 0
0.9375 0.4375 0
1 0.375 0
0.96875 0.4375 0
0.96875 0.40625 0
1 0.40625 0
0.9375 0.375 0
0.9375 0.4375 0
0.875 0.375 0
0.9375 0.40625 0
0.90625 0.40625 0
0.90625 0.375 0
0.9375 0.375 0
1 0.375 0
0.9375 0.4375 0
0.96875 0.375 0
0.96875 0.40625 0
0.9375 0.40625 0
0.9375 0.375 0
0.875 0.375 0
0.9375 0.3125 0
0.90625 0.375 0
0.90625 0.34375 0
0.9375 0.34375 0
0.9375 0.375 0
0.9375 0.3125 0
1 0.375 0
0.9375 0.34375 0
0.96875 0.34375 0
0.96875 0.375 0
1 0.3125 0
0.9375 0.3125 0
1 0.25 0
0.96875 0.3125 0
0.96875 0.28125 0
1 0.28125 0
1 0.3125 0
1 0.375 0
0.9375 0.3125 0
1 0.34375 0
0.96875 0.34375 0
0.96875 0.3125 0
0.9375 0.25 0
1 0.25 0
0.9375 0.3125 0
0.96875 0.25 0
0.96875 0.28125 0
0.9375 0.28125 0
0.9375 0.25 0
0.9375 0.3125 0
0.875 0.25 0
0.9375 0.28125 0
0.90625 0.28125 0
0.90625 0.25 0
0.9375 0.25 0
0.9375 0.1875 0
1 0.25 0
0.9375 0.21875 0
0.96875 0.21875 0
0.96875 0.25 0
0.9375 0.25 0
0.875 0.25 0
0.9375 0.1875 0
0.90625 0.25 0
0.90625 0.21875 0
0.9375 0.21875 0
1 0.1875 0
1 0.25 0
0.9375 0.1875 0
1 0.21875 0
0.96875 0.21875 0
0.96875 0.1875 0
1 0.1875 0
0.9375 0.1875 0
1 0.125 0
0.96875 0.1875 0
0.96875 0.15625 0
1 0.15625 0
0.9375 0.125 0
0.9375 0.1875 0
0.875 0.125 0
0.9375 0.15625 0
0.90625 0.15625 0
0.90625 0.125 0
0.9375 0.125 0
1 0.125 0
0.9375 0.1875 0
0.96875 0.125 0
0.96875 0.15625 0
0.9375 0.15625 0
0.9375 0.125 0
0.875 0.125 0
0.9375 0.0625 0
0.90625 0.125 0
0.90625 0.09375 0
0.9375 0.09375 0
0.9375 0.125 0
0.9375 0.0625 0
1 0.125 0
0.9375 0.09375 0
0.96875 0.09375 0
0.96875 0.125 0
0.9375 0 0
1 0 0
0.9375 0.0625 0
0.96875 0 0
0.96875 0.03125 0
0.9375 0.03125 0
0.9375 0 0
0.9375 0.0625 0
0.875 0 0
0.9375 0.03125 0
0.90625 0.03125 0
0.90625 0 0
1 0.0625 0
0.9375 0.0625 0
1 0 0
0.96875 0.0625 0
0.96875 0.03125 0
1 0.03125 0
1 0.0625 0
1 0.125 0
0.9375 0.0625 0
1 0.09375 0
0.96875 0.09375 0
0.96875 0.0625 0

CELLS 512 3584
6 0 1 2 3 4 5
6 6 7 8 9 10 11
6 12 13 14 15 16 17
6 18 19 20 21 22 23
6 24 25 26 27 28 29
6 30 31 32 33 34 35
6 36 37 38 39 40 41
6 42 43 44 45 46 47
6 48 49 50 51 52 53
6 54 55 56 57 58 59
6 60 61 62 63 64 65
6 66 67 68 69 70 71
6 72 73 74 75 76 77
6 78 79 80 81 82 83
6 84 85 86 87 88 89
6 90 91 92 93 94 95
6 96 97 98 99 100 101
6 102 103 104 105 106 107
6 108 109 110 111 112 113
6 114 115 116 117 118 119
6 120 121 122 123 124 125
6 126 127 128 129 130 131
6 132 133 134 135 136 137
6 138 139 140 141 142 143
6 144 145 146 147 148 149
6 150 151 152 153 154 155
6 156 157 158 159 160 161
6 162 163 164 165 166 167
6 168 169 170 171 172 173
6 174 175 176 177 178 179
6 180 181 182 183 184 185
6 186 187 188 189 190 191
6 192 193 194 195 196 197
6 198 199 200 201 202 203
6 204 205 206 207 208 209
6 210 211 212 213 214 215
6 216 217 218 219 220 221
6 222 223 224 225 226 227
6 228 229 230 231 232 233
6 234 235 236 237 238 239
6 240 241 242 243 244 245
6 246 247 248 249 250 251
6 252 253 254 255 256 257
6 258 259 260 261 262 263
6 264 265 266 267 268 269
6 270 271 272 273 274 275
6 276 277 278 279 280 281
6 282 283 284 285 286 287
6 288 289 290 291 292 293
6 294 295 296 297 298 299
6 300 301 302 303 304 305
6 306 307 308 309 310 311
6 312 313 314 315 316 317
6 318 319 320 321 322 323
6 324 325 326 327 328 329
6 330 331 332 333 334 335
6 336 337 338 339 340 341
6 342 343 344 345 346 347
6 348 349 350 351 352 353
6 354 355 356 357 358 359
6 360 361 362 363 364 365
6 366 367 368 369 370 371
6 372 373 374 375 376 377
6 378 379 380 381 382 383
6 384 385 386 387 388 389
6 390 391 392 393 394 395
6 396 397 398 399 400 401
6 402 403 404 405 406 407
6 408 409 410 411 412 413
6 414 415 416 417 418 419
6 420 421 422 423 424 425
6 426 427 428 429 430 431
6 432 433 434 435 436 437
6 438 439 440 441 442 443
6 444 445 446 447 448 449
6 450 451 452 453 454 455
6 456 457 458 459 460 461
6 462 463 464 465 466 467
6 468 469 470 471 472 473
6 474 475 476 477 478 479
6 480 481 482 483 484 485
6 486 487 488 489 490 491
6 492 493 494 495 496 497
6 498 499 500 501 502 503
6 504 505 506 507 508 509
6 510 511 512 513 514 515
6 516 517 518 519 520 521
6 522 523 524 525 526 527
6 528 529 530 531 532 533
6 534 535 536 537 538 539
6 540 541 542 543 544 545
6 546 547 548 549 550 551
6 552 553 554 555 556 557
6 558 559 560 561 562 563
6 564 565 566 567 568 569
6 570 571 572 573 574 575
6 576 577 578 579 580 581
6 582 583 584 585 586 587
6 588 589 590 591 592 593
6 594 595 596 597 598 599
6 600 601 602 603 604 605
6 606 607 608 609 610 611
6 612 613 614 615 616 617
6 618 619 620 621 622 623
6 624 625 626 627 628 629
6 630 631 632 633 634 635
6 636 637 638 639 640 641
6 642 643 644 645 646 647
6 648 649 650 651 652 653
6 654 655 656 657 658 659
6 660 661 662 663 664 665
6 666 667 668 669 670 671
6 672 673 674 675 676 677
6 678 679 680 681 682 683
6 684 685 686 687 688 689
6 690 691 692 693 694 695
6 696 697 698 699 700 701
6 702 703 704 705 706 707
6 708 709 710 711 712 713
6 714 715 716 717 718 719
6 720 721 722 723 724 725
6 726 727 728 729 730 731
6 732 733 734 735 736 737
6 738 739 740 741 742 743
6 744 745 746 747 748 749
6 750 751 752 753 754 755
6 756 757 758 759 760 761
6 762 763 764 765 766 767
6 768 769 770 771 772 773
6 774 775 776 777 778 779
6 780 781 782 783 784 785
6 786 787 788 789 790 791
6 792 793 794 795 796 797
6 798 799 800 801 802 803
6 804 805 806 807 808 809
6 810 811 812 813 814 815
6 816 817 818 819 820 821
6 822 823 824 825 826 827
6 828 829 830 831 832 833
6 834 835 836 837 838 839
6 840 841 842 843 844 845
6 846 847 848 849 850 851
6 852 853 854 855 856 857
6 858 859 860 861 862 863
6 864 865 866 867 868 869
6 870 871 872 873 874 875
6 876 877 878 879 880 881
6 882 883 884 885 886 887
6 888 889 890 891 892 893
6 894 895 896 897 898 899
6 900 901 902 903 904 905
6 906 907 908 909 910 911
6 912 913 914 915 916 917
6 918 919 920 921 922 923
6 924 925 926 927 928 929
6 930 931 932 933 934 935
6 936 937 938 939 940 941
6 942 943 944 945 946 947
6 948 949 950 951 952 953
6 954 955 956 957 958 959
6 960 961 962 963 964 965
6 966 967 968 969 970 971
6 972 973 974 975 976 977
6 978 979 980 981 982 983
6 984 985 986 987 988 989
6 990 991 992 993 994 995
6 996 997 998 999 1000 1001
6 1002 1003 1004 1005 1006 1007
6 1008 1009 1010 1011 1012 1013
6 1014 1015 1016 1017 1018 1019
6 1020 1021 1022 1023 1024 1025
6 1026 1027 1028 1029 1030 1031
6 1032 1033 1034 1035 1036 1037
6 1038 1039 1040 1041 1042 1043
6 1044 1045 1046 1047 1048 1049
6 1050 1051 1052 1053 1054 1055
6 1056 1057 1058 1059 1060 1061
6 1062 1063 1064 1065 1066 1067
6 1068 1069 1070 1071 1072 1073
6 1074 1075 1076 1077 1078 1079
6 1080 1081 1082 1083 1084 1085
6 1086 1087 1088 1089 1090 1091
6 1092 1093 1094 1095 1096 1097
6 1098 1099 1100 1101 1102 1103
6 1104 1105 1106 1107 1108 1109
6 1110 1111 1112 1113 1114 1115
6 1116 1117 1118 1119 1120 1121
6 1122 1123 1124 1125 1126 1127
6 1128 1129 1130 1131 1132 1133
6 1134 1135 1136 1137 1138 1139
6 1140 1141 1142 1143 1144 1145
6 1146 1147 1148 1149 1150 1151
6 1152 1153 1154 1155 1156 1157
6 1158 1159 1160 1161 1162 1163
6 1164 1165 1166 1167 1168 1169
6 1170 1171 1172 1173 1174 1175
6 1176 1177 1178 1179 1180 1181
6 1182 1183 1184 1185 1186 1187
6 1188 1189 1190 1191 1192 1193
6 1194 1195 1196 1197 1198 1199
6 1200 1201 1202 1203 1204 1205
6 1206 1207 1208 1209 1210 1211
6 1212 1213 1214 1215 1216 1217
6 1218 1219 1220 1221 1222 1223
6 1224 1225 1226 1227 1228 1229
6 1230 1231 1232 1233 1234 1235
6 1236 1237 1238 1239 1240 1241
6 1242 1243 1244 1245 1246 1247
6 1248 1249 1250 1251 1252 1253
6 1254 1255 1256 1257 1258 1259
6 1260 1261 1262 1263 1264 1265
6 1266 1267 1268 1269 1270 1271
6 1272 1273 1274 1275 1276 1277
6 1278 1279 1280 1281 1282 1283
6 1284 1285 1286 1287 1288 1289
6 1290 1291 1292 1293 1294 1295
6 1296 1297 1298 1299 1300 1301
6 1302 1303 1304 1305 1306 1307
6 1308 1309 1310 1311 1312 1313
6 1314 1315 1316 1317 1318 1319
6 1320 1321 1322 1323 1324 1325
6 1326 1327 1328 1329 1330 1331
6 1332 1333 1334 1335 1336 1337
6 1338 1339 1340 1341 1342 1343
6 1344 1345 1346 1347 1348 1349
6 1350 1351 1352 1353 1354 1355
6 1356 1357 1358 1359 1360 1361
6 1362 1363 1364 1365 1366 1367
6 1368 1369 1370 1371 1372 1373
6 1374 1375 1376 1377 1378 1379
6 1380 1381 1382 1383 1384 1385
6 1386 1387 1388 1389 1390 1391
6 1392 1393 1394 1395 1396 1397
6 1398 1399 1400 1401 1402 1403
6 1404 1405 1406 1407 1408 1409
6 1410 1411 1412 1413 1414 1415
6 1416 1417 1418 1419 1420 1421
6 1422 1423 1424 1425 1426 1427
6 1428 1429 1430 1431 1432 1433
6 1434 1435 1436 1437 1438 1439
6 1440 1441 1442 1443 1444 1445
6 1446 1447 1448 1449 1450 1451
6 1452 1453 1454 1455 1456 1457
6 1458 1459 1460 1461 1462 1463
6 1464 1465 1466 1467 1468 1469
6 1470 1471 1472 1473 1474 1475
6 1476 1477 1478 1479 1480 1481
6 1482 1483 1484 1485 1486 1487
6 1488 1489 1490 1491 1492 1493
6 1494 1495 1496 1497 1498 1499
6 1500 1501 1502 1503 1504 1505
6 1506 1507 1508 1509 1510 1511
6 1512 1513 1514 1515 1516 1517
6 1518 1519 1520 1521 1522 1523
6 1524 1525 1526 1527 1528 1529
6 1530 1531 1532 1533 1534 1535
6 1536 1537 1538 1539 1540 1541
6 1542 1543 1544 1545 1546 1547
6 1548 1549 1550 1551 1552 1553
6 1554 1555 1556 1557 1558 1559
6 1560 1561 1562 1563 1564 1565
6 1566 1567 1568 1569 1570 1571
6 1572 1573 1574 1575 1576 1577
6 1578 1579 1580 1581 1582 1583
6 1584 1585 1586 1587 1588 1589
6 1590 1591 1592 1593 1594 1595
6 1596 1597 1598 1599 1600 1601
6 1602 1603 1604 1605 1606 1607
6 1608 1609 1610 1611 1612 1613
6 1614 1615 1616 1617 1618 1619
6 1620 1621 1622 1623 1624 1625
6 1626 1627 1628 1629 1630 1631
6 1632 1633 1634 1635 1636 1637
6 1638 1639 1640 1641 1642 1643
6 1644 1645 1646 1647 1648 1649
6 1650 1651 1652 1653 1654 1655
6 1656 1657 1658 1659 1660 1661
6 1662 1663 1664 1665 1666 1667
6 1668 1669 1670 1671 1672 1673
6 1674 1675 1676 1677 1678 1679
6 1680 1681 1682 1683 1684 1685
6 1686 1687 1688 1689 1690 1691
6 1692 1693 1694 1695 1696 1697
6 1698 1699 1700 1701 1702 1703
6 1704 1705 1706 1707 1708 1709
6 1710 1711 1712 1713 1714 1715
6 1716 1717 1718 1719 1720 1721
6 1722 1723 1724 1725 1726 1727
6 1728 1729 1730 1731 1732 1733
6 1734 1735 1736 1737 1738 1739
6 1740 1741 1742 1743 1744 1745
6 1746 1747 1748 1749 1750 1751
6 1752 1753 1754 1755 1756 1757
6 1758 1759 1760 1761 1762 1763
6 1764 1765 1766 1767 1768 1769
6 1770 1771 1772 1773 1774 1775
6 1776 1777 1778 1779 1780 1781
6 1782 1783 1784 1785 1786 1787
6 1788 1789 1790 1791 1792 1793
6 1794 1795 1796 1797 1798 1799
6 1800 1801 1802 1803 1804 1805
6 1806 1807 1808 1809 1810 1811
6 1812 1813 1814 1815 1816 1817
6 1818 1819 1820 1821 1822 1823
6 1824 1825 1826 1827 1828 1829
6 1830 1831 1832 1833 1834 1835
6 1836 1837 1838 1839 1840 1841
6 1842 1843 1844 1845 1846 1847
6 1848 1849 1850 1851 1852 1853
6 1854 1855 1856 1857 1858 1859
6 1860 1861 1862 1863 1864 1865
6 1866 1867 1868 1869 1870 1871
6 1872 1873 1874 1875 1876 1877
6 1878 1879 1880 1881 1882 1883
6 1884 1885 1886 1887 1888 1889
6 1890 1891 1892 1893 1894 1895
6 1896 1897 1898 1899 1900 1901
6 1902 1903 1904 1905 1906 1907
6 1908 1909 1910 1911 1912 1913
6 1914 1915 1916 1917 1918 1919
6 1920 1921 1922 1923 1924 1925
6 1926 1927 1928 1929 1930 1931
6 1932 1933 1934 1935 1936 1937
6 1938 1939 1940 1941 1942 1943
6 1944 1945 1946 1947 1948 1949
6 1950 1951 1952 1953 1954 1955
6 1956 1957 1958 1959 1960 1961
6 1962 1963 1964 1965 1966 1967
6 1968 1969 1970 1971 1972 1973
6 1974 1975 1976 1977 1978 1979
6 1980 1981 1982 1983 1984 1985
6 1986 1987 1988 1989 1990 1991
6 1992 1993 1994 1995 1996 1997
6 1998 1999 2000 2001 2002 2003
6 2004 2005 2006 2007 2008 2009
6 2010 2011 2012 2013 2014 2015
6 2016 2017 2018 2019 2020 2021
6 2022 2023 2024 2025 2026 2027
6 2028 2029 2030 2031 2032 2033
6 2034 2035 2036 2037 2038 2039
6 2040 2041 2042 2043 2044 2045
6 2046 2047 2048 2049 2050 2051
6 2052 2053 2054 2055 2056 2057
6 2058 2059 2060 2061 2062 2063
6 2064 2065 2066 2067 2068 2069
6 2070 2071 2072 2073 2074 2075
6 2076 2077 2078 2079 2080 2081
6 2082 2083 2084 2085 2086 2087
6 2088 2089 2090 2091 2092 2093
6 2094 2095 2096 2097 2098 2099
6 2100 2101 2102 2103 2104 2105
6 2106 2107 2108 2109 2110 2111
6 2112 2113 2114 2115 2116 2117
6 2118 2119 2120 2121 2122 2123
6 2124 2125 2126 2127 2128 2129
6 2130 2131 2132 2133 2134 2135
6 2136 2137 2138 2139 2140 2141
6 2142 2143 2144 2145 2146 2147
6 2148 2149 2150 2151 2152 2153
6 2154 2155 2156 2157 2158 2159
6 2160 2161 2162 2163 2164 2165
6 2166 2167 2168 2169 2170 2171
6 2172 2173 2174 2175 2176 2177
6 2178 2179 2180 2181 2182 2183
6 2184 2185 2186 2187 2188 2189
6 2190 2191 2192 2193 2194 2195
6 2196 2197 2198 2199 2200 2201
6 2202 2203 2204 2205 2206 2207
6 2208 2209 2210 2211 2212 2213
6 2214 2215 2216 2217 2218 2219
6 2220 2221 2222 2223 2224 2225
6 2226 2227 2228 2229 2230 2231
6 2232 2233 2234 2235 2236 2237
6 2238 2239 2240 2241 2242 2243
6 2244 2245 2246 2247 2248 2249
6 2250 2251 2252 2253 2254 2255
6 2256 2257 2258 2259 2260 2261
6 2262 2263 2264 2265 2266 2267
6 2268 2269 2270 2271 2272 2273
6 2274 2275 2276 2277 2278 2279
6 2280 2281 2282 2283 2284 2285
6 2286 2287 2288 2289 2290 2291
6 2292 2293 2294 2295 2296 2297
6 2298 2299 2300 2301 2302 2303
6 2304 2305 2306 2307 2308 2309
6 2310 2311 2312 2313 2314 2315
6 2316 2317 2318 2319 2320 2321
6 2322 2323 2324 2325 2326 2327
6 2328 2329 2330 2331 2332 2333
6 2334 2335 2336 2337 2338 2339
6 2340 2341 2342 2343 2344 2345
6 2346 2347 2348 2349 2350 2351
6 2352 2353 2354 2355 2356 2357
6 2358 2359 2360 2361 2362 2363
6 2364 2365 2366 2367 2368 2369
6 2370 2371 2372 2373 2374 2375
6 2376 2377 2378 2379 2380 2381
6 2382 2383 2384 2385 2386 2387
6 2388 2389 2390 2391 2392 2393
6 2394 2395 2396 2397 2398 2399
6 2400 2401 2402 2403 2404 2405
6 2406 2407 2408 2409 2410 2411
6 2412 2413 2414 2415 2416 2417
6 2418 2419 2420 2421 2422 2423
6 2424 2425 2426 2427 2428 2429
6 2430 2431 2432 2433 2434 2435
6 2436 2437 2438 2439 2440 2441
6 2442 2443 2444 2445 2446 2447
6 2448 2449 2450 2451 2452 2453
6 2454 2455 2456 2457 2458 2459
6 2460 2461 2462 2463 2464 2465
6 2466 2467 2468 2469 2470 2471
6 2472 2473 2474 2475 2476 2477
6 2478 2479 2480 2481 2482 2483
6 2484 2485 2486 2487 2488 2489
6 2490 2491 2492 2493 2494 2495
6 2496 2497 2498 2499 2500 2501
6 2502 2503 2504 2505 2506 2507
6 2508 2509 2510 2511 2512 2513
6 2514 2515 2516 2517 2518 2519
6 2520 2521 2522 2523 2524 2525
6 2526 2527 2528 2529 2530 2531
6 2532 2533 2534 2535 2536 2537
6 2538 2539 2540 2541 2542 2543
6 2544 2545 2546 2547 2548 2549
6 2550 2551 2552 2553 2554 2555
6 2556 2557 2558 2559 2560 2561
6 2562 2563 2564 2565 2566 2567
6 2568 2569 2570 2571 2572 2573
6 2574 2575 2576 2577 2578 2579
6 2580 2581 2582 2583 2584 2585
6 2586 2587 2588 2589 2590 2591
6 2592 2593 2594 2595 2596 2597
6 2598 2599 2600 2601 2602 2603
6 2604 2605 2606 2607 2608 2609
6 2610 2611 2612 2613 2614 2615
6 2616 2617 2618 2619 2620 2621
6 2622 2623 2624 2625 2626 2627
6 2628 2629 2630 2631 2632 2633
6 2634 2635 2636 2637 2638 2639
6 2640 2641 2642 2643 2644 2645
6 2646 2647 2648 2649 2650 2651
6 2652 2653 2654 2655 2656 2657
6 2658 2659 2660 2661 2662 2663
6 2664 2665 2666 2667 2668 2669
6 2670 2671 2672 2673 2674 2675
6 2676 2677 2678 2679 2680 2681
6 2682 2683 2684 2685 2686 2687
6 2688 2689 2690 2691 2692 2693
6 2694 2695 2696 2697 2698 2699
6 2700 2701 2702 2703 2704 2705
6 2706 2707 2708 2709 2710 2711
6 2712 2713 2714 2715 2716 2717
6 2718 2719 2720 2721 2722 2723
6 2724 2725 2726 2727 2728 2729
6 2730 2731 2732 2733 2734 2735
6 2736 2737 2738 2739 2740 2741
6 2742 2743 2744 2745 2746 2747
6 2748 2749 2750 2751 2752 2753
6 2754 2755 2756 2757 2758 2759
6 2760 2761 2762 2763 2764 2765
6 2766 2767 2768 2769 2770 2771
6 2772 2773 2774 2775 2776 2777
6 2778 2779 2780 2781 2782 2783
6 2784 2785 2786 2787 2788 2789
6 2790 2791 2792 2793 2794 2795
6 2796 2797 2798 2799 2800 2801
6 2802 2803 2804 2805 2806 2807
6 2808 2809 2810 2811 2812 2813
6 2814 2815 2816 2817 2818 2819
6 2820 2821 2822 2823 2824 2825
6 2826 2827 2828 2829 2830 2831
6 2832 2833 2834 2835 2836 2837
6 2838 2839 2840 2841 2842 2843
6 2844 2845 2846 2847 2848 2849
6 2850 2851 2852 2853 2854 2855
6 2856 2857 2858 2859 2860 2861
6 2862 2863 2864 2865 2866 2867
6 2868 2869 2870 2871 2872 2873
6 2874 2875 2876 2877 2878 2879
6 2880 2881 2882 2883 2884 2885
6 2886 2887 2888 2889 2890 2891
6 2892 2893 2894 2895 2896 2897
6 2898 2899 2900 2901 2902 2903
6 2904 2905 2906 2907 2908 2909
6 2910 2911 2912 2913 2914 2915
6 2916 2917 2918 2919 2920 2921
6 2922 2923 2924 2925 2926 2927
6 2928 2929 2930 2931 2932 2933
6 2934 2935 2936 2937 2938 2939
6 2940 2941 2942 2943 2944 2945
6 2946 2947 2948 2949 2950 2951
6 2952 2953 2954 2955 2956 2957
6 2958 2959 2960 2961 2962 2963
6 2964 2965 2966 2967 2968 2969
6 2970 2971 2972 2973 2974 2975
6 2976 2977 2978 2979 2980 2981
6 2982 2983 2984 2985 2986 2987
6 2988 2989 2990 2991 2992 2993
6 2994 2995 2996 2997 2998 2999
6 3000 3001 3002 3003 3004 3005
6 3006 3007 3008 3009 3010 3011
6 3012 3013 3014 3015 3016 3017
6 3018 3019 3020 3021 3022 3023
6 3024 3025 3026 3027 3028 3029
6 3030 3031 3032 3033 3034 3035
6 3036 3037 3038 3039 3040 3041
6 3042 3043 3044 3045 3046 3047
6 3048 3049 3050 3051 3052 3053
6 3054 3055 3056 3057 3058 3059
6 3060 3061 3062 3063 3064 3065
6 3066 3067 3068 3069 3070 3071

CELL_TYPES 512
22
22
22
22
22
22
22
22
22
22
22
22
22
22
22
22
22
22
22
22
22
22
22
22
22
22
22
22
22
22
22
22
22
22
22
22
22
22
22
22
22
22
22
22
22
22
22
22
22
22
22
22
22
22
22
22
22
22
22
22
22
22
22
22
22
22
22
22
22
22
22
22
22
22
22
22
22
22
22
22
22
22
22
22
22
22
22
22
22
22
22
22
22
22
22
22
22
22
22
22
22
22
22
22
22
22
22
22
22
22
22
22
22
22
22
22
22
22
22
22
22
22
22
22
22
22
22
22
22
22
22
22
22
22
22
22
22
22
22
22
22
22
22
22
22
22
22
22
22
22
22
22
22
22
22
22
22
22
22
22
22
22
22
22
22
22
22
22
22
22
22
22
22
22
22
22
22
22
22
22
22
22
22
22
22
22
22
22
22
22
22
22
22
22
22
22
22
22
22
22
22
22
22
22
22
22
22
22
22
22
22
22
22
22
22
22
22
22
22
22
22
22
22
22
22
22
22
22
22
22
22
22
22
22
22
22
22
22
22
22
22
22
22
22
22
22
22
22
22
22
22
22
22
22
22
22
22
22
22
22
22
22
22
22
22
22
22
22
22
22
22
22
22
22
22
22
22
22
22
22
22
22
22
22
22
22
22
22
22
22
22
22
22
22
22
22
22
22
22
22
22
22
22
22
22
22
22
22
22
22
22
22
22
22
22
22
22
22
22
22
22
22
22
22
22
22
22
22
22
22
22
22
22
22
22
22
22
22
22
22
22
22
22
22
22
22
22
22
22
22
22
22
22
22
22
22
22
22
22
22
22
22
22
22
22
22
22
22
22
22
22
22
22
22
22
22
22
22
22
22
22
22
22
22
22
22
22
22
22
22
22
22
22
22
22
22
22
22
22
22
22
22
22
22
22
22
22
22
22
22
22
22
22
22
22
22
22
22
22
22
22
22
22
22
22
22
22
22
22
22
22
22
22
22
22
22
22
22
22
22
22
22
22
22
22
22
22
22
22
22
22
22
22
22
22
22
22
22
22
22
22
22
22
22
22
22
22
22
22
22
22
22
22
22
22
22
22
22
22
22
22
22
22
22
22
22
22
22
22
22
22
22
22
22
22
22
22
22
22
22
22
22
22
22
22
22
22
22
22
22
22
22

POINT_DATA 3072
VECTORS stress_1 float
0.0234016 0.0210734 0
0.13162 0.0498346 0
0.0521628 0.0183548 0
0.0775106 0.035454 0
0.0918912 0.0340947 0
0.0377822 0.0197141 0
0.048524 0.0210734 0
0.0567329 0.0183548 0
0.0407015 0.0128645 0
0.0526284 0.0197141 0
0.0487172 0.0156097 0
0.0446128 0.016969 0
0.0413624 0.0149122 0
0.0570656 0.0149576 0
0.0414079 0.0113426 0
0.049214 0.0149349 0
0.0492367 0.0131501 0
0.0413852 0.0131274 0
0.0413624 0.0147955 0
0.0381359 0.0154302 0
0.0570656 0.018022 0
0.0397492 0.0151128 0
0.0476007 0.0167261 0
0.049214 0.0164088 0
0.0415958 0.0149122 0
0.043123 0.0113426 0
0.0315391 0.013385 0
0.0423594 0.0131274 0
0.0373311 0.0123638 0
0.0365675 0.0141486 0
0.0415958 0.0147955 0
0.0315391 0.0119544 0
0.0387548 0.0154302 0
0.0365675 0.013375 0
0.035147 0.0136923 0
0.0401753 0.0151128 0
0.0527508 0 0
0.0628423 0.0290342 0
0.081785 0 0
0.0577965 0.0145171 0
0.0723137 0.0145171 0
0.0672679 0 0
0.0527508 0 0
0.0442244 0 0
0.0628423 0.00852635 0
0.0484876 0 0
0.0535334 0.00426318 0
0.0577965 0.00426318 0
0.0488453 0.00682681 0
0.0424024 0.0123371 0
0.0543556 0.0122476 0
0.0456238 0.00958193 0
0.048379 0.0122923 0
0.0516005 0.00953721 0
0.0492485 0.00682681 0
0.0591211 0.0122476 0
0.0472701 -0.00304572 0
0.0541848 0.00953721 0
0.0531956 0.00460094 0
0.0482593 0.00189055 0
0.0488453 0.00662522 0
0.043816 0.00339515 0
0.0424024 0.0116545 0
0.0463307 0.00501019 0
0.0431092 0.00752484 0
0.0456238 0.00913988 0
0.0492485 0.00662522 0
0.0472701 0.000459108 0
0.0430824 0.00339515 0
0.0482593 0.00354216 0
0.0451763 0.00192713 0
0.0461655 0.00501019 0
0.0285077 0.00735445 0
0.0306369 0.013065 0
0.0216288 0.00522522 0
0.0295723 0.0102097 0
0.0261329 0.0091451 0
0.0250683 0.00628983 0
0.0269928 0.00735445 0
0.0363359 0.0130113 0
0.0326497 0.013065 0
0.0316644 0.0101829 0
0.0344928 0.0130382 0
0.0298213 0.0102097 0
0.0233397 0.0100239 0
0.0210326 0.00582145 0
0.0313709 0.012331 0
0.0221862 0.00792268 0
0.0262018 0.00907624 0
0.0273553 0.0111775 0
0.0233397 0.0100365 0
0.0313709 0.0118552 0
0.0251585 0.0122909 0
0.0273553 0.0109459 0
0.0282647 0.0120731 0
0.0242491 0.0111637 0
0.0233648 0.0100239 0
0.0166562 0.00845176 0
0.0217927 0.00582145 0
0.0200105 0.00923783 0
0.0192244 0.0071366 0
0.0225788 0.00792268 0
0.0233648 0.0100365 0
0.0246494 0.0122909 0
0.0166562 0.00875185 0
0.0240071 0.0111637 0
0.0206528 0.0105214 0
0.0200105 0.00939415 0
0.0324615 0.0123605 0
0.032387 0.0125371 0
0.0420305 0.0124351 0
0.0324243 0.0124488 0
0.0372088 0.0124861 0
0.037246 0.0123978 0
0.0324983 0.0123605 0
0.0247826 0.011915 0
0.0320528 0.0125371 0
0.0286405 0.0121378 0
0.0284177 0.0122261 0
0.0322756 0.0124488 0
0.0324615 0.0123789 0
0.0420305 0.0115537 0
0.0316363 0.0109922 0
0.037246 0.0119663 0
0.0368334 0.011273 0
0.0320489 0.0116856 0
0.0324983 0.0123789 0
0.0323382 0.0109922 0
0.0247826 0.012539 0
0.0324183 0.0116856 0
0.0285604 0.0117656 0
0.0286405 0.012459 0
0.0244573 0.0122252 0
0.031849 0.0111059 0
0.023338 0.0119184 0
0.0281531 0.0116656 0
0.0275935 0.0115122 0
0.0238977 0.0120718 0
0.0244573 0.0122207 0
0.0251966 0.0121251 0
0.031849 0.0114814 0
0.0248269 0.0121729 0
0.0285228 0.0118032 0
0.0281531 0.0118511 0
0.0244665 0.0122252 0
0.0237252 0.0119184 0
0.0179071 0.0129665 0
0.0240958 0.0120718 0
0.0208162 0.0124425 0
0.0211868 0.0125959 0
0.0244665 0.0122207 0
0.0179071 0.012655 0
0.0249008 0.0121251 0
0.0211868 0.0124379 0
0.021404 0.01239 0
0.0246836 0.0121729 0
0.0294277 0.0098859 0
0.0234858 0.0120662 0
0.0316079 0.0108649 0
0.0264567 0.010976 0
0.0275469 0.0114655 0
0.0305178 0.0103754 0
0.029451 0.0098859 0
0.0323659 0.0108649 0
0.0350673 0.006971 0
0.0309084 0.0103754 0
0.0337166 0.00891796 0
0.0322592 0.00842845 0
0.0294277 0.00987424 0
0.0271647 0.00913646 0
0.0234858 0.0121372 0
0.0282962 0.00950535 0
0.0253252 0.0106368 0
0.0264567 0.0110057 0
0.029451 0.00987424 0
0.0350673 0.0070632 0
0.02664 0.00913646 0
0.0322592 0.00846872 0
0.0308536 0.00809983 0
0.0280455 0.00950535 0
0.0384445 0.00829941 0
0.0319348 0.0112907 0
0.0414357 0.0109589 0
0.0351897 0.00979506 0
0.0366853 0.0111248 0
0.0399401 0.00962916 0
0.0384445 0.00825997 0
0.0354085 0.00662985 0
0.0319348 0.0112959 0
0.0369265 0.00744491 0
0.0336717 0.0089629 0
0.0351897 0.00977795 0
0.0385233 0.00829941 0
0.043098 0.0109589 0
0.0434864 0.0037248 0
0.0408107 0.00962916 0
0.0432922 0.00734185 0
0.0410049 0.0060121 0
0.0385233 0.00825997 0
0.0434864 0.00427184 0
0.0345352 0.00662985 0
0.0410049 0.0062659 0
0.0390108 0.00545085 0
0.0365293 0.00744491 0
0.0175626 0.0113615 0
0.0179138 0.012813 0
0.0113736 0.0110103 0
0.0177382 0.0120872 0
0.0146437 0.0119116 0
0.0144681 0.0111859 0
0.0175398 0.0113615 0
0.0246625 0.0118868 0
0.0180651 0.012813 0
0.0211012 0.0116241 0
0.0213638 0.0123499 0
0.0178024 0.0120872 0
0.0175626 0.0113501 0
0.0113736 0.0107786 0
0.0169911 0.00879593 0
0.0144681 0.0110644 0
0.0141823 0.00978729 0
0.0172769 0.010073 0
0.0175398 0.0113501 0
0.0166121 0.00879593 0
0.0246625 0.0122778 0
0.017076 0.010073 0
0.0206373 0.0105369 0
0.0211012 0.011814 0
0.0171994 0.0131295 0
0.0181405 0.0127331 0
0.0234553 0.0121883 0
0.0176699 0.0129313 0
0.0207979 0.0124607 0
0.0203273 0.0126589 0
0.0172031 0.0131295 0
0.0113593 0.0138433 0
0.017917 0.0127331 0
0.0142812 0.0134864 0
0.0146381 0.0132882 0
0.01756 0.0129313 0
0.0171994 0.0131313 0
0.0234553 0.012004 0
0.016072 0.0132289 0
0.0203273 0.0125677 0
0.0197637 0.0126165 0
0.0166357 0.0131801 0
0.0172031 0.0131313 0
0.0163329 0.0132289 0
0.0113593 0.0140015 0
0.016768 0.0131801 0
0.0138461 0.0136152 0
0.0142812 0.0135664 0
0.0115165 0.012767 0
0.0114006 0.0109833 0
0.0178438 0.0128829 0
0.0114586 0.0118751 0
0.0146222 0.0119331 0
0.0146802 0.0128249 0
0.0115165 0.0127733 0
0.0178438 0.01266 0
0.0114033 0.0138874 0
0.0146802 0.0127166 0
0.0146236 0.0132737 0
0.0114599 0.0133303 0
0.0115291 0.012767 0
0.00571039 0.0127722 0
0.0115343 0.0109833 0
0.00861973 0.0127696 0
0.00862236 0.0118778 0
0.0115317 0.0118751 0
0.0115291 0.0127733 0
0.011395 0.0138874 0
0.00571039 0.0129073 0
0.011462 0.0133303 0
0.00855269 0.0133974 0
0.00861973 0.0128403 0
0.0154028 0.00377926 0
0.0213444 0.00537315 0
0.0169967 0.00879227 0
0.0183736 0.00457621 0
0.0191705 0.00708271 0
0.0161998 0.00628577 0
0.0156587 0.00377926 0
0.0164252 0.00879227 0
0.0100191 0.00301278 0
0.0160419 0.00628577 0
0.0132221 0.00590253 0
0.0128389 0.00339602 0
0.010767 0.00762076 0
0.0166598 0.00846458 0
0.0116108 0.0110159 0
0.0137134 0.00804267 0
0.0141353 0.00974023 0
0.0111889 0.00931832 0
0.010767 0.00762029 0
0.00982955 0.00320228 0
0.0166598 0.0085577 0
0.0102983 0.00541129 0
0.0132447 0.00587999 0
0.0137134 0.00808899 0
0.0107679 0.00762076 0
0.0112354 0.0110159 0
0.00525358 0.00715326 0
0.0110016 0.00931832 0
0.00824449 0.00908457 0
0.00801074 0.00738701 0
0.0107679 0.00762029 0
0.00525358 0.00706668 0
0.0102143 0.00320228 0
0.00801074 0.00734349 0
0.00773394 0.00513448 0
0.0104911 0.00541129 0
0.0432403 0 0
0.0406607 0 0
0.043258 0.00257958 0
0.0419505 0 0
0.0419594 0.00128979 0
0.0432491 0.00128979 0
0.0432403 0 0
0.043258 0.00357071 0
0.046811 0 0
0.0432491 0.00178536 0
0.0450345 0.00178536 0
0.0450257 0 0
0.0387436 0.00310424 0
0.0422997 0.0035379 0
0.0411126 -0.000451824 0
0.0405216 0.00332107 0
0.0417061 0.00154304 0
0.0399281 0.00132621 0
0.0387703 0.00310424 0
0.0349917 0.00708633 0
0.0427524 0.0035379 0
0.036881 0.00509528 0
0.0388721 0.00531211 0
0.0407614 0.00332107 0
0.0387436 0.00311762 0
0.0411126 -0.000150698 0
0.0354753 0.00290507 0
0.0399281 0.00148346 0
0.0382939 0.00137719 0
0.0371094 0.00301134 0
0.0387703 0.00311762 0
0.0352901 0.00290507 0
0.0349917 0.00659789 0
0.0370302 0.00301134 0
0.0351409 0.00475148 0
0.036881 0.00485775 0
0.0315077 0.00622135 0
0.0285006 0.00598001 0
0.0269023 0.00922847 0
0.0300041 0.00610068 0
0.0277014 0.00760424 0
0.029205 0.00772491 0
0.0315077 0.00622411 0
0.0269023 0.00939885 0
0.0346824 0.00667829 0
0.029205 0.00781148 0
0.0307924 0.00803857 0
0.033095 0.0064512 0
0.0315132 0.00622135 0
0.0353692 0.00303491 0
0.0283267 0.00598001 0
0.0334412 0.00462813 0
0.0318479 0.00450746 0
0.02992 0.00610068 0
0.0315132 0.00622411 0
0.0349113 0.00667829 0
0.0353692 0.00282599 0
0.0332122 0.0064512 0
0.0351402 0.00475214 0
0.0334412 0.00452505 0
0.0215653 0.0115636 0
0.023751 0.011872 0
0.0269232 0.00937799 0
0.0226582 0.0117178 0
0.0253371 0.010625 0
0.0242442 0.0104708 0
0.0215653 0.0115601 0
0.0269232 0.00936665 0
0.0193718 0.011284 0
0.0242442 0.0104634 0
0.0231475 0.0103253 0
0.0204686 0.0114221 0
0.0215583 0.0115636 0
0.0161717 0.0133286 0
0.0233233 0.011872 0
0.018865 0.0124461 0
0.0197475 0.0126003 0
0.0224408 0.0117178 0
0.0215583 0.0115601 0
0.0197294 0.011284 0
0.0161717 0.0133891 0
0.0206439 0.0114221 0
0.0179506 0.0123365 0
0.018865 0.0124746 0
0.0241437 0.00889257 0
0.0269886 0.0091422 0
0.0284329 0.00604764 0
0.0255662 0.00901738 0
0.0277108 0.00759492 0
0.0262883 0.0074701 0
0.0241381 0.00889257 0
0.019541 0.0114532 0
0.0266987 0.0091422 0
0.0218395 0.0101729 0
0.0231199 0.0102977 0
0.0254184 0.00901738 0
0.0241437 0.00888977 0
0.0284329 0.00613579 0
0.0213897 0.0087135 0
0.0262883 0.00751278 0
0.0249113 0.00742465 0
0.0227667 0.00880163 0
0.0241381 0.00888977 0
0.0216237 0.0087135 0
0.019541 0.0114042 0
0.0228809 0.00880163 0
0.0205823 0.0100588 0
0.0218395 0.010147 0
0.0384778 0 0
0.0353557 0.00278546 0
0.0412633 0 0
0.0369167 0.00139273 0
0.0383095 0.00139273 0
0.0398705 0 0
0.0384778 0 0
0.035707 0 0
0.0353557 0.00277076 0
0.0370924 0 0
0.0355314 0.00138538 0
0.0369167 0.00138538 0
0.0321781 0.00295945 0
0.028414 0.00606729 0
0.0352859 0.00295166 0
0.030296 0.00451337 0
0.03185 0.00450947 0
0.033732 0.00295555 0
0.0321679 0.00295945 0
0.0351748 0.00295166 0
0.0357545 -4.74353e-05 0
0.0336713 0.00295555 0
0.0354646 0.00145211 0
0.0339612 0.00145601 0
0.0321781 0.00296454 0
0.029161 0.00300484 0
0.028414 0.00598158 0
0.0306695 0.00298469 0
0.0287875 0.00449321 0
0.030296 0.00447306 0
0.0321679 0.00296454 0
0.0357545 -3.30261e-05 0
0.0291703 0.00300484 0
0.0339612 0.00146576 0
0.0324624 0.00148591 0
0.0306691 0.00298469 0
0.00502989 0.0025517 0
0.00513545 0.00723137 0
-2.05011e-05 0.00244614 0
0.00508267 0.00489154 0
0.00255747 0.00483876 0
0.00250469 0.00249892 0
0.00494335 0.0025517 0
0.0100386 0.00302662 0
0.00541827 0.00723137 0
0.00749099 0.00278916 0
0.00772845 0.00512899 0
0.00518081 0.00489154 0
6.83415e-07 0.00694498 0
-0.000145286 0.00257093 0
0.00527587 0.00709095 0
-7.23012e-05 0.00475795 0
0.00256529 0.00483094 0
0.00263828 0.00701796 0
6.83415e-07 0.00694429 0
0.00527587 0.00709573 0
0.00015212 0.0105371 0
0.00263828 0.00702001 0
0.002714 0.00881644 0
7.64017e-05 0.00874072 0
-6.83424e-07 0.00694498 0
-0.00527587 0.00709095 0
0.000145286 0.00257093 0
-0.00263828 0.00701796 0
-0.00256529 0.00483094 0
7.23012e-05 0.00475795 0
-6.83424e-07 0.00694429 0
-0.00015212 0.0105371 0
-0.00527587 0.00709573 0
-7.64018e-05 0.00874072 0
-0.002714 0.00881644 0
-0.00263828 0.00702001 0
0.00554652 0.0104922 0
0.00513367 0.00727317 0
0.0113462 0.0109051 0
0.00534009 0.0088827 0
0.00823993 0.00908913 0
0.00844635 0.0106987 0
0.00555584 0.0104922 0
4.68135e-06 0.0103897 0
0.00545331 0.00727317 0
0.00278026 0.010441 0
0.002729 0.00883144 0
0.00550458 0.0088827 0
0.00554652 0.0104969 0
0.0113462 0.0107951 0
0.00584474 0.0129066 0
0.00844635 0.010646 0
0.00859547 0.0118509 0
0.00569563 0.0117017 0
0.00555584 0.0104969 0
0.00561833 0.0129066 0
4.68135e-06 0.0104344 0
0.00558708 0.0117017 0
0.00281151 0.0116705 0
0.00278026 0.0104657 0
-4.85841e-06 0.0127618 0
0.00568152 0.0128094 0
4.27209e-05 0.0143278 0
0.00283833 0.0127856 0
0.00286212 0.0135686 0
1.89312e-05 0.0135448 0
-4.85841e-06 0.012757 0
-9.13049e-05 0.0105304 0
0.00568152 0.0128434 0
-4.80817e-05 0.0116437 0
0.00279511 0.0116869 0
0.00283833 0.0128002 0
4.8584e-06 0.0127618 0
-4.27209e-05 0.0143278 0
-0.00568152 0.0128094 0
-1.89313e-05 0.0135448 0
-0.00286212 0.0135686 0
-0.00283833 0.0127856 0
4.8584e-06 0.012757 0
-0.00568152 0.0128434 0
9.13049e-05 0.0105304 0
-0.00283833 0.0128002 0
-0.00279511 0.0116869 0
4.80817e-05 0.0116437 0
0.00557824 0.0141302 0
1.40226e-05 0.0142991 0
0.00574715 0.012875 0
0.00279613 0.0142147 0
0.00288059 0.0135871 0
0.00566269 0.0135026 0
0.00556985 0.0141302 0
0.00574271 0.012875 0
0.011325 0.0139574 0
0.00565628 0.0135026 0
0.00853384 0.0134162 0
0.00844742 0.0140438 0
0.00557824 0.0141344 0
0.00537261 0.0149204 0
1.40226e-05 0.0143401 0
0.00547542 0.0145274 0
0.00269332 0.0146302 0
0.00279613 0.0142372 0
0.00556985 0.0141344 0
0.011325 0.0138578 0
0.00529319 0.0149204 0
0.00844742 0.0139961 0
0.00830909 0.0143891 0
0.00543152 0.0145274 0
-0.00554652 0.0104922 0
-0.0113462 0.0109051 0
-0.00513367 0.00727317 0
-0.00844635 0.0106987 0
-0.00823993 0.00908913 0
-0.00534009 0.0088827 0
-0.00555584 0.0104922 0
-0.00545331 0.00727317 0
-4.68136e-06 0.0103897 0
-0.00550458 0.0088827 0
-0.002729 0.00883144 0
-0.00278026 0.010441 0
-0.00554652 0.0104969 0
-0.00584474 0.0129066 0
-0.0113462 0.0107951 0
-0.00569563 0.0117017 0
-0.00859547 0.0118509 0
-0.00844635 0.010646 0
-0.00555584 0.0104969 0
-4.68136e-06 0.0104344 0
-0.00561833 0.0129066 0
-0.00278026 0.0104657 0
-0.00281151 0.0116705 0
-0.00558708 0.0117017 0
-0.00502989 0.0025517 0
2.05011e-05 0.00244614 0
-0.00513545 0.00723137 0
-0.00250469 0.00249892 0
-0.00255747 0.00483876 0
-0.00508267 0.00489154 0
-0.00494335 0.0025517 0
-0.00541827 0.00723137 0
-0.0100386 0.00302662 0
-0.00518081 0.00489154 0
-0.00772845 0.00512899 0
-0.00749099 0.00278916 0
-0.0107679 0.00762076 0
-0.00525358 0.00715326 0
-0.0112354 0.0110159 0
-0.00801074 0.00738701 0
-0.00824449 0.00908457 0
-0.0110016 0.00931832 0
-0.0107679 0.00762029 0
-0.0102143 0.00320228 0
-0.00525358 0.00706668 0
-0.0104911 0.00541129 0
-0.00773394 0.00513448 0
-0.00801074 0.00734349 0
-0.010767 0.00762076 0
-0.0116108 0.0110159 0
-0.0166598 0.00846458 0
-0.0111889 0.00931832 0
-0.0141353 0.00974023 0
-0.0137134 0.00804267 0
-0.010767 0.00762029 0
-0.0166598 0.0085577 0
-0.00982955 0.00320228 0
-0.0137134 0.00808899 0
-0.0132447 0.00587999 0
-0.0102983 0.00541129 0
-0.00557824 0.0141302 0
-0.00574715 0.012875 0
-1.40226e-05 0.0142991 0
-0.00566269 0.0135026 0
-0.00288059 0.0135871 0
-0.00279613 0.0142147 0
-0.00556985 0.0141302 0
-0.011325 0.0139574 0
-0.00574271 0.012875 0
-0.00844742 0.0140438 0
-0.00853384 0.0134162 0
-0.00565628 0.0135026 0
-0.00557824 0.0141344 0
-1.40226e-05 0.0143401 0
-0.00537261 0.0149204 0
-0.00279613 0.0142372 0
-0.00269332 0.0146302 0
-0.00547542 0.0145274 0
-0.00556985 0.0141344 0
-0.00529319 0.0149204 0
-0.011325 0.0138578 0
-0.00543152 0.0145274 0
-0.00830909 0.0143891 0
-0.00844742 0.0139961 0
-0.0115291 0.012767 0
-0.0115343 0.0109833 0
-0.00571039 0.0127722 0
-0.0115317 0.0118751 0
-0.00862236 0.0118778 0
-0.00861973 0.0127696 0
-0.0115291 0.0127733 0
-0.00571039 0.0129073 0
-0.011395 0.0138874 0
-0.00861973 0.0128403 0
-0.00855269 0.0133974 0
-0.011462 0.0133303 0
-0.0115165 0.012767 0
-0.0178438 0.0128829 0
-0.0114006 0.0109833 0
-0.0146802 0.0128249 0
-0.0146222 0.0119331 0
-0.0114586 0.0118751 0
-0.0115165 0.0127733 0
-0.0114033 0.0138874 0
-0.0178438 0.01266 0
-0.0114599 0.0133303 0
-0.0146236 0.0132737 0
-0.0146802 0.0127166 0
0.0106407 0.0142829 0
0.016154 0.0133147 0
0.00967251 0.0144832 0
0.0133974 0.0137988 0
0.0129132 0.0138989 0
0.0101566 0.014383 0
0.0106407 0.0142811 0
0.011514 0.0138468 0
0.016154 0.0134079 0
0.0110774 0.0140639 0
0.013834 0.0136273 0
0.0133974 0.0138445 0
0.0106442 0.0142829 0
0.00990754 0.0144832 0
0.00532368 0.0150196 0
0.0102759 0.014383 0
0.00761561 0.0147514 0
0.00798395 0.0146512 0
0.0106442 0.0142811 0
0.00532368 0.0149509 0
0.011314 0.0138468 0
0.00798395 0.014616 0
0.00831882 0.0143988 0
0.0109791 0.0140639 0
0.0146405 0.013184 0
0.00977496 0.0145857 0
0.0160421 0.0132028 0
0.0122077 0.0138848 0
0.0129086 0.0138942 0
0.0153413 0.0131934 0
0.0146422 0.013184 0
0.016358 0.0132028 0
0.0195452 0.0114683 0
0.0155001 0.0131934 0
0.0179516 0.0123355 0
0.0170937 0.0123262 0
0.0146405 0.0131832 0
0.0131985 0.0131134 0
0.00977496 0.0146252 0
0.0139195 0.0131483 0
0.0114867 0.0138693 0
0.0122077 0.0139042 0
0.0146422 0.0131832 0
0.0195452 0.0114406 0
0.0128996 0.0131134 0
0.0170937 0.0123119 0
0.0162224 0.012277 0
0.0137709 0.0131483 0
-3.01569e-06 0.0150533 0
5.7107e-05 0.014297 0
0.00529982 0.0149932 0
2.70457e-05 0.0146751 0
0.00267846 0.0146451 0
0.0026484 0.0150232 0
-3.01569e-06 0.0150563 0
0.00529982 0.0149721 0
-8.72638e-05 0.0154973 0
0.0026484 0.0150142 0
0.00260628 0.0152347 0
-4.51398e-05 0.0152768 0
3.01568e-06 0.0150533 0
-0.00529982 0.0149932 0
-5.7107e-05 0.014297 0
-0.0026484 0.0150232 0
-0.00267846 0.0146451 0
-2.70457e-05 0.0146751 0
3.01568e-06 0.0150563 0
8.72638e-05 0.0154973 0
-0.00529982 0.0149721 0
4.51397e-05 0.0152768 0
-0.00260628 0.0152347 0
-0.0026484 0.0150142 0
0.00485184 0.0152274 0
0.00545035 0.0148929 0
0.00976185 0.0146289 0
0.00515109 0.0150601 0
0.0076061 0.0147609 0
0.00730685 0.0149281 0
0.00485494 0.0152274 0
8.50721e-06 0.0155931 0
0.00522065 0.0148929 0
0.00243173 0.0154102 0
0.00261458 0.015243 0
0.0050378 0.0150601 0
0.00485184 0.0152289 0
0.00976185 0.0145908 0
0.00421367 0.0153937 0
0.00730685 0.0149099 0
0.00698776 0.0149922 0
0.00453276 0.0153113 0
0.00485494 0.0152289 0
0.00447439 0.0153937 0
8.50721e-06 0.0156095 0
0.00466467 0.0153113 0
0.00224145 0.0155016 0
0.00243173 0.0154192 0
-1.05252e-06 0.01568 0
0.00433025 0.0155304 0
-0.000150629 0.0157799 0
0.0021646 0.0156052 0
0.00208981 0.0156552 0
-7.58408e-05 0.01573 0
-1.05252e-06 0.015679 0
0.000140104 0.0154779 0
0.00433025 0.0155378 0
6.95257e-05 0.0155784 0
0.00223517 0.0155078 0
0.0021646 0.0156084 0
1.05252e-06 0.01568 0
0.000150629 0.0157799 0
-0.00433025 0.0155304 0
7.58408e-05 0.01573 0
-0.00208981 0.0156552 0
-0.0021646 0.0156052 0
1.05252e-06 0.015679 0
-0.00433025 0.0155378 0
-0.000140104 0.0154779 0
-0.0021646 0.0156084 0
-0.00223517 0.0155078 0
-6.95257e-05 0.0155784 0
0.003741 0.0154915 0
2.29773e-06 0.0159329 0
0.00418234 0.0153825 0
0.00187165 0.0157122 0
0.00209232 0.0156577 0
0.00396167 0.015437 0
0.00374002 0.0154915 0
0.0044978 0.0153825 0
0.00750677 0.0147337 0
0.00411891 0.015437 0
0.00600228 0.0150581 0
0.0056234 0.0151126 0
0.003741 0.015492 0
0.00329321 0.0155516 0
2.29773e-06 0.0159398 0
0.0035171 0.0155218 0
0.00164775 0.0157457 0
0.00187165 0.0157159 0
0.00374002 0.015492 0
0.00750677 0.01472 0
0.002968 0.0155516 0
0.0056234 0.015106 0
0.00523738 0.0151358 0
0.00335401 0.0155218 0
0.00866508 0.0145476 0
0.00433973 0.0155197 0
0.00963716 0.0144661 0
0.0065024 0.0150337 0
0.00698845 0.0149929 0
0.00915112 0.0145069 0
0.00866508 0.0145479 0
0.00767234 0.0145682 0
0.00433973 0.0155406 0
0.00816871 0.014558 0
0.00600604 0.0150544 0
0.0065024 0.0150442 0
0.00866462 0.0145476 0
0.00993409 0.0144661 0
0.0130338 0.0132782 0
0.00929936 0.0145069 0
0.0114839 0.0138721 0
0.0108492 0.0139129 0
0.00866462 0.0145479 0
0.0130338 0.0132541 0
0.00737086 0.0145682 0
0.0108492 0.013901 0
0.0102023 0.0139111 0
0.00801774 0.014558 0
-0.00485184 0.0152289 0
-0.00421367 0.0153937 0
-0.00976185 0.0145908 0
-0.00453276 0.0153113 0
-0.00698776 0.0149922 0
-0.00730685 0.0149099 0
-0.00485494 0.0152289 0
-8.50722e-06 0.0156095 0
-0.00447439 0.0153937 0
-0.00243173 0.0154192 0
-0.00224145 0.0155016 0
-0.00466467 0.0153113 0
-0.00485184 0.0152274 0
-0.00976185 0.0146289 0
-0.00545035 0.0148929 0
-0.00730685 0.0149281 0
-0.0076061 0.0147609 0
-0.00515109 0.0150601 0
-0.00485494 0.0152274 0
-0.00522065 0.0148929 0
-8.50722e-06 0.0155931 0
-0.0050378 0.0150601 0
-0.00261458 0.015243 0
-0.00243173 0.0154102 0
-0.003741 0.0154915 0
-0.00418234 0.0153825 0
-2.29774e-06 0.0159329 0
-0.00396167 0.015437 0
-0.00209232 0.0156577 0
-0.00187165 0.0157122 0
-0.00374002 0.0154915 0
-0.00750677 0.0147337 0
-0.0044978 0.0153825 0
-0.0056234 0.0151126 0
-0.00600228 0.0150581 0
-0.00411891 0.015437 0
-0.003741 0.015492 0
-2.29774e-06 0.0159398 0
-0.00329321 0.0155516 0
-0.00187165 0.0157159 0
-0.00164775 0.0157457 0
-0.0035171 0.0155218 0
-0.00374002 0.015492 0
-0.002968 0.0155516 0
-0.00750677 0.01472 0
-0.00335401 0.0155218 0
-0.00523738 0.0151358 0
-0.0056234 0.015106 0
-0.00866508 0.0145476 0
-0.00963716 0.0144661 0
-0.00433973 0.0155197 0
-0.00915112 0.0145069 0
-0.00698845 0.0149929 0
-0.0065024 0.0150337 0
-0.00866508 0.0145479 0
-0.00433973 0.0155406 0
-0.00767234 0.0145682 0
-0.0065024 0.0150442 0
-0.00600604 0.0150544 0
-0.00816871 0.014558 0
-0.00866462 0.0145476 0
-0.0130338 0.0132782 0
-0.00993409 0.0144661 0
-0.0108492 0.0139129 0
-0.0114839 0.0138721 0
-0.00929936 0.0145069 0
-0.00866462 0.0145479 0
-0.00737086 0.0145682 0
-0.0130338 0.0132541 0
-0.00801774 0.014558 0
-0.0102023 0.0139111 0
-0.0108492 0.013901 0
-0.0106442 0.0142829 0
-0.00532368 0.0150196 0
-0.00990754 0.0144832 0
-0.00798395 0.0146512 0
-0.00761561 0.0147514 0
-0.0102759 0.014383 0
-0.0106442 0.0142811 0
-0.011314 0.0138468 0
-0.00532368 0.0149509 0
-0.0109791 0.0140639 0
-0.00831882 0.0143988 0
-0.00798395 0.014616 0
-0.0106407 0.0142829 0
-0.00967251 0.0144832 0
-0.016154 0.0133147 0
-0.0101566 0.014383 0
-0.0129132 0.0138989 0
-0.0133974 0.0137988 0
-0.0106407 0.0142811 0
-0.016154 0.0134079 0
-0.011514 0.0138468 0
-0.0133974 0.0138445 0
-0.013834 0.0136273 0
-0.0110774 0.0140639 0
0.0112882 0.013107 0
0.0131765 0.0131079 0
0.0150977 0.0112187 0
0.0122324 0.0131075 0
0.0141371 0.0121633 0
0.0131929 0.0121629 0
0.0112877 0.013107 0
0.00750957 0.0147069 0
0.0128876 0.0131079 0
0.00939865 0.013907 0
0.0101986 0.0139074 0
0.0120877 0.0131075 0
0.0112882 0.0131068 0
0.0150977 0.0112062 0
0.00938763 0.0130928 0
0.0131929 0.0121565 0
0.0122426 0.0121495 0
0.0103379 0.0130998 0
0.0112877 0.0131068 0
0.0096718 0.0130928 0
0.00750957 0.0147227 0
0.0104798 0.0130998 0
0.00859068 0.0139078 0
0.00939865 0.0139148 0
0.0173118 0.0111744 0
0.0152376 0.0110787 0
0.0130358 0.0132487 0
0.0162747 0.0111266 0
0.0141367 0.0121637 0
0.0151738 0.0122116 0
0.0173118 0.0111758 0
0.0130358 0.0132497 0
0.0193857 0.0112811 0
0.0151738 0.0122127 0
0.0162108 0.0122654 0
0.0183488 0.0112285 0
0.0173145 0.0111744 0
0.0215109 0.00884594 0
0.014986 0.0110787 0
0.0194127 0.0100102 0
0.0182485 0.00996233 0
0.0161503 0.0111266 0
0.0173145 0.0111758 0
0.019664 0.0112811 0
0.0215109 0.00882625 0
0.0184893 0.0112285 0
0.0205875 0.0100537 0
0.0194127 0.010001 0
0.00628496 0.0146401 0
0.00520392 0.0146899 0
0.00312278 0.0157212 0
0.00574444 0.014665 0
0.00416335 0.0152055 0
0.00470387 0.0151806 0
0.00628496 0.0146399 0
0.00312278 0.0157064 0
0.00735151 0.0145647 0
0.00470387 0.0151731 0
0.00523715 0.0151356 0
0.00681824 0.0146023 0
0.00628442 0.0146401 0
0.00950786 0.0132382 0
0.00488245 0.0146899 0
0.00789614 0.0139391 0
0.00719516 0.013964 0
0.00558343 0.014665 0
0.00628442 0.0146399 0
0.00766756 0.0145647 0
0.00950786 0.0132567 0
0.00697599 0.0146023 0
0.00858771 0.0139107 0
0.00789614 0.0139483 0
-3.17914e-07 0.0158885 0
0.000166698 0.0157754 0
0.00312335 0.0157215 0
8.31899e-05 0.0158319 0
0.00164502 0.0157484 0
0.00156152 0.015805 0
-3.17914e-07 0.0158888 0
0.00312335 0.0157193 0
-0.000169877 0.015956 0
0.00156152 0.015804 0
0.00147674 0.0158376 0
-8.50974e-05 0.0159224 0
3.17907e-07 0.0158885 0
-0.00312335 0.0157215 0
-0.000166698 0.0157754 0
-0.00156152 0.015805 0
-0.00164502 0.0157484 0
-8.31899e-05 0.0158319 0
3.17907e-07 0.0158888 0
0.000169877 0.015956 0
-0.00312335 0.0157193 0
8.50974e-05 0.0159224 0
-0.00147674 0.0158376 0
-0.00156152 0.015804 0
0.0024947 0.0156597 0
0.00329013 0.0155538 0
0.00502955 0.0148642 0
0.00289242 0.0156067 0
0.00415984 0.015209 0
0.00376213 0.0152619 0
0.00249487 0.0156597 0
-3.15133e-06 0.0161227 0
0.00295792 0.0155538 0
0.00124586 0.0158912 0
0.00147738 0.0158383 0
0.00272639 0.0156067 0
0.0024947 0.0156597 0
0.00502955 0.0148567 0
0.00169162 0.0157032 0
0.00376213 0.0152582 0
0.00336059 0.0152799 0
0.00209316 0.0156815 0
0.00249487 0.0156597 0
0.00202556 0.0157032 0
-3.15133e-06 0.0161291 0
0.00226022 0.0156815 0
0.0010112 0.0159161 0
0.00124586 0.0158944 0
0.0128276 0.0110704 0
0.00950803 0.0132132 0
0.0149703 0.0110788 0
0.0111678 0.0121418 0
0.0122392 0.012146 0
0.0138989 0.0110746 0
0.0128276 0.0110704 0
0.0106598 0.0110573 0
0.00950803 0.0132382 0
0.0117437 0.0110639 0
0.0100839 0.0121477 0
0.0111678 0.0121543 0
0.0128275 0.0110704 0
0.015199 0.0110788 0
0.0162376 0.008699 0
0.0140132 0.0110746 0
0.0157183 0.00988892 0
0.0145326 0.00988471 0
0.0128275 0.0110704 0
0.0162376 0.00867373 0
0.0104308 0.0110573 0
0.0145326 0.00987209 0
0.0133342 0.0098655 0
0.0116292 0.0110639 0
0.00769838 0.0131683 0
0.00502548 0.0148329 0
0.00936297 0.0130933 0
0.00636193 0.0140006 0
0.00719423 0.0139631 0
0.00853067 0.0131308 0
0.00769712 0.0131683 0
0.00965296 0.0130933 0
0.0105046 0.0112125 0
0.00867504 0.0131308 0
0.0100788 0.0121529 0
0.00910087 0.0121904 0
0.00769838 0.0131689 0
0.00600848 0.0132297 0
0.00502548 0.0148588 0
0.00685343 0.0131993 0
0.00551698 0.0140442 0
0.00636193 0.0140139 0
0.00769712 0.0131689 0
0.0105046 0.0111778 0
0.00570595 0.0132297 0
0.00910087 0.0121733 0
0.00810529 0.0122037 0
0.00670154 0.0131993 0
0.0188602 0.00866343 0
0.0150958 0.0111886 0
0.0213854 0.00872036 0
0.016978 0.009926 0
0.0182406 0.00995447 0
0.0201228 0.0086919 0
0.0188615 0.00866343 0
0.0215529 0.00872036 0
0.0225744 0.00597205 0
0.0202072 0.0086919 0
0.0220636 0.0073462 0
0.0207179 0.00731774 0
0.0188602 0.00866281 0
0.0163411 0.00859551 0
0.0150958 0.011182 0
0.0176007 0.00862916 0
0.0157185 0.00988873 0
0.016978 0.00992238 0
0.0188615 0.00866281 0
0.0225744 0.00598739 0
0.0161861 0.00859551 0
0.0207179 0.0073251 0
0.0193802 0.00729145 0
0.0175238 0.00862916 0
0.0254346 0.00595944 0
0.0215022 0.00882601 0
0.0283012 0.00600407 0
0.0234684 0.00739272 0
0.0249017 0.00741504 0
0.0268679 0.00598175 0
0.0254346 0.00595962 0
0.0226232 0.00592316 0
0.0215022 0.00877101 0
0.0240289 0.00594139 0
0.0220627 0.00734709 0
0.0234684 0.00736532 0
0.0254343 0.00595944 0
0.0283915 0.00600407 0
0.0291637 0.00300216 0
0.0269129 0.00598175 0
0.0287776 0.00450311 0
0.027299 0.0044808 0
0.0254343 0.00595962 0
0.0291637 0.00305452 0
0.0225292 0.00592316 0
0.027299 0.00450707 0
0.0258464 0.00448884 0
0.0239817 0.00594139 0
-0.0171994 0.0131313 0
-0.016072 0.0132289 0
-0.0234553 0.012004 0
-0.0166357 0.0131801 0
-0.0197637 0.0126165 0
-0.0203273 0.0125677 0
-0.0172031 0.0131313 0
-0.0113593 0.0140015 0
-0.0163329 0.0132289 0
-0.0142812 0.0135664 0
-0.0138461 0.0136152 0
-0.016768 0.0131801 0
-0.0171994 0.0131295 0
-0.0234553 0.0121883 0
-0.0181405 0.0127331 0
-0.0203273 0.0126589 0
-0.0207979 0.0124607 0
-0.0176699 0.0129313 0
-0.0172031 0.0131295 0
-0.017917 0.0127331 0
-0.0113593 0.0138433 0
-0.01756 0.0129313 0
-0.0146381 0.0132882 0
-0.0142812 0.0134864 0
-0.0215583 0.0115636 0
-0.0233233 0.011872 0
-0.0161717 0.0133286 0
-0.0224408 0.0117178 0
-0.0197475 0.0126003 0
-0.018865 0.0124461 0
-0.0215583 0.0115601 0
-0.0161717 0.0133891 0
-0.0197294 0.011284 0
-0.018865 0.0124746 0
-0.0179506 0.0123365 0
-0.0206439 0.0114221 0
-0.0215653 0.0115636 0
-0.0269232 0.00937799 0
-0.023751 0.011872 0
-0.0242442 0.0104708 0
-0.0253371 0.010625 0
-0.0226582 0.0117178 0
-0.0215653 0.0115601 0
-0.0193718 0.011284 0
-0.0269232 0.00936665 0
-0.0204686 0.0114221 0
-0.0231475 0.0103253 0
-0.0242442 0.0104634 0
-0.0146405 0.013184 0
-0.0160421 0.0132028 0
-0.00977496 0.0145857 0
-0.0153413 0.0131934 0
-0.0129086 0.0138942 0
-0.0122077 0.0138848 0
-0.0146422 0.013184 0
-0.0195452 0.0114683 0
-0.016358 0.0132028 0
-0.0170937 0.0123262 0
-0.0179516 0.0123355 0
-0.0155001 0.0131934 0
-0.0146405 0.0131832 0
-0.00977496 0.0146252 0
-0.0131985 0.0131134 0
-0.0122077 0.0139042 0
-0.0114867 0.0138693 0
-0.0139195 0.0131483 0
-0.0146422 0.0131832 0
-0.0128996 0.0131134 0
-0.0195452 0.0114406 0
-0.0137709 0.0131483 0
-0.0162224 0.012277 0
-0.0170937 0.0123119 0
-0.0244665 0.0122252 0
-0.0179071 0.0129665 0
-0.0237252 0.0119184 0
-0.0211868 0.0125959 0
-0.0208162 0.0124425 0
-0.0240958 0.0120718 0
-0.0244665 0.0122207 0
-0.0249008 0.0121251 0
-0.0179071 0.012655 0
-0.0246836 0.0121729 0
-0.021404 0.01239 0
-0.0211868 0.0124379 0
-0.0244573 0.0122252 0
-0.023338 0.0119184 0
-0.031849 0.0111059 0
-0.0238977 0.0120718 0
-0.0275935 0.0115122 0
-0.0281531 0.0116656 0
-0.0244573 0.0122207 0
-0.031849 0.0114814 0
-0.0251966 0.0121251 0
-0.0281531 0.0118511 0
-0.0285228 0.0118032 0
-0.0248269 0.0121729 0
-0.0175626 0.0113615 0
-0.0113736 0.0110103 0
-0.0179138 0.012813 0
-0.0144681 0.0111859 0
-0.0146437 0.0119116 0
-0.0177382 0.0120872 0
-0.0175398 0.0113615 0
-0.0180651 0.012813 0
-0.0246625 0.0118868 0
-0.0178024 0.0120872 0
-0.0213638 0.0123499 0
-0.0211012 0.0116241 0
-0.0175626 0.0113501 0
-0.0169911 0.00879593 0
-0.0113736 0.0107786 0
-0.0172769 0.010073 0
-0.0141823 0.00978729 0
-0.0144681 0.0110644 0
-0.0175398 0.0113501 0
-0.0246625 0.0122778 0
-0.0166121 0.00879593 0
-0.0211012 0.011814 0
-0.0206373 0.0105369 0
-0.017076 0.010073 0
-0.0112882 0.013107 0
-0.0150977 0.0112187 0
-0.0131765 0.0131079 0
-0.0131929 0.0121629 0
-0.0141371 0.0121633 0
-0.0122324 0.0131075 0
-0.0112877 0.013107 0
-0.0128876 0.0131079 0
-0.00750957 0.0147069 0
-0.0120877 0.0131075 0
-0.0101986 0.0139074 0
-0.00939865 0.013907 0
-0.0112882 0.0131068 0
-0.00938763 0.0130928 0
-0.0150977 0.0112062 0
-0.0103379 0.0130998 0
-0.0122426 0.0121495 0
-0.0131929 0.0121565 0
-0.0112877 0.0131068 0
-0.00750957 0.0147227 0
-0.0096718 0.0130928 0
-0.00939865 0.0139148 0
-0.00859068 0.0139078 0
-0.0104798 0.0130998 0
-0.0173118 0.0111744 0
-0.0130358 0.0132487 0
-0.0152376 0.0110787 0
-0.0151738 0.0122116 0
-0.0141367 0.0121637 0
-0.0162747 0.0111266 0
-0.0173118 0.0111758 0
-0.0193857 0.0112811 0
-0.0130358 0.0132497 0
-0.0183488 0.0112285 0
-0.0162108 0.0122654 0
-0.0151738 0.0122127 0
-0.0173145 0.0111744 0
-0.014986 0.0110787 0
-0.0215109 0.00884594 0
-0.0161503 0.0111266 0
-0.0182485 0.00996233 0
-0.0194127 0.0100102 0
-0.0173145 0.0111758 0
-0.0215109 0.00882625 0
-0.019664 0.0112811 0
-0.0194127 0.010001 0
-0.0205875 0.0100537 0
-0.0184893 0.0112285 0
-0.00628496 0.0146401 0
-0.00312278 0.0157212 0
-0.00520392 0.0146899 0
-0.00470387 0.0151806 0
-0.00416335 0.0152055 0
-0.00574444 0.014665 0
-0.00628496 0.0146399 0
-0.00735151 0.0145647 0
-0.00312278 0.0157064 0
-0.00681824 0.0146023 0
-0.00523715 0.0151356 0
-0.00470387 0.0151731 0
-0.00628442 0.0146401 0
-0.00488245 0.0146899 0
-0.00950786 0.0132382 0
-0.00558343 0.014665 0
-0.00719516 0.013964 0
-0.00789614 0.0139391 0
-0.00628442 0.0146399 0
-0.00950786 0.0132567 0
-0.00766756 0.0145647 0
-0.00789614 0.0139483 0
-0.00858771 0.0139107 0
-0.00697599 0.0146023 0
-0.0024947 0.0156597 0
-0.00502955 0.0148642 0
-0.00329013 0.0155538 0
-0.00376213 0.0152619 0
-0.00415984 0.015209 0
-0.00289242 0.0156067 0
-0.00249487 0.0156597 0
-0.00295792 0.0155538 0
3.15132e-06 0.0161227 0
-0.00272639 0.0156067 0
-0.00147738 0.0158383 0
-0.00124586 0.0158912 0
-0.0024947 0.0156597 0
-0.00169162 0.0157032 0
-0.00502955 0.0148567 0
-0.00209316 0.0156815 0
-0.00336059 0.0152799 0
-0.00376213 0.0152582 0
-0.00249487 0.0156597 0
3.15132e-06 0.0161291 0
-0.00202556 0.0157032 0
-0.00124586 0.0158944 0
-0.0010112 0.0159161 0
-0.00226022 0.0156815 0
-0.0128276 0.0110704 0
-0.0149703 0.0110788 0
-0.00950803 0.0132132 0
-0.0138989 0.0110746 0
-0.0122392 0.012146 0
-0.0111678 0.0121418 0
-0.0128276 0.0110704 0
-0.00950803 0.0132382 0
-0.0106598 0.0110573 0
-0.0111678 0.0121543 0
-0.0100839 0.0121477 0
-0.0117437 0.0110639 0
-0.0128275 0.0110704 0
-0.0162376 0.008699 0
-0.015199 0.0110788 0
-0.0145326 0.00988471 0
-0.0157183 0.00988892 0
-0.0140132 0.0110746 0
-0.0128275 0.0110704 0
-0.0104308 0.0110573 0
-0.0162376 0.00867373 0
-0.0116292 0.0110639 0
-0.0133342 0.0098655 0
-0.0145326 0.00987209 0
-0.00769838 0.0131683 0
-0.00936297 0.0130933 0
-0.00502548 0.0148329 0
-0.00853067 0.0131308 0
-0.00719423 0.0139631 0
-0.00636193 0.0140006 0
-0.00769712 0.0131683 0
-0.0105046 0.0112125 0
-0.00965296 0.0130933 0
-0.00910087 0.0121904 0
-0.0100788 0.0121529 0
-0.00867504 0.0131308 0
-0.00769838 0.0131689 0
-0.00502548 0.0148588 0
-0.00600848 0.0132297 0
-0.00636193 0.0140139 0
-0.00551698 0.0140442 0
-0.00685343 0.0131993 0
-0.00769712 0.0131689 0
-0.00570595 0.0132297 0
-0.0105046 0.0111778 0
-0.00670154 0.0131993 0
-0.00810529 0.0122037 0
-0.00910087 0.0121733 0
-0.0241437 0.00889257 0
-0.0284329 0.00604764 0
-0.0269886 0.0091422 0
-0.0262883 0.0074701 0
-0.0277108 0.00759492 0
-0.0255662 0.00901738 0
-0.0241381 0.00889257 0
-0.0266987 0.0091422 0
-0.019541 0.0114532 0
-0.0254184 0.00901738 0
-0.0231199 0.0102977 0
-0.0218395 0.0101729 0
-0.0241437 0.00888977 0
-0.0213897 0.0087135 0
-0.0284329 0.00613579 0
-0.0227667 0.00880163 0
-0.0249113 0.00742465 0
-0.0262883 0.00751278 0
-0.0241381 0.00888977 0
-0.019541 0.0114042 0
-0.0216237 0.0087135 0
-0.0218395 0.010147 0
-0.0205823 0.0100588 0
-0.0228809 0.00880163 0
-0.0294277 0.00987424 0
-0.0234858 0.0121372 0
-0.0271647 0.00913646 0
-0.0264567 0.0110057 0
-0.0253252 0.0106368 0
-0.0282962 0.00950535 0
-0.029451 0.00987424 0
-0.02664 0.00913646 0
-0.0350673 0.0070632 0
-0.0280455 0.00950535 0
-0.0308536 0.00809983 0
-0.0322592 0.00846872 0
-0.0294277 0.0098859 0
-0.0316079 0.0108649 0
-0.0234858 0.0120662 0
-0.0305178 0.0103754 0
-0.0275469 0.0114655 0
-0.0264567 0.010976 0
-0.029451 0.0098859 0
-0.0350673 0.006971 0
-0.0323659 0.0108649 0
-0.0322592 0.00842845 0
-0.0337166 0.00891796 0
-0.0309084 0.0103754 0
-0.0315077 0.00622135 0
-0.0269023 0.00922847 0
-0.0285006 0.00598001 0
-0.029205 0.00772491 0
-0.0277014 0.00760424 0
-0.0300041 0.00610068 0
-0.0315077 0.00622411 0
-0.0346824 0.00667829 0
-0.0269023 0.00939885 0
-0.033095 0.0064512 0
-0.0307924 0.00803857 0
-0.029205 0.00781148 0
-0.0315132 0.00622135 0
-0.0283267 0.00598001 0
-0.0353692 0.00303491 0
-0.02992 0.00610068 0
-0.0318479 0.00450746 0
-0.0334412 0.00462813 0
-0.0315132 0.00622411 0
-0.0353692 0.00282599 0
-0.0349113 0.00667829 0
-0.0334412 0.00452505 0
-0.0351402 0.00475214 0
-0.0332122 0.0064512 0
-0.0188602 0.00866343 0
-0.0213854 0.00872036 0
-0.0150958 0.0111886 0
-0.0201228 0.0086919 0
-0.0182406 0.00995447 0
-0.016978 0.009926 0
-0.0188615 0.00866343 0
-0.0225744 0.00597205 0
-0.0215529 0.00872036 0
-0.0207179 0.00731774 0
-0.0220636 0.0073462 0
-0.0202072 0.0086919 0
-0.0188602 0.00866281 0
-0.0150958 0.011182 0
-0.0163411 0.00859551 0
-0.016978 0.00992238 0
-0.0157185 0.00988873 0
-0.0176007 0.00862916 0
-0.0188615 0.00866281 0
-0.0161861 0.00859551 0
-0.0225744 0.00598739 0
-0.0175238 0.00862916 0
-0.0193802 0.00729145 0
-0.0207179 0.0073251 0
-0.0254346 0.00595944 0
-0.0283012 0.00600407 0
-0.0215022 0.00882601 0
-0.0268679 0.00598175 0
-0.0249017 0.00741504 0
-0.0234684 0.00739272 0
-0.0254346 0.00595962 0
-0.0215022 0.00877101 0
-0.0226232 0.00592316 0
-0.0234684 0.00736532 0
-0.0220627 0.00734709 0
-0.0240289 0.00594139 0
-0.0254343 0.00595944 0
-0.0291637 0.00300216 0
-0.0283915 0.00600407 0
-0.027299 0.0044808 0
-0.0287776 0.00450311 0
-0.0269129 0.00598175 0
-0.0254343 0.00595962 0
-0.0225292 0.00592316 0
-0.0291637 0.00305452 0
-0.0239817 0.00594139 0
-0.0258464 0.00448884 0
-0.027299 0.00450707 0
-0.0154028 0.00377926 0
-0.0169967 0.00879227 0
-0.0213444 0.00537315 0
-0.0161998 0.00628577 0
-0.0191705 0.00708271 0
-0.0183736 0.00457621 0
-0.0156587 0.00377926 0
-0.0100191 0.00301278 0
-0.0164252 0.00879227 0
-0.0128389 0.00339602 0
-0.0132221 0.00590253 0
-0.0160419 0.00628577 0
-0.0233648 0.0100239 0
-0.0217927 0.00582145 0
-0.0166562 0.00845176 0
-0.0225788 0.00792268 0
-0.0192244 0.0071366 0
-0.0200105 0.00923783 0
-0.0233648 0.0100365 0
-0.0166562 0.00875185 0
-0.0246494 0.0122909 0
-0.0200105 0.00939415 0
-0.0206528 0.0105214 0
-0.0240071 0.0111637 0
-0.0233397 0.0100239 0
-0.0313709 0.012331 0
-0.0210326 0.00582145 0
-0.0273553 0.0111775 0
-0.0262018 0.00907624 0
-0.0221862 0.00792268 0
-0.0233397 0.0100365 0
-0.0251585 0.0122909 0
-0.0313709 0.0118552 0
-0.0242491 0.0111637 0
-0.0282647 0.0120731 0
-0.0273553 0.0109459 0
-0.0324615 0.0123789 0
-0.0316363 0.0109922 0
-0.0420305 0.0115537 0
-0.0320489 0.0116856 0
-0.0368334 0.011273 0
-0.037246 0.0119663 0
-0.0324983 0.0123789 0
-0.0247826 0.012539 0
-0.0323382 0.0109922 0
-0.0286405 0.012459 0
-0.0285604 0.0117656 0
-0.0324183 0.0116856 0
-0.0324615 0.0123605 0
-0.0420305 0.0124351 0
-0.032387 0.0125371 0
-0.037246 0.0123978 0
-0.0372088 0.0124861 0
-0.0324243 0.0124488 0
-0.0324983 0.0123605 0
-0.0320528 0.0125371 0
-0.0247826 0.011915 0
-0.0322756 0.0124488 0
-0.0284177 0.0122261 0
-0.0286405 0.0121378 0
-0.0384445 0.00829941 0
-0.0414357 0.0109589 0
-0.0319348 0.0112907 0
-0.0399401 0.00962916 0
-0.0366853 0.0111248 0
-0.0351897 0.00979506 0
-0.0384445 0.00825997 0
-0.0319348 0.0112959 0
-0.0354085 0.00662985 0
-0.0351897 0.00977795 0
-0.0336717 0.0089629 0
-0.0369265 0.00744491 0
-0.0385233 0.00829941 0
-0.0434864 0.0037248 0
-0.043098 0.0109589 0
-0.0410049 0.0060121 0
-0.0432922 0.00734185 0
-0.0408107 0.00962916 0
-0.0385233 0.00825997 0
-0.0345352 0.00662985 0
-0.0434864 0.00427184 0
-0.0365293 0.00744491 0
-0.0390108 0.00545085 0
-0.0410049 0.0062659 0
-0.0285077 0.00735445 0
-0.0216288 0.00522522 0
-0.0306369 0.013065 0
-0.0250683 0.00628983 0
-0.0261329 0.0091451 0
-0.0295723 0.0102097 0
-0.0269928 0.00735445 0
-0.0326497 0.013065 0
-0.0363359 0.0130113 0
-0.0298213 0.0102097 0
-0.0344928 0.0130382 0
-0.0316644 0.0101829 0
-0.0415958 0.0149122 0
-0.0315391 0.013385 0
-0.043123 0.0113426 0
-0.0365675 0.0141486 0
-0.0373311 0.0123638 0
-0.0423594 0.0131274 0
-0.0415958 0.0147955 0
-0.0387548 0.0154302 0
-0.0315391 0.0119544 0
-0.0401753 0.0151128 0
-0.035147 0.0136923 0
-0.0365675 0.013375 0
-0.0413624 0.0149122 0
-0.0414079 0.0113426 0
-0.0570656 0.0149576 0
-0.0413852 0.0131274 0
-0.0492367 0.0131501 0
-0.049214 0.0149349 0
-0.0413624 0.0147955 0
-0.0570656 0.018022 0
-0.0381359 0.0154302 0
-0.049214 0.0164088 0
-0.0476007 0.0167261 0
-0.0397492 0.0151128 0
0.0327903 0 0
0.0297665 0 0
0.0291627 0.00302371 0
0.0312784 0 0
0.0294646 0.00151186 0
0.0309765 0.00151186 0
0.0327903 0 0
0.0291627 0.00299724 0
0.0357875 0 0
0.0309765 0.00149862 0
0.0324751 0.00149862 0
0.0342889 0 0
0.0261802 0.00301898 0
0.0291683 0.00301817 0
0.0297356 3.0926e-05 0
0.0276742 0.00301858 0
0.0294519 0.00152455 0
0.0279579 0.00152495 0
0.0261814 0.00301898 0
0.0225709 0.00596494 0
0.0291274 0.00301817 0
0.0243762 0.00449196 0
0.0258491 0.00449155 0
0.0276544 0.00301858 0
0.0261802 0.00301958 0
0.0297356 4.22004e-05 0
0.0232028 0.00299177 0
0.0279579 0.00153089 0
0.0264692 0.00151698 0
0.0246915 0.00300567 0
0.0261814 0.00301958 0
0.0232557 0.00299177 0
0.0225709 0.00594528 0
0.0247186 0.00300567 0
0.0229133 0.00446852 0
0.0243762 0.00448243 0
0.0197314 0.00586273 0
0.0232416 0.00300606 0
0.0168747 0.00576925 0
0.0214865 0.0044344 0
0.0200582 0.00438766 0
0.0183031 0.00581599 0
0.0197314 0.00586359 0
0.0225891 0.00592709 0
0.0232416 0.00300588 0
0.0211603 0.00589534 0
0.0229154 0.00446648 0
0.0214865 0.00443473 0
0.0197297 0.00586273 0
0.0169327 0.00576925 0
0.0162385 0.00865974 0
0.0183312 0.00581599 0
0.0165856 0.0072145 0
0.0179841 0.00726124 0
0.0197297 0.00586359 0
0.0162385 0.00864793 0
0.022514 0.00592709 0
0.0179841 0.00725576 0
0.0193763 0.00728751 0
0.0211219 0.00589534 0
0.0266648 0 0
0.0232397 0.00302861 0
0.0296934 0 0
0.0249522 0.00151431 0
0.0264665 0.00151431 0
0.0281791 0 0
0.0266648 0 0
0.0236814 0 0
0.0232397 0.00298336 0
0.0251731 0 0
0.0234606 0.00149168 0
0.0249522 0.00149168 0
0.0203317 0.00287773 0
0.0168739 0.00576836 0
0.0232223 0.00298677 0
0.0186028 0.00432304 0
0.0200481 0.00437756 0
0.021777 0.00293225 0
0.020339 0.00287773 0
0.0232363 0.00298677 0
0.0237009 -1.94875e-05 0
0.0217876 0.00293225 0
0.0234686 0.00148364 0
0.02202 0.00142912 0
0.0203317 0.00287404 0
0.0174387 0.00274119 0
0.0168739 0.005767 0
0.0188852 0.00280762 0
0.0171563 0.00425409 0
0.0186028 0.00432052 0
0.020339 0.00287404 0
0.0237009 3.34604e-05 0
0.0174985 0.00274119 0
0.02202 0.00145375 0
0.0205997 0.00138733 0
0.0189187 0.00280762 0
0.0135804 0.00855803 0
0.0163053 0.00859291 0
0.0168688 0.00583315 0
0.0149429 0.00857547 0
0.0165871 0.00721303 0
0.0152246 0.00719559 0
0.0135807 0.00855803 0
0.0105077 0.0111341 0
0.0161568 0.00859291 0
0.0120442 0.00984607 0
0.0133322 0.00986351 0
0.0148687 0.00857547 0
0.0135804 0.00855816 0
0.0168688 0.00577598 0
0.0107983 0.00852586 0
0.0152246 0.00716707 0
0.0138335 0.00715092 0
0.0121894 0.00854201 0
0.0135807 0.00855816 0
0.0109494 0.00852586 0
0.0105077 0.0111895 0
0.012265 0.00854201 0
0.0107285 0.00985767 0
0.0120442 0.00987382 0
0.00817728 0.0111485 0
0.00592666 0.0112614 0
0.00582831 0.0133991 0
0.00705197 0.0112049 0
0.00587748 0.0123302 0
0.0070028 0.0122738 0
0.00817728 0.0111468 0
0.00582831 0.013352 0
0.0103825 0.0110556 0
0.0070028 0.0122494 0
0.00810541 0.0122038 0
0.00927989 0.0111012 0
0.00817394 0.0111485 0
0.010796 0.00860878 0
0.00563427 0.0112614 0
0.00948497 0.00987862 0
0.00821513 0.00993508 0
0.0069041 0.0112049 0
0.00817394 0.0111468 0
0.0106415 0.0110556 0
0.010796 0.00867924 0
0.00940772 0.0111012 0
0.0107187 0.00986744 0
0.00948497 0.00991301 0
0.00408394 0.0133535 0
0.00598734 0.0132401 0
0.00573797 0.0114501 0
0.00503564 0.0132968 0
0.00586266 0.0123451 0
0.00491096 0.0124018 0
0.00408524 0.0133535 0
0.00255472 0.0149461 0
0.00567791 0.0132401 0
0.00331998 0.0141498 0
0.00411631 0.0140931 0
0.00488158 0.0132968 0
0.00408394 0.0133541 0
0.00573797 0.0114433 0
0.00217312 0.0133704 0
0.00491096 0.0123987 0
0.00395554 0.0124069 0
0.00312853 0.0133623 0
0.00408524 0.0133541 0
0.00249554 0.0133704 0
0.00255472 0.0149438 0
0.00329039 0.0133623 0
0.00252513 0.0141571 0
0.00331998 0.014149 0
0.0038011 0.0147908 0
0.00518702 0.0146973 0
0.00583326 0.0134049 0
0.00449406 0.014744 0
0.00551014 0.0140511 0
0.00481718 0.0140978 0
0.0038011 0.0147909 0
0.00583326 0.0133954 0
0.0024056 0.014797 0
0.00481718 0.0140932 0
0.00411943 0.0140962 0
0.00310335 0.014794 0
0.00380133 0.0147908 0
0.00184807 0.0158596 0
0.00487017 0.0146973 0
0.0028247 0.0153252 0
0.00335912 0.0152785 0
0.00433575 0.014744 0
0.00380133 0.0147909 0
0.00272475 0.014797 0
0.00184807 0.0158675 0
0.00326304 0.014794 0
0.00228641 0.0153322 0
0.0028247 0.0153292 0
0.00800581 0.00866618 0
0.00573458 0.0113617 0
0.0107013 0.00851411 0
0.0068702 0.0100139 0
0.00821795 0.0099379 0
0.00935357 0.00859014 0
0.00799734 0.00866618 0
0.0109327 0.00851411 0
0.0108098 0.00573084 0
0.00946501 0.00859014 0
0.0108713 0.00712247 0
0.00940358 0.00719851 0
0.00800581 0.00867041 0
0.0052254 0.00895201 0
0.00573458 0.0114508 0
0.0066156 0.00881121 0
0.00547999 0.0102014 0
0.0068702 0.0100606 0
0.00799734 0.00867041 0
0.0108098 0.00558238 0
0.00490931 0.00895201 0
0.00940358 0.0071264 0
0.00785956 0.0072672 0
0.00645332 0.00881121 0
0.0139589 0.00564556 0
0.0108083 0.00853591 0
0.0168492 0.0057564 0
0.0123836 0.00709073 0
0.0138288 0.00714616 0
0.015404 0.00570098 0
0.0139589 0.00564396 0
0.0109643 0.00557631 0
0.0108083 0.00863847 0
0.0124616 0.00561013 0
0.0108863 0.00710739 0
0.0123836 0.00714121 0
0.0139621 0.00564556 0
0.0168844 0.0057564 0
0.0174567 0.00272318 0
0.0154233 0.00570098 0
0.0171706 0.00423979 0
0.0157094 0.00418437 0
0.0139621 0.00564396 0
0.0174567 0.00264306 0
0.0109612 0.00557631 0
0.0157094 0.00414351 0
0.014209 0.00410969 0
0.0124616 0.00561013 0
5.34778e-07 0.0160271 0
0.00186053 0.015872 0
-0.000154623 0.0159534 0
0.000930531 0.0159495 0
0.000852952 0.0159127 0
-7.70443e-05 0.0159902 0
5.34778e-07 0.0160276 0
0.000159971 0.0159659 0
0.00186053 0.0158682 0
8.0253e-05 0.0159968 0
0.00101025 0.0159171 0
0.000930531 0.0159479 0
-5.34782e-07 0.0160271 0
0.000154623 0.0159534 0
-0.00186053 0.015872 0
7.70443e-05 0.0159902 0
-0.000852952 0.0159127 0
-0.000930531 0.0159495 0
-5.34782e-07 0.0160276 0
-0.00186053 0.0158682 0
-0.000159971 0.0159659 0
-0.000930531 0.0159479 0
-0.00101025 0.0159171 0
-8.0253e-05 0.0159968 0
0.00127612 0.0156635 0
-1.05919e-05 0.0160974 0
0.00170998 0.0157214 0
0.000632762 0.0158805 0
0.000849692 0.0159094 0
0.00149305 0.0156925 0
0.00127853 0.0156635 0
0.00199416 0.0157214 0
0.00257384 0.0149479 0
0.00163634 0.0156925 0
0.002284 0.0153347 0
0.00192618 0.0153057 0
0.00127612 0.0156623 0
0.000842068 0.0153706 0
-1.05919e-05 0.0160964 0
0.00105909 0.0155165 0
0.000415738 0.0157335 0
0.000632762 0.0158794 0
0.00127853 0.0156623 0
0.00257384 0.0149658 0
0.000582008 0.0153706 0
0.00192618 0.0153141 0
0.00157792 0.0151682 0
0.000930267 0.0155165 0
-0.00127612 0.0156635 0
-0.00170998 0.0157214 0
1.05919e-05 0.0160974 0
-0.00149305 0.0156925 0
-0.000849692 0.0159094 0
-0.000632762 0.0158805 0
-0.00127853 0.0156635 0
-0.00257384 0.0149479 0
-0.00199416 0.0157214 0
-0.00192618 0.0153057 0
-0.002284 0.0153347 0
-0.00163634 0.0156925 0
-0.00127612 0.0156623 0
1.05919e-05 0.0160964 0
-0.000842068 0.0153706 0
-0.000632762 0.0158794 0
-0.000415738 0.0157335 0
-0.00105909 0.0155165 0
-0.00127853 0.0156623 0
-0.000582008 0.0153706 0
-0.00257384 0.0149658 0
-0.000930267 0.0155165 0
-0.00157792 0.0151682 0
-0.00192618 0.0153141 0
-0.00380133 0.0147908 0
-0.00487017 0.0146973 0
-0.00184807 0.0158596 0
-0.00433575 0.014744 0
-0.00335912 0.0152785 0
-0.0028247 0.0153252 0
-0.00380133 0.0147909 0
-0.00184807 0.0158675 0
-0.00272475 0.014797 0
-0.0028247 0.0153292 0
-0.00228641 0.0153322 0
-0.00326304 0.014794 0
-0.0038011 0.0147908 0
-0.00583326 0.0134049 0
-0.00518702 0.0146973 0
-0.00481718 0.0140978 0
-0.00551014 0.0140511 0
-0.00449406 0.014744 0
-0.0038011 0.0147909 0
-0.0024056 0.014797 0
-0.00583326 0.0133954 0
-0.00310335 0.014794 0
-0.00411943 0.0140962 0
-0.00481718 0.0140932 0
0.00155769 0.0146151 0
0.0023651 0.0135598 0
0.000502292 0.01406 0
0.00196139 0.0140875 0
0.0014337 0.0138099 0
0.00102999 0.0143376 0
0.00155769 0.0146172 0
0.00267399 0.0148245 0
0.0023651 0.0135009 0
0.00211584 0.0147209 0
0.00251955 0.0141627 0
0.00196139 0.014059 0
0.00155363 0.0146151 0
0.000703191 0.01406 0
0.000707514 0.0154656 0
0.00112841 0.0143376 0
0.000705352 0.0147628 0
0.00113057 0.0150404 0
0.00155363 0.0146172 0
0.000707514 0.0154961 0
0.00243255 0.0148245 0
0.00113057 0.0150566 0
0.00157003 0.0151603 0
0.00199309 0.0147209 0
0.0035753 0.0115385 0
0.00233371 0.013531 0
0.00556782 0.0112731 0
0.0029545 0.0125348 0
0.00395076 0.0124021 0
0.00457156 0.0114058 0
0.0035753 0.0115404 0
0.00161845 0.0117485 0
0.00233371 0.0134973 0
0.00259688 0.0116444 0
0.00197608 0.0126229 0
0.0029545 0.0125189 0
0.00357147 0.0115385 0
0.00591229 0.0112731 0
0.00497971 0.00919769 0
0.00474188 0.0114058 0
0.005446 0.0102354 0
0.00427559 0.0103681 0
0.00357147 0.0115404 0
0.00497971 0.00920463 0
0.00123567 0.0117485 0
0.00427559 0.0103725 0
0.00310769 0.0104765 0
0.00240357 0.0116444 0
0.00114861 0.0131058 0
0.000620117 0.0141779 0
0.00222072 0.0134154 0
0.000884365 0.0136418 0
0.00142042 0.0137966 0
0.00168467 0.0132606 0
0.00115566 0.0131058 0
0.00241561 0.0134154 0
0.00152111 0.0118458 0
0.00178564 0.0132606 0
0.00196836 0.0126306 0
0.00133839 0.0124758 0
0.00114861 0.0131022 0
0.00016144 0.0122725 0
0.000620117 0.0140894 0
0.000655027 0.0126874 0
0.000390779 0.0131809 0
0.000884365 0.0135958 0
0.00115566 0.0131022 0
0.00152111 0.0119836 0
3.70574e-05 0.0122725 0
0.00133839 0.0125429 0
0.000779086 0.012128 0
0.000596361 0.0126874 0
2.40466e-06 0.0155764 0
0.000103275 0.0159825 0
0.000737137 0.0154755 0
5.28399e-05 0.0157795 0
0.000420206 0.015729 0
0.000369771 0.015526 0
2.40466e-06 0.015574 0
0.000737137 0.0154924 0
-7.92284e-05 0.0147509 0
0.000369771 0.0155332 0
0.000328954 0.0151216 0
-3.84119e-05 0.0151625 0
-2.40466e-06 0.0155764 0
-0.000737137 0.0154755 0
-0.000103275 0.0159825 0
-0.000369771 0.015526 0
-0.000420206 0.015729 0
-5.28399e-05 0.0157795 0
-2.40466e-06 0.015574 0
7.92284e-05 0.0147509 0
-0.000737137 0.0154924 0
3.84119e-05 0.0151625 0
-0.000328954 0.0151216 0
-0.000369771 0.0155332 0
0.000356688 0.0145075 0
0.000762286 0.0154108 0
0.000661325 0.0141019 0
0.000559487 0.0149592 0
0.000711805 0.0147564 0
0.000509006 0.0143047 0
0.00035066 0.0145075 0
-1.77078e-05 0.0148124 0
0.000655605 0.0154108 0
0.000166476 0.01466 0
0.000318949 0.0151116 0
0.000503133 0.0149592 0
0.000356688 0.0145045 0
0.000661325 0.014161 0
1.31571e-05 0.0129803 0
0.000509006 0.0143327 0
0.000337241 0.0135706 0
0.000184922 0.0137424 0
0.00035066 0.0145045 0
5.95573e-05 0.0129803 0
-1.77078e-05 0.0147956 0
0.000205108 0.0137424 0
2.09248e-05 0.013888 0
0.000166476 0.01465 0
0.0209701 0 0
0.0183983 0 0
0.0174546 0.00257182 0
0.0196842 0 0
0.0179265 0.00128591 0
0.0192124 0.00128591 0
0.0209701 0 0
0.0174546 0.00269733 0
0.0236675 0 0
0.0192124 0.00134866 0
0.020561 0.00134866 0
0.0223188 0 0
0.0146097 0.00252102 0
0.0173156 0.00271082 0
0.0185832 -0.000184854 0
0.0159626 0.00261592 0
0.0179494 0.00126299 0
0.0165964 0.00116808 0
0.014585 0.00252102 0
0.0108453 0.00546047 0
0.0175245 0.00271082 0
0.0127152 0.00399075 0
0.0141849 0.00408565 0
0.0160548 0.00261592 0
0.0146097 0.00250868 0
0.0185832 -0.000165052 0
0.011936 0.00238827 0
0.0165964 0.00117182 0
0.0152596 0.00111161 0
0.0132728 0.00244848 0
0.014585 0.00250868 0
0.0114803 0.00238827 0
0.0108453 0.00561339 0
0.0130327 0.00244848 0
0.0111628 0.00400083 0
0.0127152 0.00406104 0
0.00759157 0.00586021 0
0.0042329 0.00661315 0
0.00497628 0.00921888 0
0.00591223 0.00623668 0
0.00460459 0.00791601 0
0.00628392 0.00753954 0
0.00759157 0.00584937 0
0.00497628 0.00901899 0
0.0107612 0.00553374 0
0.00628392 0.00743418 0
0.00786873 0.00727636 0
0.00917638 0.00569155 0
0.00756988 0.00586021 0
0.0113743 0.00214262 0
0.00385229 0.00661315 0
0.00947211 0.00400141 0
0.00761331 0.00437788 0
0.00571109 0.00623668 0
0.00756988 0.00584937 0
0.010925 0.00553374 0
0.0113743 0.00249428 0
0.00924743 0.00569155 0
0.0111497 0.00401401 0
0.00947211 0.00417182 0
0.00251431 0.00974452 0
0.00522319 0.00897197 0
0.0038104 0.00703564 0
0.00386875 0.00935824 0
0.00451679 0.00800381 0
0.00316236 0.00839008 0
0.0025242 0.00974452 0
0.00145459 0.0119674 0
0.00474706 0.00897197 0
0.00198939 0.010856 0
0.00310082 0.0104697 0
0.00363563 0.00935824 0
0.00251431 0.00974946 0
0.0038104 0.00707616 0
-0.000158993 0.0105142 0
0.00316236 0.00841281 0
0.00182571 0.00879518 0
0.00117766 0.0101318 0
0.0025242 0.00974946 0
0.000415974 0.0105142 0
0.00145459 0.0118577 0
0.00147008 0.0101318 0
0.000935281 0.0111859 0
0.00198939 0.0108036 0
0.0168659 0 0
0.0114301 0.00188237 0
0.0187482 0 0
0.014148 0.000941187 0
0.0150892 0.000941187 0
0.017807 0 0
0.0168659 0 0
0.0149484 0 0
0.0114301 0.00191748 0
0.0159071 0 0
0.0131892 0.000958739 0
0.014148 0.000958739 0
0.00785589 0.00285335 0
0.00375419 0.00651504 0
0.0115176 0.00228586 0
0.00580504 0.0046842 0
0.00763588 0.00440045 0
0.00968673 0.00256961 0
0.00780531 0.00285335 0
0.0110617 0.00228586 0
0.0153514 -0.000403032 0
0.0094335 0.00256961 0
0.0132066 0.000941416 0
0.0115784 0.00122516 0
0.00785589 0.00287865 0
0.003484 0.00433633 0
0.00375419 0.00725054 0
0.00566994 0.00360749 0
0.00361909 0.00579344 0
0.00580504 0.00506459 0
0.00780531 0.00287865 0
0.0153514 -0.00149261 0
0.00343404 0.00433633 0
0.0115784 0.000693016 0
0.00939273 0.00142186 0
0.00561968 0.00360749 0
-0.0234016 0.0210734 0
-0.0521628 0.0183548 0
-0.13162 0.0498346 0
-0.0377822 0.0197141 0
-0.0918912 0.0340947 0
-0.0775106 0.035454 0
-0.048524 0.0210734 0
-0.0407015 0.0128645 0
-0.0567329 0.0183548 0
-0.0446128 0.016969 0
-0.0487172 0.0156097 0
-0.0526284 0.0197141 0
-0.0527508 0 0
-0.081785 0 0
-0.0628423 0.0290342 0
-0.0672679 0 0
-0.0723137 0.0145171 0
-0.0577965 0.0145171 0
-0.0527508 0 0
-0.0628423 0.00852635 0
-0.0442244 0 0
-0.0577965 0.00426318 0
-0.0535334 0.00426318 0
-0.0484876 0 0
-0.0488453 0.00682681 0
-0.0543556 0.0122476 0
-0.0424024 0.0123371 0
-0.0516005 0.00953721 0
-0.048379 0.0122923 0
-0.0456238 0.00958193 0
-0.0492485 0.00682681 0
-0.0472701 -0.00304572 0
-0.0591211 0.0122476 0
-0.0482593 0.00189055 0
-0.0531956 0.00460094 0
-0.0541848 0.00953721 0
-0.0488453 0.00662522 0
-0.0424024 0.0116545 0
-0.043816 0.00339515 0
-0.0456238 0.00913988 0
-0.0431092 0.00752484 0
-0.0463307 0.00501019 0
-0.0492485 0.00662522 0
-0.0430824 0.00339515 0
-0.0472701 0.000459108 0
-0.0461655 0.00501019 0
-0.0451763 0.00192713 0
-0.0482593 0.00354216 0
-0.0432403 0 0
-0.043258 0.00257958 0
-0.0406607 0 0
-0.0432491 0.00128979 0
-0.0419594 0.00128979 0
-0.0419505 0 0
-0.0432403 0 0
-0.046811 0 0
-0.043258 0.00357071 0
-0.0450257 0 0
-0.0450345 0.00178536 0
-0.0432491 0.00178536 0
-0.0387436 0.00310424 0
-0.0411126 -0.000451824 0
-0.0422997 0.0035379 0
-0.0399281 0.00132621 0
-0.0417061 0.00154304 0
-0.0405216 0.00332107 0
-0.0387703 0.00310424 0
-0.0427524 0.0035379 0
-0.0349917 0.00708633 0
-0.0407614 0.00332107 0
-0.0388721 0.00531211 0
-0.036881 0.00509528 0
-0.0387436 0.00311762 0
-0.0354753 0.00290507 0
-0.0411126 -0.000150698 0
-0.0371094 0.00301134 0
-0.0382939 0.00137719 0
-0.0399281 0.00148346 0
-0.0387703 0.00311762 0
-0.0349917 0.00659789 0
-0.0352901 0.00290507 0
-0.036881 0.00485775 0
-0.0351409 0.00475148 0
-0.0370302 0.00301134 0
-0.0384778 0 0
-0.0412633 0 0
-0.0353557 0.00278546 0
-0.0398705 0 0
-0.0383095 0.00139273 0
-0.0369167 0.00139273 0
-0.0384778 0 0
-0.0353557 0.00277076 0
-0.035707 0 0
-0.0369167 0.00138538 0
-0.0355314 0.00138538 0
-0.0370924 0 0
-0.0321781 0.00295945 0
-0.0352859 0.00295166 0
-0.028414 0.00606729 0
-0.033732 0.00295555 0
-0.03185 0.00450947 0
-0.030296 0.00451337 0
-0.0321679 0.00295945 0
-0.0357545 -4.74353e-05 0
-0.0351748 0.00295166 0
-0.0339612 0.00145601 0
-0.0354646 0.00145211 0
-0.0336713 0.00295555 0
-0.0321781 0.00296454 0
-0.028414 0.00598158 0
-0.029161 0.00300484 0
-0.030296 0.00447306 0
-0.0287875 0.00449321 0
-0.0306695 0.00298469 0
-0.0321679 0.00296454 0
-0.0291703 0.00300484 0
-0.0357545 -3.30261e-05 0
-0.0306691 0.00298469 0
-0.0324624 0.00148591 0
-0.0339612 0.00146576 0
-0.0327903 0 0
-0.0291627 0.00302371 0
-0.0297665 0 0
-0.0309765 0.00151186 0
-0.0294646 0.00151186 0
-0.0312784 0 0
-0.0327903 0 0
-0.0357875 0 0
-0.0291627 0.00299724 0
-0.0342889 0 0
-0.0324751 0.00149862 0
-0.0309765 0.00149862 0
-0.0261802 0.00301898 0
-0.0297356 3.0926e-05 0
-0.0291683 0.00301817 0
-0.0279579 0.00152495 0
-0.0294519 0.00152455 0
-0.0276742 0.00301858 0
-0.0261814 0.00301898 0
-0.0291274 0.00301817 0
-0.0225709 0.00596494 0
-0.0276544 0.00301858 0
-0.0258491 0.00449155 0
-0.0243762 0.00449196 0
-0.0261802 0.00301958 0
-0.0232028 0.00299177 0
-0.0297356 4.22004e-05 0
-0.0246915 0.00300567 0
-0.0264692 0.00151698 0
-0.0279579 0.00153089 0
-0.0261814 0.00301958 0
-0.0225709 0.00594528 0
-0.0232557 0.00299177 0
-0.0243762 0.00448243 0
-0.0229133 0.00446852 0
-0.0247186 0.00300567 0
-0.0197314 0.00586273 0
-0.0168747 0.00576925 0
-0.0232416 0.00300606 0
-0.0183031 0.00581599 0
-0.0200582 0.00438766 0
-0.0214865 0.0044344 0
-0.0197314 0.00586359 0
-0.0232416 0.00300588 0
-0.0225891 0.00592709 0
-0.0214865 0.00443473 0
-0.0229154 0.00446648 0
-0.0211603 0.00589534 0
-0.0197297 0.00586273 0
-0.0162385 0.00865974 0
-0.0169327 0.00576925 0
-0.0179841 0.00726124 0
-0.0165856 0.0072145 0
-0.0183312 0.00581599 0
-0.0197297 0.00586359 0
-0.022514 0.00592709 0
-0.0162385 0.00864793 0
-0.0211219 0.00589534 0
-0.0193763 0.00728751 0
-0.0179841 0.00725576 0
-0.0266648 0 0
-0.0296934 0 0
-0.0232397 0.00302861 0
-0.0281791 0 0
-0.0264665 0.00151431 0
-0.0249522 0.00151431 0
-0.0266648 0 0
-0.0232397 0.00298336 0
-0.0236814 0 0
-0.0249522 0.00149168 0
-0.0234606 0.00149168 0
-0.0251731 0 0
-0.0203317 0.00287773 0
-0.0232223 0.00298677 0
-0.0168739 0.00576836 0
-0.021777 0.00293225 0
-0.0200481 0.00437756 0
-0.0186028 0.00432304 0
-0.020339 0.00287773 0
-0.0237009 -1.94875e-05 0
-0.0232363 0.00298677 0
-0.02202 0.00142912 0
-0.0234686 0.00148364 0
-0.0217876 0.00293225 0
-0.0203317 0.00287404 0
-0.0168739 0.005767 0
-0.0174387 0.00274119 0
-0.0186028 0.00432052 0
-0.0171563 0.00425409 0
-0.0188852 0.00280762 0
-0.020339 0.00287404 0
-0.0174985 0.00274119 0
-0.0237009 3.34604e-05 0
-0.0189187 0.00280762 0
-0.0205997 0.00138733 0
-0.02202 0.00145375 0
-0.0135804 0.00855803 0
-0.0168688 0.00583315 0
-0.0163053 0.00859291 0
-0.0152246 0.00719559 0
-0.0165871 0.00721303 0
-0.0149429 0.00857547 0
-0.0135807 0.00855803 0
-0.0161568 0.00859291 0
-0.0105077 0.0111341 0
-0.0148687 0.00857547 0
-0.0133322 0.00986351 0
-0.0120442 0.00984607 0
-0.0135804 0.00855816 0
-0.0107983 0.00852586 0
-0.0168688 0.00577598 0
-0.0121894 0.00854201 0
-0.0138335 0.00715092 0
-0.0152246 0.00716707 0
-0.0135807 0.00855816 0
-0.0105077 0.0111895 0
-0.0109494 0.00852586 0
-0.0120442 0.00987382 0
-0.0107285 0.00985767 0
-0.012265 0.00854201 0
-0.00817728 0.0111485 0
-0.00582831 0.0133991 0
-0.00592666 0.0112614 0
-0.0070028 0.0122738 0
-0.00587748 0.0123302 0
-0.00705197 0.0112049 0
-0.00817728 0.0111468 0
-0.0103825 0.0110556 0
-0.00582831 0.013352 0
-0.00927989 0.0111012 0
-0.00810541 0.0122038 0
-0.0070028 0.0122494 0
-0.00817394 0.0111485 0
-0.00563427 0.0112614 0
-0.010796 0.00860878 0
-0.0069041 0.0112049 0
-0.00821513 0.00993508 0
-0.00948497 0.00987862 0
-0.00817394 0.0111468 0
-0.010796 0.00867924 0
-0.0106415 0.0110556 0
-0.00948497 0.00991301 0
-0.0107187 0.00986744 0
-0.00940772 0.0111012 0
-0.00408394 0.0133535 0
-0.00573797 0.0114501 0
-0.00598734 0.0132401 0
-0.00491096 0.0124018 0
-0.00586266 0.0123451 0
-0.00503564 0.0132968 0
-0.00408524 0.0133535 0
-0.00567791 0.0132401 0
-0.00255472 0.0149461 0
-0.00488158 0.0132968 0
-0.00411631 0.0140931 0
-0.00331998 0.0141498 0
-0.00408394 0.0133541 0
-0.00217312 0.0133704 0
-0.00573797 0.0114433 0
-0.00312853 0.0133623 0
-0.00395554 0.0124069 0
-0.00491096 0.0123987 0
-0.00408524 0.0133541 0
-0.00255472 0.0149438 0
-0.00249554 0.0133704 0
-0.00331998 0.014149 0
-0.00252513 0.0141571 0
-0.00329039 0.0133623 0
-0.00800581 0.00866618 0
-0.0107013 0.00851411 0
-0.00573458 0.0113617 0
-0.00935357 0.00859014 0
-0.00821795 0.0099379 0
-0.0068702 0.0100139 0
-0.00799734 0.00866618 0
-0.0108098 0.00573084 0
-0.0109327 0.00851411 0
-0.00940358 0.00719851 0
-0.0108713 0.00712247 0
-0.00946501 0.00859014 0
-0.00800581 0.00867041 0
-0.00573458 0.0114508 0
-0.0052254 0.00895201 0
-0.0068702 0.0100606 0
-0.00547999 0.0102014 0
-0.0066156 0.00881121 0
-0.00799734 0.00867041 0
-0.00490931 0.00895201 0
-0.0108098 0.00558238 0
-0.00645332 0.00881121 0
-0.00785956 0.0072672 0
-0.00940358 0.0071264 0
-0.0139589 0.00564556 0
-0.0168492 0.0057564 0
-0.0108083 0.00853591 0
-0.015404 0.00570098 0
-0.0138288 0.00714616 0
-0.0123836 0.00709073 0
-0.0139589 0.00564396 0
-0.0108083 0.00863847 0
-0.0109643 0.00557631 0
-0.0123836 0.00714121 0
-0.0108863 0.00710739 0
-0.0124616 0.00561013 0
-0.0139621 0.00564556 0
-0.0174567 0.00272318 0
-0.0168844 0.0057564 0
-0.0157094 0.00418437 0
-0.0171706 0.00423979 0
-0.0154233 0.00570098 0
-0.0139621 0.00564396 0
-0.0109612 0.00557631 0
-0.0174567 0.00264306 0
-0.0124616 0.00561013 0
-0.014209 0.00410969 0
-0.0157094 0.00414351 0
-0.00155769 0.0146151 0
-0.000502292 0.01406 0
-0.0023651 0.0135598 0
-0.00102999 0.0143376 0
-0.0014337 0.0138099 0
-0.00196139 0.0140875 0
-0.00155769 0.0146172 0
-0.0023651 0.0135009 0
-0.00267399 0.0148245 0
-0.00196139 0.014059 0
-0.00251955 0.0141627 0
-0.00211584 0.0147209 0
-0.00155363 0.0146151 0
-0.000707514 0.0154656 0
-0.000703191 0.01406 0
-0.00113057 0.0150404 0
-0.000705352 0.0147628 0
-0.00112841 0.0143376 0
-0.00155363 0.0146172 0
-0.00243255 0.0148245 0
-0.000707514 0.0154961 0
-0.00199309 0.0147209 0
-0.00157003 0.0151603 0
-0.00113057 0.0150566 0
-0.0035753 0.0115385 0
-0.00556782 0.0112731 0
-0.00233371 0.013531 0
-0.00457156 0.0114058 0
-0.00395076 0.0124021 0
-0.0029545 0.0125348 0
-0.0035753 0.0115404 0
-0.00233371 0.0134973 0
-0.00161845 0.0117485 0
-0.0029545 0.0125189 0
-0.00197608 0.0126229 0
-0.00259688 0.0116444 0
-0.00357147 0.0115385 0
-0.00497971 0.00919769 0
-0.00591229 0.0112731 0
-0.00427559 0.0103681 0
-0.005446 0.0102354 0
-0.00474188 0.0114058 0
-0.00357147 0.0115404 0
-0.00123567 0.0117485 0
-0.00497971 0.00920463 0
-0.00240357 0.0116444 0
-0.00310769 0.0104765 0
-0.00427559 0.0103725 0
-0.00114861 0.0131058 0
-0.00222072 0.0134154 0
-0.000620117 0.0141779 0
-0.00168467 0.0132606 0
-0.00142042 0.0137966 0
-0.000884365 0.0136418 0
-0.00115566 0.0131058 0
-0.00152111 0.0118458 0
-0.00241561 0.0134154 0
-0.00133839 0.0124758 0
-0.00196836 0.0126306 0
-0.00178564 0.0132606 0
-0.00114861 0.0131022 0
-0.000620117 0.0140894 0
-0.00016144 0.0122725 0
-0.000884365 0.0135958 0
-0.000390779 0.0131809 0
-0.000655027 0.0126874 0
-0.00115566 0.0131022 0
-3.70574e-05 0.0122725 0
-0.00152111 0.0119836 0
-0.000596361 0.0126874 0
-0.000779086 0.012128 0
-0.00133839 0.0125429 0
-0.000356688 0.0145075 0
-0.000661325 0.0141019 0
-0.000762286 0.0154108 0
-0.000509006 0.0143047 0
-0.000711805 0.0147564 0
-0.000559487 0.0149592 0
-0.00035066 0.0145075 0
-0.000655605 0.0154108 0
1.77078e-05 0.0148124 0
-0.000503133 0.0149592 0
-0.000318949 0.0151116 0
-0.000166476 0.01466 0
-0.000356688 0.0145045 0
-1.31571e-05 0.0129803 0
-0.000661325 0.014161 0
-0.000184922 0.0137424 0
-0.000337241 0.0135706 0
-0.000509006 0.0143327 0
-0.00035066 0.0145045 0
1.77078e-05 0.0147956 0
-5.95573e-05 0.0129803 0
-0.000166476 0.01465 0
-2.09248e-05 0.013888 0
-0.000205108 0.0137424 0
-0.0209701 0 0
-0.0174546 0.00257182 0
-0.0183983 0 0
-0.0192124 0.00128591 0
-0.0179265 0.00128591 0
-0.0196842 0 0
-0.0209701 0 0
-0.0236675 0 0
-0.0174546 0.00269733 0
-0.0223188 0 0
-0.020561 0.00134866 0
-0.0192124 0.00134866 0
-0.0146097 0.00252102 0
-0.0185832 -0.000184854 0
-0.0173156 0.00271082 0
-0.0165964 0.00116808 0
-0.0179494 0.00126299 0
-0.0159626 0.00261592 0
-0.014585 0.00252102 0
-0.0175245 0.00271082 0
-0.0108453 0.00546047 0
-0.0160548 0.00261592 0
-0.0141849 0.00408565 0
-0.0127152 0.00399075 0
-0.0146097 0.00250868 0
-0.011936 0.00238827 0
-0.0185832 -0.000165052 0
-0.0132728 0.00244848 0
-0.0152596 0.00111161 0
-0.0165964 0.00117182 0
-0.014585 0.00250868 0
-0.0108453 0.00561339 0
-0.0114803 0.00238827 0
-0.0127152 0.00406104 0
-0.0111628 0.00400083 0
-0.0130327 0.00244848 0
-0.00759157 0.00586021 0
-0.00497628 0.00921888 0
-0.0042329 0.00661315 0
-0.00628392 0.00753954 0
-0.00460459 0.00791601 0
-0.00591223 0.00623668 0
-0.00759157 0.00584937 0
-0.0107612 0.00553374 0
-0.00497628 0.00901899 0
-0.00917638 0.00569155 0
-0.00786873 0.00727636 0
-0.00628392 0.00743418 0
-0.00756988 0.00586021 0
-0.00385229 0.00661315 0
-0.0113743 0.00214262 0
-0.00571109 0.00623668 0
-0.00761331 0.00437788 0
-0.00947211 0.00400141 0
-0.00756988 0.00584937 0
-0.0113743 0.00249428 0
-0.010925 0.00553374 0
-0.00947211 0.00417182 0
-0.0111497 0.00401401 0
-0.00924743 0.00569155 0
-0.00251431 0.00974452 0
-0.0038104 0.00703564 0
-0.00522319 0.00897197 0
-0.00316236 0.00839008 0
-0.00451679 0.00800381 0
-0.00386875 0.00935824 0
-0.0025242 0.00974452 0
-0.00474706 0.00897197 0
-0.00145459 0.0119674 0
-0.00363563 0.00935824 0
-0.00310082 0.0104697 0
-0.00198939 0.010856 0
-0.00251431 0.00974946 0
0.000158993 0.0105142 0
-0.0038104 0.00707616 0
-0.00117766 0.0101318 0
-0.00182571 0.00879518 0
-0.00316236 0.00841281 0
-0.0025242 0.00974946 0
-0.00145459 0.0118577 0
-0.000415974 0.0105142 0
-0.00198939 0.0108036 0
-0.000935281 0.0111859 0
-0.00147008 0.0101318 0
-0.0168659 0 0
-0.0187482 0 0
-0.0114301 0.00188237 0
-0.017807 0 0
-0.0150892 0.000941187 0
-0.014148 0.000941187 0
-0.0168659 0 0
-0.0114301 0.00191748 0
-0.0149484 0 0
-0.014148 0.000958739 0
-0.0131892 0.000958739 0
-0.0159071 0 0
-0.00785589 0.00285335 0
-0.0115176 0.00228586 0
-0.00375419 0.00651504 0
-0.00968673 0.00256961 0
-0.00763588 0.00440045 0
-0.00580504 0.0046842 0
-0.00780531 0.00285335 0
-0.0153514 -0.000403032 0
-0.0110617 0.00228586 0
-0.0115784 0.00122516 0
-0.0132066 0.000941416 0
-0.0094335 0.00256961 0
-0.00785589 0.00287865 0
-0.00375419 0.00725054 0
-0.003484 0.00433633 0
-0.00580504 0.00506459 0
-0.00361909 0.00579344 0
-0.00566994 0.00360749 0
-0.00780531 0.00287865 0
-0.00343404 0.00433633 0
-0.0153514 -0.00149261 0
-0.00561968 0.00360749 0
-0.00939273 0.00142186 0
-0.0115784 0.000693016 0
-0.0153238 0 0
-0.000617915 0.00686045 0
-0.00846338 0 0
-0.00797087 0.00343022 0
-0.00454065 0.00343022 0
-0.0118936 0 0
-0.0153238 0 0
-0.016844 0 0
-0.000617915 0.0015202 0
-0.0160839 0 0
-0.00873097 0.0007601 0
-0.00797087 0.0007601 0
0 0.010039 0
0 0.00846338 0
-0.00157565 0.00590271 0
0 0.00925121 0
-0.000787827 0.00718304 0
-0.000787827 0.00797087 0
0 0.010039 0
-0.00134165 0.00590271 0
0 0.0113807 0
-0.000670827 0.00797087 0
-0.000670827 0.0086417 0
0 0.0107099 0
-0.00140643 0.00874078 0
-0.00199569 0.00582463 0
-0.00432258 0.00668214 0
-0.00170106 0.00728271 0
-0.00315914 0.00625339 0
-0.00286451 0.00771146 0
-0.00140643 0.00870755 0
0.000744373 0.0106363 0
-0.00199569 0.00655675 0
-0.00033103 0.00967193 0
-0.00062566 0.00859653 0
-0.00170106 0.00763215 0
-0.00133997 0.00874078 0
-0.00341639 0.00668214 0
-0.000144006 0.0108172 0
-0.00237818 0.00771146 0
-0.0017802 0.00874967 0
-0.000741988 0.00977899 0
-0.00133997 0.00870755 0
-0.000144006 0.0105503 0
0.000502806 0.0106363 0
-0.000741988 0.00962894 0
0.0001794 0.0105933 0
-0.000418582 0.00967193 0
0 0.00998422 0
-0.000358712 0.0108436 0
0 0.0103429 0
-0.000179356 0.0104139 0
-0.000179356 0.0105933 0
0 0.0101636 0
0 0.00998422 0
0 0.0101335 0
0.000149284 0.0108436 0
0 0.0100589 0
7.4642e-05 0.0104886 0
7.4642e-05 0.0104139 0
-0.000525506 0.0114735 0
7.2364e-05 0.0102706 0
-0.0003907 0.0108756 0
-0.000226571 0.010872 0
-0.000159168 0.0105731 0
-0.000458103 0.0111745 0
-0.000525506 0.0114858 0
-0.0003907 0.0105395 0
-0.00147181 0.0118405 0
-0.000458103 0.0110126 0
-0.000931253 0.01119 0
-0.000998656 0.0116631 0
-0.000500903 0.0114735 0
-0.000127418 0.0121989 0
0.000224549 0.0102706 0
-0.00031416 0.0118362 0
4.85659e-05 0.0112348 0
-0.000138177 0.010872 0
-0.000500903 0.0114858 0
-0.00137796 0.0118405 0
-0.000127418 0.0123628 0
-0.00093943 0.0116631 0
-0.000752688 0.0121016 0
-0.00031416 0.0119243 0
0 0.0100041 0
0 0.010046 0
4.19088e-05 0.0123683 0
0 0.0100251 0
2.09544e-05 0.0112071 0
2.09544e-05 0.0111862 0
0 0.0100041 0
-0.000216037 0.0123683 0
0 0.0102202 0
-0.000108019 0.0111862 0
-0.000108019 0.0112942 0
0 0.0101121 0
-0.000224631 0.0125945 0
-0.000209227 0.0122247 0
-0.000594404 0.0141151 0
-0.000216929 0.0124096 0
-0.000401816 0.0131699 0
-0.000409517 0.0133548 0
-0.000224631 0.0125891 0
2.98671e-06 0.0102172 0
-0.000209227 0.0123614 0
-0.000110822 0.0114031 0
-0.00010312 0.0112893 0
-0.000216929 0.0124753 0
-0.000213838 0.0125945 0
-0.000615488 0.0141151 0
-2.89446e-05 0.0129961 0
-0.000414663 0.0133548 0
-0.000322216 0.0135556 0
-0.000121391 0.0127953 0
-0.000213838 0.0125891 0
-2.89446e-05 0.0129349 0
0.000131999 0.0102172 0
-0.000121391 0.012762 0
5.15272e-05 0.011576 0
-4.09194e-05 0.0114031 0
0 0.0100077 0
-0.000139502 0.0130414 0
0 0.0101472 0
-6.9751e-05 0.0115245 0
-6.9751e-05 0.0115943 0
0 0.0100774 0
0 0.0100077 0
0 0.0100852 0
7.75064e-05 0.0130414 0
0 0.0100464 0
3.87532e-05 0.0115633 0
3.87532e-05 0.0115245 0
-4.40203e-06 0.0129277 0
-6.30134e-05 0.0102102 0
-8.44222e-05 0.0129863 0
-3.37077e-05 0.0115689 0
-7.37178e-05 0.0115982 0
-4.44121e-05 0.012957 0
-4.40203e-06 0.0129321 0
-8.44222e-05 0.0129555 0
1.89931e-05 0.0147969 0
-4.44121e-05 0.0129438 0
-3.27146e-05 0.0138762 0
7.29553e-06 0.0138645 0
4.40203e-06 0.0129277 0
8.44222e-05 0.0129863 0
6.30134e-05 0.0102102 0
4.44121e-05 0.012957 0
7.37178e-05 0.0115982 0
3.37077e-05 0.0115689 0
4.40203e-06 0.0129321 0
-1.89931e-05 0.0147969 0
8.44222e-05 0.0129555 0
-7.29553e-06 0.0138645 0
3.27146e-05 0.0138762 0
4.44121e-05 0.0129438 0
0 0.0100077 0
0 0.0101472 0
0.000139502 0.0130414 0
0 0.0100774 0
6.9751e-05 0.0115943 0
6.9751e-05 0.0115245 0
0 0.0100077 0
-7.75064e-05 0.0130414 0
0 0.0100852 0
-3.87532e-05 0.0115245 0
-3.87532e-05 0.0115633 0
0 0.0100464 0
0.000213838 0.0125945 0
2.89446e-05 0.0129961 0
0.000615488 0.0141151 0
0.000121391 0.0127953 0
0.000322216 0.0135556 0
0.000414663 0.0133548 0
0.000213838 0.0125891 0
-0.000131999 0.0102172 0
2.89446e-05 0.0129349 0
4.09194e-05 0.0114031 0
-5.15272e-05 0.011576 0
0.000121391 0.012762 0
0.000224631 0.0125945 0
0.000594404 0.0141151 0
0.000209227 0.0122247 0
0.000409517 0.0133548 0
0.000401816 0.0131699 0
0.000216929 0.0124096 0
0.000224631 0.0125891 0
0.000209227 0.0123614 0
-2.98671e-06 0.0102172 0
0.000216929 0.0124753 0
0.00010312 0.0112893 0
0.000110822 0.0114031 0
0 0.0100041 0
-4.19088e-05 0.0123683 0
0 0.010046 0
-2.09544e-05 0.0111862 0
-2.09544e-05 0.0112071 0
0 0.0100251 0
0 0.0100041 0
0 0.0102202 0
0.000216037 0.0123683 0
0 0.0101121 0
0.000108019 0.0112942 0
0.000108019 0.0111862 0
0.000500903 0.0114735 0
-0.000224549 0.0102706 0
0.000127418 0.0121989 0
0.000138177 0.010872 0
-4.85659e-05 0.0112348 0
0.00031416 0.0118362 0
0.000500903 0.0114858 0
0.000127418 0.0123628 0
0.00137796 0.0118405 0
0.00031416 0.0119243 0
0.000752688 0.0121016 0
0.00093943 0.0116631 0
0.000525506 0.0114735 0
0.0003907 0.0108756 0
-7.2364e-05 0.0102706 0
0.000458103 0.0111745 0
0.000159168 0.0105731 0
0.000226571 0.010872 0
0.000525506 0.0114858 0
0.00147181 0.0118405 0
0.0003907 0.0105395 0
0.000998656 0.0116631 0
0.000931253 0.01119 0
0.000458103 0.0110126 0
0 0.00998422 0
0 0.0103429 0
0.000358712 0.0108436 0
0 0.0101636 0
0.000179356 0.0105933 0
0.000179356 0.0104139 0
0 0.00998422 0
-0.000149284 0.0108436 0
0 0.0101335 0
-7.4642e-05 0.0104139 0
-7.4642e-05 0.0104886 0
0 0.0100589 0
0.00133997 0.00874078 0
0.000144006 0.0108172 0
0.00341639 0.00668214 0
0.000741988 0.00977899 0
0.0017802 0.00874967 0
0.00237818 0.00771146 0
0.00133997 0.00870755 0
-0.000502806 0.0106363 0
0.000144006 0.0105503 0
0.000418582 0.00967193 0
-0.0001794 0.0105933 0
0.000741988 0.00962894 0
0.00140643 0.00874078 0
0.00432258 0.00668214 0
0.00199569 0.00582463 0
0.00286451 0.00771146 0
0.00315914 0.00625339 0
0.00170106 0.00728271 0
0.00140643 0.00870755 0
0.00199569 0.00655675 0
-0.000744373 0.0106363 0
0.00170106 0.00763215 0
0.00062566 0.00859653 0
0.00033103 0.00967193 0
0.0153238 0 0
0.00846338 0 0
0.000617915 0.00686045 0
0.0118936 0 0
0.00454065 0.00343022 0
0.00797087 0.00343022 0
0.0153238 0 0
0.000617915 0.0015202 0
0.016844 0 0
0.00797087 0.0007601 0
0.00873097 0.0007601 0
0.0160839 0 0
0 0.010039 0
0.00157565 0.00590271 0
0 0.00846338 0
0.000787827 0.00797087 0
0.000787827 0.00718304 0
0 0.00925121 0
0 0.010039 0
0 0.0113807 0
0.00134165 0.00590271 0
0 0.0107099 0
0.000670827 0.0086417 0
0.000670827 0.00797087 0
VECTORS stress_2 float
0.0150612 0.0478783 0
0.0532487 0.0431533 0
0.0103363 0.0043858 0
0.034155 0.0455158 0
0.0317925 0.0237696 0
0.0126987 0.026132 0
0.0269766 0.0478783 0
0.0273238 0.0043858 0
0.00871774 0.0475311 0
0.0271502 0.026132 0
0.0180207 0.0259585 0
0.0178472 0.0477047 0
0.0148528 0.0172203 0
0.0168378 0.0121954 0
0.00982791 0.00637397 0
0.0158453 0.0147078 0
0.0133328 0.00928467 0
0.0123404 0.0117971 0
0.0148528 0.0171473 0
0.0171283 0.0391205 0
0.0168378 0.0148718 0
0.0159906 0.0281339 0
0.0169831 0.0269962 0
0.0158453 0.0160096 0
0.0148893 0.0172203 0
0.0129162 0.00637397 0
0.0123248 0.0191934 0
0.0139027 0.0117971 0
0.0126205 0.0127837 0
0.013607 0.0182068 0
0.0148893 0.0171473 0
0.0123248 0.0157875 0
0.0135294 0.0391205 0
0.013607 0.0164674 0
0.0129271 0.027454 0
0.0142094 0.0281339 0
-0.000264988 0 0
0.0163108 0.0103604 0
0.0100954 0 0
0.00802293 0.00518019 0
0.0132031 0.00518019 0
0.00491521 0 0
-0.000264988 0 0
-0.00409655 0 0
0.0163108 0.00383156 0
-0.00218077 0 0
0.00610715 0.00191578 0
0.00802293 0.00191578 0
0.00662181 0.0026021 0
0.0118067 0.0083528 0
0.0123725 0.00773012 0
0.00921427 0.00547745 0
0.0120896 0.00804146 0
0.00949716 0.00516611 0
0.0066228 0.0026021 0
0.0124123 0.00773012 0
-0.000909169 -0.00318738 0
0.00951754 0.00516611 0
0.00575156 0.00227137 0
0.00285681 -0.000292638 0
0.00662181 0.00260013 0
0.00349691 -0.000247536 0
0.0118067 0.00572503 0
0.00505936 0.0011763 0
0.00765182 0.00273875 0
0.00921427 0.00416258 0
0.0066228 0.00260013 0
-0.000909169 -0.000579323 0
0.00344334 -0.000247536 0
0.00285681 0.0010104 0
0.00126709 -0.00041343 0
0.00503307 0.0011763 0
0.00820114 0.0282471 0
0.0134278 0.0179039 0
0.00471147 0.0230205 0
0.0108144 0.0230755 0
0.00906961 0.0204622 0
0.00645631 0.0256338 0
0.00770433 0.0282471 0
0.00939292 0.034984 0
0.0144412 0.0179039 0
0.00854862 0.0316155 0
0.0119171 0.026444 0
0.0110728 0.0230755 0
0.010037 0.0152649 0
0.00596552 0.0217664 0
0.0119953 0.0193364 0
0.00800126 0.0185157 0
0.00898039 0.0205514 0
0.0110161 0.0173007 0
0.010037 0.0152066 0
0.0119953 0.0174193 0
0.0122497 0.00923403 0
0.0110161 0.016313 0
0.0121225 0.0133267 0
0.0111434 0.0122203 0
0.0100078 0.0152649 0
0.00842365 0.0111977 0
0.00594055 0.0217664 0
0.00921573 0.0132313 0
0.0071821 0.0164821 0
0.00797418 0.0185157 0
0.0100078 0.0152066 0
0.0126832 0.00923403 0
0.00842365 0.0125312 0
0.0113455 0.0122203 0
0.0105534 0.0108826 0
0.00921573 0.0138689 0
0.0123147 0.00894988 0
0.0136967 0.0178214 0
0.0117224 0.0075678 0
0.0130057 0.0133856 0
0.0127096 0.0126946 0
0.0120185 0.00825884 0
0.0123349 0.00894988 0
0.012028 0.0090123 0
0.0123973 0.0178214 0
0.0121815 0.00898109 0
0.0122127 0.0134169 0
0.0123661 0.0133856 0
0.0123147 0.00899042 0
0.0117224 0.00730101 0
0.0106252 0.00399606 0
0.0120185 0.00814572 0
0.0111738 0.00564854 0
0.0114699 0.00649324 0
0.0123349 0.00899042 0
0.0116408 0.00399606 0
0.012028 0.00968455 0
0.0119879 0.00649324 0
0.0118344 0.00684031 0
0.0121815 0.00933749 0
0.0122104 0.00480005 0
0.0112104 0.004357 0
0.0117673 0.00225201 0
0.0117104 0.00457852 0
0.0114888 0.0033045 0
0.0119888 0.00352603 0
0.0122104 0.00477888 0
0.0125628 0.0091498 0
0.0112104 0.00442649 0
0.0123866 0.00696434 0
0.0118866 0.00678814 0
0.0117104 0.00460268 0
0.012221 0.00480005 0
0.0122348 0.00225201 0
0.0127108 0.00478621 0
0.0122279 0.00352603 0
0.0124728 0.00351911 0
0.0124659 0.00479313 0
0.012221 0.00477888 0
0.0127108 0.00450498 0
0.0119471 0.0091498 0
0.0124659 0.00464193 0
0.0123289 0.00682739 0
0.012084 0.00696434 0
0.00987672 0.00161744 0
0.0120345 0.00251922 0
0.0107785 0.00392512 0
0.0109556 0.00206833 0
0.0114065 0.00322217 0
0.0103276 0.00277128 0
0.00986409 0.00161744 0
0.0111501 0.00392512 0
0.0069672 0.000331412 0
0.0105071 0.00277128 0
0.00905866 0.00212827 0
0.00841565 0.000974426 0
0.00987672 0.00164269 0
0.0092902 0.000478583 0
0.0120345 0.0022292 0
0.00958346 0.00106064 0
0.0106624 0.00135389 0
0.0109556 0.00193595 0
0.00986409 0.00164269 0
0.0069672 0.000873929 0
0.00909533 0.000478583 0
0.00841565 0.00125831 0
0.00803127 0.000676256 0
0.00947971 0.00106064 0
0.00827825 0.00226671 0
0.0112457 0.00461649 0
0.010628 0.00620666 0
0.00976196 0.0034416 0
0.0109368 0.00541157 0
0.00945313 0.00423669 0
0.00827825 0.00233361 0
0.00678228 0.000516336 0
0.0112457 0.00382958 0
0.00753026 0.00142497 0
0.00901397 0.00217296 0
0.00976196 0.0030816 0
0.0082448 0.00226671 0
0.0113251 0.00620666 0
0.00406297 -0.000813598 0
0.00978495 0.00423669 0
0.00769404 0.00269653 0
0.00615389 0.000726558 0
0.0082448 0.00233361 0
0.00406297 0.000642306 0
0.00655349 0.000516336 0
0.00615389 0.00148796 0
0.00530823 0.000579321 0
0.00739914 0.00142497 0
0.0113554 0.00772681 0
0.0131078 0.00454543 0
0.0107675 0.00597444 0
0.0122316 0.00613612 0
0.0119377 0.00525994 0
0.0110615 0.00685062 0
0.0113618 0.00772681 0
0.0119135 0.00911626 0
0.0127512 0.00454543 0
0.0116377 0.00842153 0
0.0123324 0.00683085 0
0.0120565 0.00613612 0
0.0113554 0.00773956 0
0.0107675 0.00521449 0
0.00883034 0.0118572 0
0.0110615 0.00647702 0
0.00979894 0.00853586 0
0.0100929 0.00979839 0
0.0113618 0.00773956 0
0.00909764 0.0118572 0
0.0119135 0.0100037 0
0.0102297 0.00979839 0
0.0105056 0.0109305 0
0.0116377 0.00887163 0
0.0131253 0.0023337 0
0.0129874 0.00450961 0
0.0120152 0.00247159 0
0.0130563 0.00342166 0
0.0125013 0.0034906 0
0.0125702 0.00240265 0
0.0131303 0.0023337 0
0.0138408 0.00188235 0
0.012679 0.00450961 0
0.0134856 0.00210803 0
0.0132599 0.00319598 0
0.0129047 0.00342166 0
0.0131253 0.00234384 0
0.0120152 0.00240171 0
0.0131831 0.00108828 0
0.0125702 0.00237278 0
0.0125992 0.001745 0
0.0131542 0.00171606 0
0.0131303 0.00234384 0
0.0134206 0.00108828 0
0.0138408 0.00205362 0
0.0132754 0.00171606 0
0.0136307 0.00157095 0
0.0134856 0.00219873 0
0.01277 0.00340432 0
0.0111943 0.00554765 0
0.0126732 0.00498 0
0.0119822 0.00447599 0
0.0119338 0.00526382 0
0.0127216 0.00419216 0
0.01277 0.00340432 0
0.0126732 0.00450384 0
0.0138695 0.0019111 0
0.0127216 0.00395408 0
0.0132714 0.00320747 0
0.0133198 0.00265771 0
0.01277 0.00340432 0
0.0127452 0.0016214 0
0.0109871 0.00554765 0
0.0127576 0.00251286 0
0.0118661 0.00358452 0
0.0118785 0.00447599 0
0.01277 0.00340432 0
0.0140768 0.0019111 0
0.0127452 0.0020975 0
0.0134234 0.00265771 0
0.013411 0.0020043 0
0.0127576 0.00275091 0
0.0037795 0.0156042 0
0.00506525 0.0208911 0
0.0090664 0.0118404 0
0.00442238 0.0182477 0
0.00706583 0.0163658 0
0.00642295 0.0137223 0
0.00385296 0.0156042 0
0.00885407 0.0118404 0
0.00283688 0.0106031 0
0.00635351 0.0137223 0
0.00584547 0.0112218 0
0.00334492 0.0131037 0
0.00762559 0.00793417 0
0.00838672 0.0114136 0
0.011105 0.00555196 0
0.00800615 0.00967389 0
0.00974587 0.00848278 0
0.0093653 0.00674307 0
0.00762559 0.0079531 0
0.00327091 0.0101691 0
0.00838672 0.0123078 0
0.00544825 0.0090611 0
0.00582881 0.0112384 0
0.00800615 0.0101304 0
0.00761613 0.00793417 0
0.0111522 0.00555196 0
0.00700903 0.00439813 0
0.00938415 0.00674307 0
0.0090806 0.00497504 0
0.00731258 0.00616615 0
0.00761613 0.0079531 0
0.00700903 0.00369324 0
0.00335626 0.0101691 0
0.00731258 0.00582317 0
0.00518265 0.00693116 0
0.00548619 0.0090611 0
1.53849e-05 0 0
-0.0002727 0 0
0.00334565 0.000288085 0
-0.000128658 0 0
0.00153647 0.000144042 0
0.00168052 0.000144042 0
1.53849e-05 0 0
0.00334565 -0.000345231 0
-0.000329846 0 0
0.00168052 -0.000172615 0
0.0015079 -0.000172615 0
-0.000157231 0 0
0.00312756 0.000219925 0
0.00336979 0.00026394 0
-0.000250391 -2.23089e-05 0
0.00324868 0.000241932 0
0.0015597 0.000120815 0
0.00143859 9.88078e-05 0
0.0031068 0.000219925 0
0.00683489 0.000797736 0
0.00368461 0.00026394 0
0.00497084 0.00050883 0
0.00525975 0.000530838 0
0.0033957 0.000241932 0
0.00312756 0.000178394 0
-0.000250391 -9.00064e-05 0
0.00285916 -0.000148663 0
0.00143859 4.41938e-05 0
0.00130438 -0.000119335 0
0.00299336 1.48654e-05 0
0.0031068 0.000178394 0
0.00283506 -0.000148663 0
0.00683489 0.000450129 0
0.00297093 1.48654e-05 0
0.00483498 0.000150733 0
0.00497084 0.000314262 0
0.00621737 0.000184428 0
0.0059873 -8.12868e-05 0
0.00928618 0.000414497 0
0.00610233 5.15708e-05 0
0.00763674 0.000166605 0
0.00775177 0.000299463 0
0.00621737 0.000187558 0
0.00928618 0.000669433 0
0.00669924 0.000605968 0
0.00775177 0.000428495 0
0.00799271 0.0006377 0
0.00645831 0.000396763 0
0.00621893 0.000184428 0
0.00295896 -4.89209e-05 0
0.00598558 -8.12868e-05 0
0.00458895 6.77537e-05 0
0.00447227 -6.51039e-05 0
0.00610226 5.15708e-05 0
0.00621893 0.000187558 0
0.00667905 0.000605968 0
0.00295896 -0.00027256 0
0.00644899 0.000396763 0
0.004819 0.000166704 0
0.00458895 -4.25009e-05 0
0.011556 0.000932265 0
0.0120448 0.00221891 0
0.00932536 0.000443425 0
0.0118004 0.00157559 0
0.0106851 0.00133117 0
0.0104407 0.000687845 0
0.011556 0.000943727 0
0.00932536 0.000659208 0
0.0112715 0.000310366 0
0.0104407 0.000801468 0
0.0102984 0.000484787 0
0.0114137 0.000627046 0
0.0115617 0.000932265 0
0.0132978 0.00120296 0
0.0118324 0.00221891 0
0.0124298 0.00106761 0
0.0125651 0.00171094 0
0.0116971 0.00157559 0
0.0115617 0.000943727 0
0.0114036 0.000310366 0
0.0132978 0.0011018 0
0.0114827 0.000627046 0
0.0123507 0.000706083 0
0.0124298 0.00102276 0
0.00888842 0.000149253 0
0.0092024 0.00049828 0
0.00607074 -0.000164729 0
0.00904541 0.000323766 0
0.00763657 0.000166775 0
0.00747958 -7.73807e-06 0
0.00888905 0.000149253 0
0.0113857 0.000424636 0
0.00916443 0.00049828 0
0.0101374 0.000286945 0
0.0102751 0.000461458 0
0.00902674 0.000323766 0
0.00888842 0.00015052 0
0.00607074 -6.52176e-06 0
0.00873138 4.20298e-06 0
0.00747958 7.1999e-05 0
0.00740106 -1.15939e-06 0
0.0088099 7.73614e-05 0
0.00888905 0.00015052 0
0.00876047 4.20298e-06 0
0.0113857 0.000279096 0
0.00882476 7.73614e-05 0
0.0100731 0.00014165 0
0.0101374 0.000214808 0
1.00054e-05 0 0
0.00283743 -0.00017039 0
-0.000160385 0 0
0.00142372 -8.5195e-05 0
0.00133852 -8.5195e-05 0
-7.51896e-05 0 0
1.00054e-05 0 0
1.71907e-06 0 0
0.00283743 8.28637e-06 0
5.86226e-06 0 0
0.00141958 4.14318e-06 0
0.00142372 4.14318e-06 0
0.00296769 -2.73406e-05 0
0.00602176 -4.51077e-05 0
0.00294992 -5.79555e-05 0
0.00449473 -3.62241e-05 0
0.00448584 -5.15316e-05 0
0.00295881 -4.2648e-05 0
0.00297105 -2.73406e-05 0
0.00290368 -5.79555e-05 0
-3.83102e-05 4.00293e-05 0
0.00293736 -4.2648e-05 0
0.00143268 -8.96308e-06 0
0.00146637 6.34436e-06 0
0.00296769 -3.4052e-05 0
0.00300134 -4.44086e-05 0
0.00602176 -6.7698e-05 0
0.00298451 -3.92303e-05 0
0.00451155 -5.60533e-05 0
0.00449473 -5.0875e-05 0
0.00297105 -3.4052e-05 0
-3.83102e-05 -4.49493e-06 0
0.0030006 -4.44086e-05 0
0.00146637 -1.92735e-05 0
0.00148115 -2.44518e-05 0
0.00298582 -3.92303e-05 0
0.00255014 0.0050012 0
0.0072741 0.00401545 0
0.00238153 0.000277235 0
0.00491212 0.00450832 0
0.00482782 0.00214634 0
0.00246583 0.00263922 0
0.00253556 0.0050012 0
0.00298405 0.00979688 0
0.00733124 0.00401545 0
0.0027598 0.00739904 0
0.00515764 0.00690616 0
0.0049334 0.00450832 0
0.0069452 0 0
0.00265877 0 0
0.00700311 0.00428643 0
0.00480198 0 0
0.00483094 0.00214322 0
0.00697416 0.00214322 0
0.0069452 0 0
0.00700311 0.00368231 0
0.0106275 0 0
0.00697416 0.00184115 0
0.00881531 0.00184115 0
0.00878635 0 0
0.0069452 0 0
0.00700311 -0.00428643 0
0.00265877 0 0
0.00697416 -0.00214322 0
0.00483094 -0.00214322 0
0.00480198 0 0
0.0069452 0 0
0.0106275 0 0
0.00700311 -0.00368231 0
0.00878635 0 0
0.00881531 -0.00184115 0
0.00697416 -0.00184115 0
0.0105002 0.00284767 0
0.00738691 0.00402025 0
0.0107432 0.00596094 0
0.00894354 0.00343396 0
0.00906505 0.00499059 0
0.0106217 0.00440431 0
0.010498 0.00284767 0
0.0103182 -0.00030931 0
0.00734105 0.00402025 0
0.0104081 0.00126918 0
0.00882963 0.00185547 0
0.00891955 0.00343396 0
0.0105002 0.0028434 0
0.0107432 0.00530376 0
0.0129605 0.00183671 0
0.0106217 0.00407358 0
0.0118519 0.00357024 0
0.0117303 0.00234006 0
0.010498 0.0028434 0
0.0130363 0.00183671 0
0.0103182 0.000305164 0
0.0117672 0.00234006 0
0.0116772 0.00107094 0
0.0104081 0.00157428 0
0.0127608 0 0
0.0127355 0.00164998 0
0.0144108 0 0
0.0127482 0.000824988 0
0.0135732 0.000824988 0
0.0135858 0 0
0.0127608 0 0
0.0106234 0 0
0.0127355 0.00213748 0
0.0116921 0 0
0.0116794 0.00106874 0
0.0127482 0.00106874 0
0.0127608 0 0
0.0144108 0 0
0.0127355 -0.00164998 0
0.0135858 0 0
0.0135732 -0.000824988 0
0.0127482 -0.000824988 0
0.0127608 0 0
0.0127355 -0.00213748 0
0.0106234 0 0
0.0127482 -0.00106874 0
0.0116794 -0.00106874 0
0.0116921 0 0
0.0141329 0.00104333 0
0.0142376 -0.000173261 0
0.0129163 0.00183072 0
0.0141852 0.000435035 0
0.0135769 0.000828729 0
0.0135246 0.00143702 0
0.0141321 0.00104333 0
0.013012 0.00183072 0
0.0138245 0.00216339 0
0.013572 0.00143702 0
0.0134183 0.00199705 0
0.0139783 0.00160336 0
0.0141329 0.00104492 0
0.0150382 0.000547898 0
0.0142376 0.000139573 0
0.0145855 0.000796411 0
0.0146379 0.000343736 0
0.0141852 0.000592248 0
0.0141321 0.00104492 0
0.0138245 0.00186649 0
0.0149536 0.000547898 0
0.0139783 0.00145571 0
0.0143891 0.00120719 0
0.0145428 0.000796411 0
0.0105002 -0.00284767 0
0.0107432 -0.00596094 0
0.00738691 -0.00402025 0
0.0106217 -0.00440431 0
0.00906505 -0.00499059 0
0.00894354 -0.00343396 0
0.010498 -0.00284767 0
0.00734105 -0.00402025 0
0.0103182 0.00030931 0
0.00891955 -0.00343396 0
0.00882963 -0.00185547 0
0.0104081 -0.00126918 0
0.0105002 -0.0028434 0
0.0129605 -0.00183671 0
0.0107432 -0.00530376 0
0.0117303 -0.00234006 0
0.0118519 -0.00357024 0
0.0106217 -0.00407358 0
0.010498 -0.0028434 0
0.0103182 -0.000305164 0
0.0130363 -0.00183671 0
0.0104081 -0.00157428 0
0.0116772 -0.00107094 0
0.0117672 -0.00234006 0
0.00255014 -0.0050012 0
0.00238153 -0.000277235 0
0.0072741 -0.00401545 0
0.00246583 -0.00263922 0
0.00482782 -0.00214634 0
0.00491212 -0.00450832 0
0.00253556 -0.0050012 0
0.00733124 -0.00401545 0
0.00298405 -0.00979688 0
0.0049334 -0.00450832 0
0.00515764 -0.00690616 0
0.0027598 -0.00739904 0
0.00761613 -0.00793417 0
0.00700903 -0.00439813 0
0.0111522 -0.00555196 0
0.00731258 -0.00616615 0
0.0090806 -0.00497504 0
0.00938415 -0.00674307 0
0.00761613 -0.0079531 0
0.00335626 -0.0101691 0
0.00700903 -0.00369324 0
0.00548619 -0.0090611 0
0.00518265 -0.00693116 0
0.00731258 -0.00582317 0
0.00762559 -0.00793417 0
0.011105 -0.00555196 0
0.00838672 -0.0114136 0
0.0093653 -0.00674307 0
0.00974587 -0.00848278 0
0.00800615 -0.00967389 0
0.00762559 -0.0079531 0
0.00838672 -0.0123078 0
0.00327091 -0.0101691 0
0.00800615 -0.0101304 0
0.00582881 -0.0112384 0
0.00544825 -0.0090611 0
0.0141329 -0.00104333 0
0.0129163 -0.00183072 0
0.0142376 0.00017326 0
0.0135246 -0.00143702 0
0.0135769 -0.000828729 0
0.0141852 -0.000435035 0
0.0141321 -0.00104333 0
0.0138245 -0.00216339 0
0.013012 -0.00183072 0
0.0139783 -0.00160336 0
0.0134183 -0.00199705 0
0.013572 -0.00143702 0
0.0141329 -0.00104492 0
0.0142376 -0.000139573 0
0.0150382 -0.000547898 0
0.0141852 -0.000592248 0
0.0146379 -0.000343736 0
0.0145855 -0.000796411 0
0.0141321 -0.00104492 0
0.0149536 -0.000547898 0
0.0138245 -0.00186649 0
0.0145428 -0.000796411 0
0.0143891 -0.00120719 0
0.0139783 -0.00145571 0
0.01277 -0.00340432 0
0.0109871 -0.00554765 0
0.0127452 -0.0016214 0
0.0118785 -0.00447599 0
0.0118661 -0.00358452 0
0.0127576 -0.00251286 0
0.01277 -0.00340432 0
0.0127452 -0.0020975 0
0.0140768 -0.0019111 0
0.0127576 -0.00275091 0
0.013411 -0.0020043 0
0.0134234 -0.00265771 0
0.01277 -0.00340432 0
0.0126732 -0.00498 0
0.0111943 -0.00554765 0
0.0127216 -0.00419216 0
0.0119338 -0.00526382 0
0.0119822 -0.00447599 0
0.01277 -0.00340432 0
0.0138695 -0.0019111 0
0.0126732 -0.00450384 0
0.0133198 -0.00265771 0
0.0132714 -0.00320747 0
0.0127216 -0.00395408 0
0.0142795 0.000943392 0
0.0132921 0.001157 0
0.0144931 0.000431638 0
0.0137858 0.00105019 0
0.0138926 0.000794317 0
0.0143863 0.000687515 0
0.0142795 0.000938147 0
0.014001 0.00189344 0
0.0132921 0.0012167 0
0.0141402 0.00141579 0
0.0136465 0.00155507 0
0.0137858 0.00107743 0
0.0142821 0.000943392 0
0.0146059 0.000431638 0
0.0149132 0.000619648 0
0.014444 0.000687515 0
0.0147596 0.000525643 0
0.0145977 0.00078152 0
0.0142821 0.000938147 0
0.0149132 0.000507485 0
0.0138515 0.00189344 0
0.0145977 0.000722816 0
0.0143823 0.00120046 0
0.0140668 0.00141579 0
0.0131834 0.000457101 0
0.0145448 0.0004833 0
0.0132096 0.00107447 0
0.0138641 0.000470201 0
0.0138772 0.000778885 0
0.0131965 0.000765785 0
0.0131808 0.000457101 0
0.0133252 0.00107447 0
0.0114013 0.000312714 0
0.013253 0.000765785 0
0.0123632 0.000693592 0
0.012291 0.000384908 0
0.0131834 0.000462361 0
0.0132081 0.000199941 0
0.0145448 0.000437668 0
0.0131957 0.000331151 0
0.0138764 0.000318805 0
0.0138641 0.000450015 0
0.0131808 0.000462361 0
0.0114013 0.000410948 0
0.0131294 0.000199941 0
0.012291 0.000436655 0
0.0122653 0.000305445 0
0.0131551 0.000331151 0
0.0150543 0 0
0.0143771 0 0
0.0149089 0.000677216 0
0.0147157 0 0
0.014643 0.000338608 0
0.0149816 0.000338608 0
0.0150543 0 0
0.0149089 0.000512149 0
0.0155665 0 0
0.0149816 0.000256075 0
0.0152377 0.000256075 0
0.0153104 0 0
0.0150543 0 0
0.0149089 -0.000677216 0
0.0143771 0 0
0.0149816 -0.000338608 0
0.014643 -0.000338608 0
0.0147157 0 0
0.0150543 0 0
0.0155665 0 0
0.0149089 -0.000512149 0
0.0153104 0 0
0.0152377 -0.000256075 0
0.0149816 -0.000256075 0
0.0152268 0.000257072 0
0.014991 0.000541849 0
0.0145446 0.000492884 0
0.0151089 0.00039946 0
0.0147678 0.000517366 0
0.0148857 0.000374978 0
0.0152278 0.000257072 0
0.0155343 -3.21586e-05 0
0.0149386 0.000541849 0
0.0153811 0.000112457 0
0.0152365 0.000254845 0
0.0150832 0.00039946 0
0.0152268 0.000259064 0
0.0145446 0.000470322 0
0.0154381 0.000128844 0
0.0148857 0.000364693 0
0.0149914 0.000299583 0
0.0153324 0.000193954 0
0.0152278 0.000259064 0
0.0154766 0.000128844 0
0.0155343 1.0318e-05 0
0.0153522 0.000193954 0
0.0155054 6.95812e-05 0
0.0153811 0.000134691 0
0.0156786 0 0
0.0154715 0.000163545 0
0.0158421 0 0
0.015575 8.17723e-05 0
0.0156568 8.17723e-05 0
0.0157603 0 0
0.0156786 0 0
0.0155447 0 0
0.0154715 0.000133913 0
0.0156116 0 0
0.0155081 6.69566e-05 0
0.015575 6.69566e-05 0
0.0156786 0 0
0.0158421 0 0
0.0154715 -0.000163545 0
0.0157603 0 0
0.0156568 -8.17723e-05 0
0.015575 -8.17723e-05 0
0.0156786 0 0
0.0154715 -0.000133913 0
0.0155447 0 0
0.015575 -6.69566e-05 0
0.0155081 -6.69566e-05 0
0.0156116 0 0
0.015491 8.79604e-05 0
0.0158755 3.33928e-05 0
0.0154364 0.000128447 0
0.0156832 6.06766e-05 0
0.0156559 8.09202e-05 0
0.0154637 0.000108204 0
0.0154905 8.79604e-05 0
0.0154527 0.000128447 0
0.0146689 0.000125807 0
0.0154716 0.000108204 0
0.0150608 0.000127127 0
0.0150797 0.000106884 0
0.015491 8.88043e-05 0
0.0156176 9.13494e-05 0
0.0158755 -3.78714e-05 0
0.0155543 9.00769e-05 0
0.0157466 2.6739e-05 0
0.0156832 2.54665e-05 0
0.0154905 8.88043e-05 0
0.0146689 0.000205511 0
0.0156072 9.13494e-05 0
0.0150797 0.000147157 0
0.0151381 0.00014843 0
0.0155489 9.00769e-05 0
0.0145473 0.000206461 0
0.0154697 0.000160474 0
0.0145013 0.000426956 0
0.0150085 0.000183468 0
0.0149855 0.000293715 0
0.0145243 0.000316709 0
0.0145473 0.00020879 0
0.0146446 0.000150115 0
0.0154697 0.000111434 0
0.0145959 0.000179452 0
0.0150572 0.000130774 0
0.0150085 0.000160112 0
0.0145461 0.000206461 0
0.0145555 0.000426956 0
0.013211 0.000197063 0
0.0145508 0.000316709 0
0.0138832 0.000312009 0
0.0138785 0.000201762 0
0.0145461 0.00020879 0
0.013211 0.000269388 0
0.0146067 0.000150115 0
0.0138785 0.000239089 0
0.0139088 0.000209751 0
0.0145764 0.000179452 0
0.0152268 -0.000259064 0
0.0154381 -0.000128844 0
0.0145446 -0.000470322 0
0.0153324 -0.000193954 0
0.0149914 -0.000299583 0
0.0148857 -0.000364693 0
0.0152278 -0.000259064 0
0.0155343 -1.0318e-05 0
0.0154766 -0.000128844 0
0.0153811 -0.000134691 0
0.0155054 -6.95812e-05 0
0.0153522 -0.000193954 0
0.0152268 -0.000257072 0
0.0145446 -0.000492884 0
0.014991 -0.000541849 0
0.0148857 -0.000374978 0
0.0147678 -0.000517366 0
0.0151089 -0.00039946 0
0.0152278 -0.000257072 0
0.0149386 -0.000541849 0
0.0155343 3.21585e-05 0
0.0150832 -0.00039946 0
0.0152365 -0.000254845 0
0.0153811 -0.000112457 0
0.015491 -8.79604e-05 0
0.0154364 -0.000128448 0
0.0158755 -3.33928e-05 0
0.0154637 -0.000108204 0
0.0156559 -8.09202e-05 0
0.0156832 -6.06766e-05 0
0.0154905 -8.79604e-05 0
0.0146689 -0.000125807 0
0.0154527 -0.000128448 0
0.0150797 -0.000106884 0
0.0150608 -0.000127127 0
0.0154716 -0.000108204 0
0.015491 -8.88043e-05 0
0.0158755 3.78714e-05 0
0.0156176 -9.13494e-05 0
0.0156832 -2.54665e-05 0
0.0157466 -2.6739e-05 0
0.0155543 -9.00769e-05 0
0.0154905 -8.88043e-05 0
0.0156072 -9.13494e-05 0
0.0146689 -0.000205511 0
0.0155489 -9.00769e-05 0
0.0151381 -0.00014843 0
0.0150797 -0.000147157 0
0.0145473 -0.000206461 0
0.0145013 -0.000426956 0
0.0154697 -0.000160474 0
0.0145243 -0.000316709 0
0.0149855 -0.000293715 0
0.0150085 -0.000183468 0
0.0145473 -0.00020879 0
0.0154697 -0.000111434 0
0.0146446 -0.000150115 0
0.0150085 -0.000160112 0
0.0150572 -0.000130774 0
0.0145959 -0.000179452 0
0.0145461 -0.000206461 0
0.013211 -0.000197063 0
0.0145555 -0.000426956 0
0.0138785 -0.000201762 0
0.0138832 -0.000312009 0
0.0145508 -0.000316709 0
0.0145461 -0.00020879 0
0.0146067 -0.000150115 0
0.013211 -0.000269388 0
0.0145764 -0.000179452 0
0.0139088 -0.000209751 0
0.0138785 -0.000239089 0
0.0142821 -0.000943392 0
0.0149132 -0.000619648 0
0.0146059 -0.000431638 0
0.0145977 -0.00078152 0
0.0147596 -0.000525643 0
0.014444 -0.000687515 0
0.0142821 -0.000938147 0
0.0138515 -0.00189344 0
0.0149132 -0.000507485 0
0.0140668 -0.00141579 0
0.0143823 -0.00120046 0
0.0145977 -0.000722816 0
0.0142795 -0.000943392 0
0.0144931 -0.000431638 0
0.0132921 -0.001157 0
0.0143863 -0.000687515 0
0.0138926 -0.000794317 0
0.0137858 -0.00105019 0
0.0142795 -0.000938147 0
0.0132921 -0.0012167 0
0.014001 -0.00189344 0
0.0137858 -0.00107743 0
0.0136465 -0.00155507 0
0.0141402 -0.00141579 0
0.0131057 0.000165253 0
0.0131742 0.000203877 0
0.0111681 9.67366e-05 0
0.01314 0.000184565 0
0.0121712 0.000150307 0
0.0121369 0.000130995 0
0.0131062 0.000165253 0
0.0146611 0.000204541 0
0.0131455 0.000203877 0
0.0138837 0.000184897 0
0.0139033 0.000204209 0
0.0131258 0.000184565 0
0.0131057 0.000166207 0
0.0111681 0.000192223 0
0.0131317 0.000215062 0
0.0121369 0.000179215 0
0.0121499 0.000203643 0
0.0131187 0.000190635 0
0.0131062 0.000166207 0
0.0131538 0.000215062 0
0.0146611 0.000118593 0
0.01313 0.000190635 0
0.0139075 0.000166828 0
0.0138837 0.0001424 0
0.0111743 0.00014071 0
0.0111375 0.000127394 0
0.0132005 0.000177561 0
0.0111559 0.000134052 0
0.012169 0.000152478 0
0.0121874 0.000159136 0
0.0111743 0.000139333 0
0.0132005 0.000271111 0
0.0113061 0.000315741 0
0.0121874 0.000205222 0
0.0122533 0.000293426 0
0.0112402 0.000227537 0
0.0111736 0.00014071 0
0.00880082 7.11833e-05 0
0.0111041 0.000127394 0
0.00998722 0.000105947 0
0.00995245 9.92888e-05 0
0.0111389 0.000134052 0
0.0111736 0.000139333 0
0.0113491 0.000315741 0
0.00880082 -3.6141e-05 0
0.0112614 0.000227537 0
0.010075 0.0001398 0
0.00998722 5.15959e-05 0
0.0146392 0.000162073 0
0.0147494 0.000174223 0
0.0156549 5.18429e-05 0
0.0146943 0.000168148 0
0.0152021 0.000113033 0
0.015147 0.000106958 0
0.0146392 0.000161036 0
0.0156549 0.000138957 0
0.0146171 0.000153657 0
0.015147 0.000149996 0
0.015136 0.000146307 0
0.0146281 0.000157346 0
0.0146386 0.000162073 0
0.0131952 0.000271093 0
0.0147477 0.000174223 0
0.0139169 0.000216583 0
0.0139714 0.000222658 0
0.0146931 0.000168148 0
0.0146386 0.000161036 0
0.0146261 0.000153657 0
0.0131952 0.00017361 0
0.0146324 0.000157346 0
0.0139107 0.000163633 0
0.0139169 0.000167323 0
0.0158875 0 0
0.0158376 0 0
0.0156591 4.99032e-05 0
0.0158626 0 0
0.0157484 2.49516e-05 0
0.0157733 2.49516e-05 0
0.0158875 0 0
0.0156591 0.000133254 0
0.0160208 0 0
0.0157733 6.6627e-05 0
0.0158399 6.6627e-05 0
0.0159542 0 0
0.0158875 0 0
0.0156591 -4.99032e-05 0
0.0158376 0 0
0.0157733 -2.49516e-05 0
0.0157484 -2.49516e-05 0
0.0158626 0 0
0.0158875 0 0
0.0160208 0 0
0.0156591 -0.000133254 0
0.0159542 0 0
0.0158399 -6.6627e-05 0
0.0157733 -6.6627e-05 0
0.0156582 7.97513e-05 0
0.0156135 9.32331e-05 0
0.0147991 0.000124484 0
0.0156358 8.64922e-05 0
0.0152063 0.000108859 0
0.0152287 0.000102118 0
0.0156587 7.97513e-05 0
0.0160609 4.01343e-05 0
0.0156191 9.32331e-05 0
0.0158598 5.99428e-05 0
0.01584 6.66837e-05 0
0.0156389 8.64922e-05 0
0.0156582 8.0717e-05 0
0.0147991 0.000200784 0
0.0157783 2.43572e-05 0
0.0152287 0.000140751 0
0.0152887 0.000112571 0
0.0157182 5.25371e-05 0
0.0156587 8.0717e-05 0
0.0157659 2.43572e-05 0
0.0160609 -2.65085e-05 0
0.0157123 5.25371e-05 0
0.0159134 -1.07562e-06 0
0.0158598 2.71042e-05 0
0.0110697 0.00021783 0
0.01318 0.00026336 0
0.0111152 0.000139311 0
0.0121248 0.000240595 0
0.0121476 0.000201336 0
0.0110924 0.000178571 0
0.0110697 0.00021726 0
0.0111033 0.000310651 0
0.01318 0.000183617 0
0.0110865 0.000263956 0
0.0121417 0.000247134 0
0.0121248 0.000200438 0
0.01107 0.00021783 0
0.0111232 0.000139311 0
0.00865412 0.000164581 0
0.0110966 0.000178571 0
0.00988866 0.000151946 0
0.00986204 0.000191206 0
0.01107 0.00021726 0
0.00865412 0.000238619 0
0.0110913 0.000310651 0
0.00986204 0.000227939 0
0.00987272 0.000274635 0
0.0110806 0.000263956 0
0.0131678 0.000236269 0
0.0147899 0.000216417 0
0.0131479 0.000223776 0
0.0139788 0.000226343 0
0.0139689 0.000220097 0
0.0131578 0.000230022 0
0.013167 0.000236269 0
0.0131398 0.000223776 0
0.0111505 0.000263436 0
0.0131534 0.000230022 0
0.0121452 0.000243606 0
0.0121588 0.000249853 0
0.0131678 0.000237781 0
0.0132752 0.000166509 0
0.0147899 0.000130395 0
0.0132215 0.000202145 0
0.0140325 0.000148452 0
0.0139788 0.000184088 0
0.013167 0.000237781 0
0.0111505 0.00036458 0
0.0132938 0.000166509 0
0.0121588 0.00030118 0
0.0122222 0.000265544 0
0.0132304 0.000202145 0
0.00866281 8.43128e-05 0
0.0111486 0.000171869 0
0.00875036 2.07272e-05 0
0.00990569 0.000128091 0
0.00994946 9.62983e-05 0
0.00870658 5.252e-05 0
0.00866373 8.43128e-05 0
0.00875149 2.07272e-05 0
0.00595649 -3.44639e-06 0
0.00870761 5.252e-05 0
0.00735399 8.64043e-06 0
0.00731011 4.04332e-05 0
0.00866281 8.24669e-05 0
0.00863132 0.000187381 0
0.0111486 0.000113953 0
0.00864706 0.000134924 0
0.00988994 0.000150667 0
0.00990569 9.82098e-05 0
0.00866373 8.24669e-05 0
0.00595649 3.60107e-05 0
0.00861727 0.000187381 0
0.00731011 5.92388e-05 0
0.00728688 0.000111696 0
0.0086405 0.000134924 0
0.00596008 -1.99868e-05 0
0.00877376 4.65919e-05 0
0.00602665 -5.06089e-05 0
0.00736692 1.33026e-05 0
0.00740021 -2.00849e-06 0
0.00599337 -3.52978e-05 0
0.00596008 -2.29047e-05 0
0.00593872 1.43221e-05 0
0.00877376 -1.54967e-06 0
0.0059494 -4.29129e-06 0
0.00735624 6.38621e-06 0
0.00736692 -1.22272e-05 0
0.00596153 -1.99868e-05 0
0.00600467 -5.06089e-05 0
0.00302005 -6.31254e-05 0
0.0059831 -3.52978e-05 0
0.00451236 -5.68671e-05 0
0.00449079 -4.15561e-05 0
0.00596153 -2.29047e-05 0
0.00302005 -4.41627e-05 0
0.00594028 1.43221e-05 0
0.00449079 -3.35337e-05 0
0.00448016 -1.49203e-05 0
0.00595091 -4.29129e-06 0
0.0131253 -0.00234384 0
0.0131831 -0.00108828 0
0.0120152 -0.00240171 0
0.0131542 -0.00171606 0
0.0125992 -0.001745 0
0.0125702 -0.00237278 0
0.0131303 -0.00234384 0
0.0138408 -0.00205362 0
0.0134206 -0.00108828 0
0.0134856 -0.00219873 0
0.0136307 -0.00157095 0
0.0132754 -0.00171606 0
0.0131253 -0.0023337 0
0.0120152 -0.00247159 0
0.0129874 -0.00450961 0
0.0125702 -0.00240265 0
0.0125013 -0.0034906 0
0.0130563 -0.00342166 0
0.0131303 -0.0023337 0
0.012679 -0.00450961 0
0.0138408 -0.00188235 0
0.0129047 -0.00342166 0
0.0132599 -0.00319598 0
0.0134856 -0.00210803 0
0.0115617 -0.000932265 0
0.0118324 -0.00221891 0
0.0132978 -0.00120296 0
0.0116971 -0.00157559 0
0.0125651 -0.00171094 0
0.0124298 -0.00106761 0
0.0115617 -0.000943727 0
0.0132978 -0.0011018 0
0.0114036 -0.000310366 0
0.0124298 -0.00102276 0
0.0123507 -0.000706083 0
0.0114827 -0.000627046 0
0.011556 -0.000932265 0
0.00932536 -0.000443425 0
0.0120448 -0.00221891 0
0.0104407 -0.000687845 0
0.0106851 -0.00133117 0
0.0118004 -0.00157559 0
0.011556 -0.000943727 0
0.0112715 -0.000310366 0
0.00932536 -0.000659208 0
0.0114137 -0.000627046 0
0.0102984 -0.000484787 0
0.0104407 -0.000801468 0
0.0131834 -0.000457101 0
0.0132096 -0.00107447 0
0.0145448 -0.0004833 0
0.0131965 -0.000765785 0
0.0138772 -0.000778885 0
0.0138641 -0.000470201 0
0.0131808 -0.000457101 0
0.0114013 -0.000312714 0
0.0133252 -0.00107447 0
0.012291 -0.000384908 0
0.0123632 -0.000693592 0
0.013253 -0.000765785 0
0.0131834 -0.000462361 0
0.0145448 -0.000437668 0
0.0132081 -0.000199941 0
0.0138641 -0.000450015 0
0.0138764 -0.000318805 0
0.0131957 -0.000331151 0
0.0131808 -0.000462361 0
0.0131294 -0.000199941 0
0.0114013 -0.000410948 0
0.0131551 -0.000331151 0
0.0122653 -0.000305445 0
0.012291 -0.000436655 0
0.012221 -0.00480005 0
0.0127108 -0.00478621 0
0.0122348 -0.00225201 0
0.0124659 -0.00479313 0
0.0124728 -0.00351911 0
0.0122279 -0.00352603 0
0.012221 -0.00477888 0
0.0119471 -0.0091498 0
0.0127108 -0.00450498 0
0.012084 -0.00696434 0
0.0123289 -0.00682739 0
0.0124659 -0.00464193 0
0.0122104 -0.00480005 0
0.0117673 -0.00225201 0
0.0112104 -0.004357 0
0.0119888 -0.00352603 0
0.0114888 -0.0033045 0
0.0117104 -0.00457852 0
0.0122104 -0.00477888 0
0.0112104 -0.00442649 0
0.0125628 -0.0091498 0
0.0117104 -0.00460268 0
0.0118866 -0.00678814 0
0.0123866 -0.00696434 0
0.0113554 -0.00772681 0
0.0107675 -0.00597444 0
0.0131078 -0.00454543 0
0.0110615 -0.00685062 0
0.0119377 -0.00525994 0
0.0122316 -0.00613612 0
0.0113618 -0.00772681 0
0.0127512 -0.00454543 0
0.0119135 -0.00911626 0
0.0120565 -0.00613612 0
0.0123324 -0.00683085 0
0.0116377 -0.00842153 0
0.0113554 -0.00773956 0
0.00883034 -0.0118572 0
0.0107675 -0.00521449 0
0.0100929 -0.00979839 0
0.00979894 -0.00853586 0
0.0110615 -0.00647702 0
0.0113618 -0.00773956 0
0.0119135 -0.0100037 0
0.00909764 -0.0118572 0
0.0116377 -0.00887163 0
0.0105056 -0.0109305 0
0.0102297 -0.00979839 0
0.0131057 -0.000165253 0
0.0111681 -9.67366e-05 0
0.0131742 -0.000203877 0
0.0121369 -0.000130995 0
0.0121712 -0.000150307 0
0.01314 -0.000184565 0
0.0131062 -0.000165253 0
0.0131455 -0.000203877 0
0.0146611 -0.000204541 0
0.0131258 -0.000184565 0
0.0139033 -0.000204209 0
0.0138837 -0.000184897 0
0.0131057 -0.000166207 0
0.0131317 -0.000215062 0
0.0111681 -0.000192223 0
0.0131187 -0.000190635 0
0.0121499 -0.000203643 0
0.0121369 -0.000179215 0
0.0131062 -0.000166207 0
0.0146611 -0.000118593 0
0.0131538 -0.000215062 0
0.0138837 -0.0001424 0
0.0139075 -0.000166828 0
0.01313 -0.000190635 0
0.0111743 -0.00014071 0
0.0132005 -0.000177561 0
0.0111375 -0.000127394 0
0.0121874 -0.000159136 0
0.012169 -0.000152478 0
0.0111559 -0.000134052 0
0.0111743 -0.000139333 0
0.0113061 -0.000315741 0
0.0132005 -0.000271111 0
0.0112402 -0.000227537 0
0.0122533 -0.000293426 0
0.0121874 -0.000205222 0
0.0111736 -0.00014071 0
0.0111041 -0.000127394 0
0.00880082 -7.11833e-05 0
0.0111389 -0.000134052 0
0.00995245 -9.92888e-05 0
0.00998722 -0.000105947 0
0.0111736 -0.000139333 0
0.00880082 3.6141e-05 0
0.0113491 -0.000315741 0
0.00998722 -5.15959e-05 0
0.010075 -0.0001398 0
0.0112614 -0.000227537 0
0.0146392 -0.000162073 0
0.0156549 -5.18429e-05 0
0.0147494 -0.000174223 0
0.015147 -0.000106958 0
0.0152021 -0.000113033 0
0.0146943 -0.000168148 0
0.0146392 -0.000161036 0
0.0146171 -0.000153657 0
0.0156549 -0.000138957 0
0.0146281 -0.000157346 0
0.015136 -0.000146307 0
0.015147 -0.000149997 0
0.0146386 -0.000162073 0
0.0147477 -0.000174223 0
0.0131952 -0.000271093 0
0.0146931 -0.000168148 0
0.0139714 -0.000222658 0
0.0139169 -0.000216583 0
0.0146386 -0.000161036 0
0.0131952 -0.00017361 0
0.0146261 -0.000153657 0
0.0139169 -0.000167323 0
0.0139107 -0.000163633 0
0.0146324 -0.000157346 0
0.0156582 -7.97513e-05 0
0.0147991 -0.000124484 0
0.0156135 -9.32331e-05 0
0.0152287 -0.000102118 0
0.0152063 -0.000108859 0
0.0156358 -8.64922e-05 0
0.0156587 -7.97513e-05 0
0.0156191 -9.32331e-05 0
0.0160609 -4.01343e-05 0
0.0156389 -8.64922e-05 0
0.01584 -6.66837e-05 0
0.0158598 -5.99428e-05 0
0.0156582 -8.0717e-05 0
0.0157783 -2.43572e-05 0
0.0147991 -0.000200784 0
0.0157182 -5.25371e-05 0
0.0152887 -0.000112571 0
0.0152287 -0.000140751 0
0.0156587 -8.0717e-05 0
0.0160609 2.65085e-05 0
0.0157659 -2.43572e-05 0
0.0158598 -2.71042e-05 0
0.0159134 1.07562e-06 0
0.0157123 -5.25371e-05 0
0.0110697 -0.00021783 0
0.0111152 -0.000139311 0
0.01318 -0.00026336 0
0.0110924 -0.000178571 0
0.0121476 -0.000201336 0
0.0121248 -0.000240595 0
0.0110697 -0.00021726 0
0.01318 -0.000183617 0
0.0111033 -0.000310651 0
0.0121248 -0.000200438 0
0.0121417 -0.000247134 0
0.0110865 -0.000263956 0
0.01107 -0.00021783 0
0.00865412 -0.000164581 0
0.0111232 -0.000139311 0
0.00986204 -0.000191206 0
0.00988866 -0.000151946 0
0.0110966 -0.000178571 0
0.01107 -0.00021726 0
0.0110913 -0.000310651 0
0.00865412 -0.000238619 0
0.0110806 -0.000263956 0
0.00987272 -0.000274635 0
0.00986204 -0.000227939 0
0.0131678 -0.000236269 0
0.0131479 -0.000223776 0
0.0147899 -0.000216417 0
0.0131578 -0.000230022 0
0.0139689 -0.000220097 0
0.0139788 -0.000226343 0
0.013167 -0.000236269 0
0.0111505 -0.000263436 0
0.0131398 -0.000223776 0
0.0121588 -0.000249853 0
0.0121452 -0.000243606 0
0.0131534 -0.000230022 0
0.0131678 -0.000237781 0
0.0147899 -0.000130395 0
0.0132752 -0.000166509 0
0.0139788 -0.000184088 0
0.0140325 -0.000148452 0
0.0132215 -0.000202145 0
0.013167 -0.000237781 0
0.0132938 -0.000166509 0
0.0111505 -0.00036458 0
0.0132304 -0.000202145 0
0.0122222 -0.000265544 0
0.0121588 -0.00030118 0
0.00888842 -0.000149253 0
0.00607074 0.000164729 0
0.0092024 -0.00049828 0
0.00747958 7.73807e-06 0
0.00763657 -0.000166775 0
0.00904541 -0.000323766 0
0.00888905 -0.000149253 0
0.00916443 -0.00049828 0
0.0113857 -0.000424636 0
0.00902674 -0.000323766 0
0.0102751 -0.000461458 0
0.0101374 -0.000286945 0
0.00888842 -0.00015052 0
0.00873138 -4.20298e-06 0
0.00607074 6.52176e-06 0
0.0088099 -7.73614e-05 0
0.00740106 1.15939e-06 0
0.00747958 -7.1999e-05 0
0.00888905 -0.00015052 0
0.0113857 -0.000279096 0
0.00876047 -4.20298e-06 0
0.0101374 -0.000214808 0
0.0100731 -0.00014165 0
0.00882476 -7.73614e-05 0
0.00987672 -0.00164269 0
0.0120345 -0.0022292 0
0.0092902 -0.000478583 0
0.0109556 -0.00193595 0
0.0106624 -0.00135389 0
0.00958346 -0.00106064 0
0.00986409 -0.00164269 0
0.00909533 -0.000478583 0
0.0069672 -0.000873929 0
0.00947971 -0.00106064 0
0.00803127 -0.000676256 0
0.00841565 -0.00125831 0
0.00987672 -0.00161744 0
0.0107785 -0.00392512 0
0.0120345 -0.00251922 0
0.0103276 -0.00277128 0
0.0114065 -0.00322217 0
0.0109556 -0.00206833 0
0.00986409 -0.00161744 0
0.0069672 -0.000331412 0
0.0111501 -0.00392512 0
0.00841565 -0.000974426 0
0.00905866 -0.00212827 0
0.0105071 -0.00277128 0
0.00621737 -0.000184428 0
0.00928618 -0.000414497 0
0.0059873 8.12868e-05 0
0.00775177 -0.000299463 0
0.00763674 -0.000166605 0
0.00610233 -5.15708e-05 0
0.00621737 -0.000187558 0
0.00669924 -0.000605968 0
0.00928618 -0.000669433 0
0.00645831 -0.000396763 0
0.00799271 -0.0006377 0
0.00775177 -0.000428495 0
0.00621893 -0.000184428 0
0.00598558 8.12868e-05 0
0.00295896 4.89209e-05 0
0.00610226 -5.15708e-05 0
0.00447227 6.51039e-05 0
0.00458895 -6.77537e-05 0
0.00621893 -0.000187558 0
0.00295896 0.00027256 0
0.00667905 -0.000605968 0
0.00458895 4.25009e-05 0
0.004819 -0.000166704 0
0.00644899 -0.000396763 0
0.00866281 -8.43129e-05 0
0.00875036 -2.07272e-05 0
0.0111486 -0.000171869 0
0.00870658 -5.252e-05 0
0.00994946 -9.62983e-05 0
0.00990569 -0.000128091 0
0.00866373 -8.43129e-05 0
0.00595649 3.44639e-06 0
0.00875149 -2.07272e-05 0
0.00731011 -4.04332e-05 0
0.00735399 -8.64043e-06 0
0.00870761 -5.252e-05 0
0.00866281 -8.24669e-05 0
0.0111486 -0.000113953 0
0.00863132 -0.000187381 0
0.00990569 -9.82098e-05 0
0.00988994 -0.000150667 0
0.00864706 -0.000134924 0
0.00866373 -8.24669e-05 0
0.00861727 -0.000187381 0
0.00595649 -3.60107e-05 0
0.0086405 -0.000134924 0
0.00728688 -0.000111696 0
0.00731011 -5.92388e-05 0
0.00596008 1.99868e-05 0
0.00602665 5.06089e-05 0
0.00877376 -4.65919e-05 0
0.00599337 3.52978e-05 0
0.00740021 2.00848e-06 0
0.00736692 -1.33026e-05 0
0.00596008 2.29047e-05 0
0.00877376 1.54967e-06 0
0.00593872 -1.43221e-05 0
0.00736692 1.22272e-05 0
0.00735624 -6.38621e-06 0
0.0059494 4.29129e-06 0
0.00596153 1.99868e-05 0
0.00302005 6.31254e-05 0
0.00600467 5.06089e-05 0
0.00449079 4.15561e-05 0
0.00451236 5.68671e-05 0
0.0059831 3.52978e-05 0
0.00596153 2.29047e-05 0
0.00594028 -1.43221e-05 0
0.00302005 4.41627e-05 0
0.00595091 4.29129e-06 0
0.00448016 1.49203e-05 0
0.00449079 3.35337e-05 0
0.0037795 -0.0156042 0
0.0090664 -0.0118404 0
0.00506525 -0.0208911 0
0.00642295 -0.0137223 0
0.00706583 -0.0163658 0
0.00442238 -0.0182477 0
0.00385296 -0.0156042 0
0.00283688 -0.0106031 0
0.00885407 -0.0118404 0
0.00334492 -0.0131037 0
0.00584547 -0.0112218 0
0.00635351 -0.0137223 0
0.0100078 -0.0152649 0
0.00594055 -0.0217664 0
0.00842365 -0.0111977 0
0.00797418 -0.0185157 0
0.0071821 -0.0164821 0
0.00921573 -0.0132313 0
0.0100078 -0.0152066 0
0.00842365 -0.0125312 0
0.0126832 -0.00923403 0
0.00921573 -0.0138689 0
0.0105534 -0.0108826 0
0.0113455 -0.0122203 0
0.010037 -0.0152649 0
0.0119953 -0.0193364 0
0.00596552 -0.0217664 0
0.0110161 -0.0173007 0
0.00898039 -0.0205514 0
0.00800126 -0.0185157 0
0.010037 -0.0152066 0
0.0122497 -0.00923403 0
0.0119953 -0.0174193 0
0.0111434 -0.0122203 0
0.0121225 -0.0133267 0
0.0110161 -0.016313 0
0.0123147 -0.00899042 0
0.0106252 -0.00399606 0
0.0117224 -0.00730101 0
0.0114699 -0.00649324 0
0.0111738 -0.00564854 0
0.0120185 -0.00814572 0
0.0123349 -0.00899042 0
0.012028 -0.00968455 0
0.0116408 -0.00399606 0
0.0121815 -0.00933749 0
0.0118344 -0.00684031 0
0.0119879 -0.00649324 0
0.0123147 -0.00894988 0
0.0117224 -0.0075678 0
0.0136967 -0.0178214 0
0.0120185 -0.00825884 0
0.0127096 -0.0126946 0
0.0130057 -0.0133856 0
0.0123349 -0.00894988 0
0.0123973 -0.0178214 0
0.012028 -0.0090123 0
0.0123661 -0.0133856 0
0.0122127 -0.0134169 0
0.0121815 -0.00898109 0
0.00827825 -0.00226671 0
0.010628 -0.00620666 0
0.0112457 -0.00461649 0
0.00945313 -0.00423669 0
0.0109368 -0.00541157 0
0.00976196 -0.0034416 0
0.00827825 -0.00233361 0
0.0112457 -0.00382958 0
0.00678228 -0.000516336 0
0.00976196 -0.0030816 0
0.00901397 -0.00217296 0
0.00753026 -0.00142497 0
0.0082448 -0.00226671 0
0.00406297 0.000813598 0
0.0113251 -0.00620666 0
0.00615389 -0.000726558 0
0.00769404 -0.00269653 0
0.00978495 -0.00423669 0
0.0082448 -0.00233361 0
0.00655349 -0.000516336 0
0.00406297 -0.000642306 0
0.00739914 -0.00142497 0
0.00530823 -0.000579321 0
0.00615389 -0.00148796 0
0.00820114 -0.0282471 0
0.00471147 -0.0230205 0
0.0134278 -0.0179039 0
0.00645631 -0.0256338 0
0.00906961 -0.0204622 0
0.0108144 -0.0230755 0
0.00770433 -0.0282471 0
0.0144412 -0.0179039 0
0.00939292 -0.034984 0
0.0110728 -0.0230755 0
0.0119171 -0.026444 0
0.00854862 -0.0316155 0
0.0148893 -0.0172203 0
0.0123248 -0.0191934 0
0.0129162 -0.00637397 0
0.013607 -0.0182068 0
0.0126205 -0.0127837 0
0.0139027 -0.0117971 0
0.0148893 -0.0171473 0
0.0135294 -0.0391205 0
0.0123248 -0.0157875 0
0.0142094 -0.0281339 0
0.0129271 -0.027454 0
0.013607 -0.0164674 0
0.0148528 -0.0172203 0
0.00982791 -0.00637397 0
0.0168378 -0.0121954 0
0.0123404 -0.0117971 0
0.0133328 -0.00928467 0
0.0158453 -0.0147078 0
0.0148528 -0.0171473 0
0.0168378 -0.0148718 0
0.0171283 -0.0391205 0
0.0158453 -0.0160096 0
0.0169831 -0.0269962 0
0.0159906 -0.0281339 0
5.10949e-06 0 0
2.21586e-05 0 0
0.00300609 -1.70491e-05 0
1.3634e-05 0 0
0.00151412 -8.52455e-06 0
0.0015056 -8.52455e-06 0
5.10949e-06 0 0
0.00300609 -3.89248e-05 0
-3.38153e-05 0 0
0.0015056 -1.94624e-05 0
0.00148614 -1.94624e-05 0
-1.43529e-05 0 0
0.00302318 6.11646e-06 0
0.00302338 -3.43396e-05 0
1.62425e-05 5.91613e-06 0
0.00302328 -1.41116e-05 0
0.00151981 -1.42117e-05 0
0.00151971 6.0163e-06 0
0.00302322 6.11646e-06 0
0.00593872 1.277e-05 0
0.00302988 -3.43396e-05 0
0.00448097 9.44324e-06 0
0.0044843 -1.07848e-05 0
0.00302655 -1.41116e-05 0
0.00302318 6.2075e-06 0
1.62425e-05 -9.05962e-06 0
0.00300791 3.48633e-05 0
0.00151971 -1.42606e-06 0
0.00151208 1.29018e-05 0
0.00301554 2.05354e-05 0
0.00302322 6.2075e-06 0
0.00300077 3.48633e-05 0
0.00593872 2.86562e-05 0
0.003012 2.05354e-05 0
0.00446975 3.17597e-05 0
0.00448097 1.74319e-05 0
0.00586571 0.000116908 0
0.00299292 2.63039e-05 0
0.0057751 0.000222176 0
0.00442931 7.16059e-05 0
0.00438401 0.00012424 0
0.0058204 0.000169542 0
0.00586571 0.000119156 0
0.00594214 2.524e-05 0
0.00299292 4.27206e-05 0
0.00590392 7.21982e-05 0
0.00446753 3.39803e-05 0
0.00442931 8.09384e-05 0
0.00586458 0.000116908 0
0.00578726 0.000222176 0
0.00863019 0.000194228 0
0.00582592 0.000169542 0
0.00720872 0.000208202 0
0.00724738 0.000155568 0
0.00586458 0.000119156 0
0.00863019 0.000200294 0
0.00594572 2.524e-05 0
0.00724738 0.000159725 0
0.00728795 0.000112767 0
0.00590515 7.21982e-05 0
4.92479e-06 0 0
0.00299342 2.03773e-05 0
2.53021e-05 0 0
0.00149917 1.01886e-05 0
0.00150936 1.01886e-05 0
1.51134e-05 0 0
4.92479e-06 0 0
-1.98811e-05 0 0
0.00299342 2.48059e-05 0
-7.47815e-06 0 0
0.00148677 1.24029e-05 0
0.00149917 1.24029e-05 0
0.00288163 8.88673e-05 0
0.00576063 0.000207709 0
0.00300047 3.38599e-05 0
0.00432113 0.000148288 0
0.00438055 0.000120784 0
0.00294105 6.13636e-05 0
0.00288212 8.88673e-05 0
0.00298437 3.38599e-05 0
-6.49621e-06 -1.33849e-05 0
0.00293324 6.13636e-05 0
0.00148894 1.02375e-05 0
0.00143781 3.77412e-05 0
0.00288163 8.78936e-05 0
0.00272746 0.000119275 0
0.00576063 0.00024206 0
0.00280455 0.000103584 0
0.00424405 0.000180668 0
0.00432113 0.000164977 0
0.00288212 8.78936e-05 0
-6.49621e-06 -5.74722e-05 0
0.00273675 0.000119275 0
0.00143781 1.52107e-05 0
0.00136513 3.09015e-05 0
0.00280943 0.000103584 0
0.00855837 0.00028544 0
0.00862169 0.00020272 0
0.00578732 0.000222117 0
0.00859003 0.00024408 0
0.00720451 0.000212418 0
0.00717285 0.000253779 0
0.00855747 0.00028544 0
0.0111269 0.000346191 0
0.00861822 0.00020272 0
0.00984216 0.000315816 0
0.00987254 0.000274456 0
0.00858785 0.00024408 0
0.00855837 0.000283641 0
0.00578732 0.000268912 0
0.00854364 0.00034917 0
0.00717285 0.000276276 0
0.00716548 0.000309041 0
0.008551 0.000316406 0
0.00855747 0.000283641 0
0.00855971 0.00034917 0
0.0111269 0.000281404 0
0.00855859 0.000316406 0
0.00984328 0.000315287 0
0.00984216 0.000282523 0
0.0111466 0.000237225 0
0.0112834 -6.42543e-05 0
0.0133254 0.000100484 0
0.011215 8.64851e-05 0
0.0123044 1.81151e-05 0
0.012236 0.000168854 0
0.0111466 0.000234088 0
0.0133254 0.000198097 0
0.0111106 0.000324681 0
0.012236 0.000216093 0
0.012218 0.000261389 0
0.0111286 0.000279385 0
0.0111451 0.000237225 0
0.00861331 0.00042454 0
0.0113324 -6.42543e-05 0
0.00987918 0.000330882 0
0.00997284 0.000180143 0
0.0112387 8.64851e-05 0
0.0111451 0.000234088 0
0.0110836 0.000324681 0
0.00861331 0.000295565 0
0.0111143 0.000279385 0
0.00984845 0.000310123 0
0.00987918 0.000264827 0
0.0133498 -0.000266661 0
0.0132543 0.000171607 0
0.0113903 -0.000171167 0
0.013302 -4.75271e-05 0
0.0123223 2.19974e-07 0
0.01237 -0.000218914 0
0.013353 -0.000266661 0
0.0148743 -0.000273245 0
0.0133464 0.000171607 0
0.0141137 -0.000269953 0
0.0141104 -5.08189e-05 0
0.0133497 -4.75271e-05 0
0.0133498 -0.000260246 0
0.0113903 -9.47287e-05 0
0.0135153 -0.00115904 0
0.01237 -0.000177487 0
0.0124528 -0.000626882 0
0.0134325 -0.00070964 0
0.013353 -0.000260246 0
0.0133783 -0.00115904 0
0.0148743 -0.000285529 0
0.0133656 -0.00070964 0
0.0141263 -0.000722282 0
0.0141137 -0.000272887 0
0.0147886 5.49002e-05 0
0.0147421 0.000178178 0
0.0133402 0.000101419 0
0.0147653 0.000116539 0
0.0140412 0.000139798 0
0.0140644 7.81595e-05 0
0.0147886 5.76992e-05 0
0.0133402 0.000165457 0
0.0148963 -0.000251226 0
0.0140644 0.000111578 0
0.0141183 -4.28844e-05 0
0.0148425 -9.67634e-05 0
0.01479 5.49002e-05 0
0.0157953 4.14313e-05 0
0.0147765 0.000178178 0
0.0152927 4.81658e-05 0
0.0152859 0.000109805 0
0.0147833 0.000116539 0
0.01479 5.76992e-05 0
0.0148423 -0.000251226 0
0.0157953 5.38329e-06 0
0.0148161 -9.67634e-05 0
0.0153188 -0.000122921 0
0.0152927 3.15412e-05 0
0.00866631 7.41411e-05 0
0.011367 -2.95935e-05 0
0.00856257 0.000373801 0
0.0100167 2.22738e-05 0
0.0099648 0.000172104 0
0.00861444 0.000223971 0
0.00866319 7.41411e-05 0
0.00851839 0.000373801 0
0.00564896 0.000218933 0
0.00859079 0.000223971 0
0.00708368 0.000296367 0
0.00715607 0.000146537 0
0.00866631 8.03866e-05 0
0.00894275 -0.00060223 0
0.011367 -0.000196056 0
0.00880453 -0.000260922 0
0.0101549 -0.000399143 0
0.0100167 -5.78349e-05 0
0.00866319 8.03866e-05 0
0.00564896 0.00044785 0
0.00903065 -0.00060223 0
0.00715607 0.000264118 0
0.00733981 -7.719e-05 0
0.00884692 -0.000260922 0
0.00564439 0.000265436 0
0.00857259 0.000378119 0
0.00575707 0.000238662 0
0.00710849 0.000321778 0
0.00716483 0.00030839 0
0.00570073 0.000252049 0
0.00564439 0.000261357 0
0.00558614 0.000281755 0
0.00857259 0.000319605 0
0.00561526 0.000271556 0
0.00707936 0.00030068 0
0.00710849 0.000290481 0
0.00564643 0.000265436 0
0.00576403 0.000238662 0
0.00269891 0.000147832 0
0.00570523 0.000252049 0
0.00423147 0.000193247 0
0.00417267 0.000206634 0
0.00564643 0.000261357 0
0.00269891 0.000165548 0
0.00555062 0.000281755 0
0.00417267 0.000213453 0
0.00412476 0.000223652 0
0.00559852 0.000271556 0
0.016026 0 0
0.0157987 7.26405e-06 0
0.0160333 0 0
0.0159123 3.63202e-06 0
0.015916 3.63203e-06 0
0.0160296 0 0
0.016026 0 0
0.0160344 0 0
0.0157987 -8.42478e-06 0
0.0160302 0 0
0.0159165 -4.21239e-06 0
0.0159123 -4.21239e-06 0
0.016026 0 0
0.0160333 0 0
0.0157987 -7.26405e-06 0
0.0160296 0 0
0.015916 -3.63203e-06 0
0.0159123 -3.63203e-06 0
0.016026 0 0
0.0157987 8.42478e-06 0
0.0160344 0 0
0.0159123 4.21239e-06 0
0.0159165 4.21239e-06 0
0.0160302 0 0
0.0156619 -0.000172561 0
0.0160148 -1.84827e-05 0
0.015816 2.45309e-05 0
0.0158383 -9.55218e-05 0
0.0159154 3.0241e-06 0
0.0157389 -7.4015e-05 0
0.0156609 -0.000172561 0
0.0157762 2.45309e-05 0
0.0148789 -0.00028783 0
0.0157186 -7.4015e-05 0
0.0153275 -0.00013165 0
0.0152699 -0.000230195 0
0.0156619 -0.000170652 0
0.0154356 -0.000544063 0
0.0160148 5.55909e-05 0
0.0155488 -0.000357357 0
0.0157252 -0.000244236 0
0.0158383 -5.75305e-05 0
0.0156609 -0.000170652 0
0.0148789 -0.000342814 0
0.0154888 -0.000544063 0
0.0152699 -0.000256733 0
0.0151838 -0.000443438 0
0.0155748 -0.000357357 0
0.0156619 0.000172561 0
0.015816 -2.45309e-05 0
0.0160148 1.84827e-05 0
0.0157389 7.4015e-05 0
0.0159154 -3.0241e-06 0
0.0158383 9.55218e-05 0
0.0156609 0.000172561 0
0.0148789 0.00028783 0
0.0157762 -2.45309e-05 0
0.0152699 0.000230195 0
0.0153275 0.00013165 0
0.0157186 7.4015e-05 0
0.0156619 0.000170652 0
0.0160148 -5.55909e-05 0
0.0154356 0.000544063 0
0.0158383 5.75305e-05 0
0.0157252 0.000244236 0
0.0155488 0.000357357 0
0.0156609 0.000170652 0
0.0154888 0.000544063 0
0.0148789 0.000342814 0
0.0155748 0.000357357 0
0.0151838 0.000443438 0
0.0152699 0.000256733 0
0.01479 -5.49002e-05 0
0.0147765 -0.000178178 0
0.0157953 -4.14313e-05 0
0.0147833 -0.000116539 0
0.0152859 -0.000109805 0
0.0152927 -4.81658e-05 0
0.01479 -5.76992e-05 0
0.0157953 -5.38329e-06 0
0.0148423 0.000251226 0
0.0152927 -3.15412e-05 0
0.0153188 0.000122921 0
0.0148161 9.67634e-05 0
0.0147886 -5.49002e-05 0
0.0133402 -0.000101419 0
0.0147421 -0.000178178 0
0.0140644 -7.81595e-05 0
0.0140412 -0.000139798 0
0.0147653 -0.000116539 0
0.0147886 -5.76992e-05 0
0.0148963 0.000251226 0
0.0133402 -0.000165457 0
0.0148425 9.67634e-05 0
0.0141183 4.28844e-05 0
0.0140644 -0.000111578 0
0.0146133 -0.000993186 0
0.0134462 -0.00136503 0
0.0142414 -0.00225227 0
0.0140297 -0.00117911 0
0.0138438 -0.00180865 0
0.0144273 -0.00162273 0
0.0146133 -0.000997493 0
0.0148428 -0.00025397 0
0.0134462 -0.001227 0
0.014728 -0.000625732 0
0.0141445 -0.000740483 0
0.0140297 -0.00111224 0
0.0146154 -0.000993186 0
0.0140863 -0.00225227 0
0.0153877 -0.000464048 0
0.0143509 -0.00162273 0
0.014737 -0.00135816 0
0.0150015 -0.000728617 0
0.0146154 -0.000997493 0
0.0153877 -0.00064516 0
0.0149678 -0.00025397 0
0.0150015 -0.000821327 0
0.0151777 -0.000449565 0
0.0147916 -0.000625732 0
0.0115383 -0.00111947 0
0.0134434 -0.00123095 0
0.0114268 -5.81719e-05 0
0.0124908 -0.00117521 0
0.0124351 -0.000644563 0
0.0114826 -0.000588819 0
0.0115383 -0.00110509 0
0.0116773 -0.00313803 0
0.0134434 -0.00124412 0
0.0116078 -0.00212156 0
0.0125604 -0.00219108 0
0.0124908 -0.00117461 0
0.0115311 -0.00111947 0
0.0112291 -5.81719e-05 0
0.009158 -0.00081748 0
0.0113801 -0.000588819 0
0.0101936 -0.000437826 0
0.0103446 -0.000968473 0
0.0115311 -0.00110509 0
0.009158 -0.000660571 0
0.0119757 -0.00313803 0
0.0103446 -0.000882832 0
0.0105668 -0.0018993 0
0.0117534 -0.00212156 0
0.013103 -0.00300941 0
0.0140231 -0.0024706 0
0.0136418 -0.00116949 0
0.013563 -0.00274001 0
0.0138324 -0.00182005 0
0.0133724 -0.00208945 0
0.0131006 -0.00300941 0
0.0133687 -0.00116949 0
0.0118169 -0.00327755 0
0.0132347 -0.00208945 0
0.0125928 -0.00222352 0
0.0124587 -0.00314348 0
0.013103 -0.00300471 0
0.0122468 -0.0058895 0
0.0140231 -0.00214857 0
0.0126749 -0.0044471 0
0.013135 -0.00401904 0
0.013563 -0.00257664 0
0.0131006 -0.00300471 0
0.0118169 -0.0035525 0
0.0125528 -0.0058895 0
0.0124587 -0.00327861 0
0.0121848 -0.004721 0
0.0128267 -0.0044471 0
0.0155742 0 0
0.0160704 0 0
0.0153877 -0.000496177 0
0.0158223 0 0
0.0157291 -0.000248088 0
0.015481 -0.000248088 0
0.0155742 0 0
0.0153877 -0.000714711 0
0.0148595 0 0
0.015481 -0.000357355 0
0.0151236 -0.000357355 0
0.0152168 0 0
0.0155742 0 0
0.0153877 0.000496177 0
0.0160704 0 0
0.015481 0.000248088 0
0.0157291 0.000248088 0
0.0158223 0 0
0.0155742 0 0
0.0148595 0 0
0.0153877 0.000714711 0
0.0152168 0 0
0.0151236 0.000357355 0
0.015481 0.000357355 0
0.0145056 -0.00121966 0
0.0154706 -0.000546984 0
0.0140187 -0.00218464 0
0.0149881 -0.00088332 0
0.0147446 -0.00136581 0
0.0142621 -0.00170215 0
0.0145061 -0.00121966 0
0.0146892 -0.000170253 0
0.0155555 -0.000546984 0
0.0145976 -0.000694955 0
0.0151223 -0.000358619 0
0.0150308 -0.00088332 0
0.0145056 -0.00121874 0
0.0140187 -0.00257245 0
0.0131519 -0.00220582 0
0.0142621 -0.00189559 0
0.0135853 -0.00238913 0
0.0138288 -0.00171228 0
0.0145061 -0.00121874 0
0.0130606 -0.00220582 0
0.0146892 0.000226735 0
0.0137833 -0.00171228 0
0.0138749 -0.000989543 0
0.0145976 -0.000496002 0
8.96168e-06 0 0
-0.000136658 0 0
0.00265949 0.00014562 0
-6.38483e-05 0 0
0.00126142 7.28099e-05 0
0.00133423 7.28099e-05 0
8.96168e-06 0 0
0.00265949 4.20144e-05 0
5.0976e-05 0 0
0.00133423 2.10072e-05 0
0.00135523 2.10072e-05 0
2.99689e-05 0 0
0.00253419 0.000134286 0
0.00265555 0.000149562 0
-0.000149583 1.29248e-05 0
0.00259487 0.000141924 0
0.00125298 8.12436e-05 0
0.0011923 7.36052e-05 0
0.00252564 0.000134286 0
0.00556043 0.000291568 0
0.00268292 0.000149562 0
0.00404304 0.000212927 0
0.00412168 0.000220565 0
0.00260428 0.000141924 0
0.00253419 0.00011719 0
-0.000149583 -0.000142401 0
0.0022746 0.000165194 0
0.0011923 -1.26054e-05 0
0.00106251 1.13963e-05 0
0.00240439 0.000141192 0
0.00252564 0.00011719 0
0.00236689 0.000165194 0
0.00556043 0.000275943 0
0.00244626 0.000141192 0
0.00396366 0.000220568 0
0.00404304 0.000196567 0
0.00584808 -0.000202679 0
0.00652768 -0.00137682 0
0.00911008 -0.000882279 0
0.00618788 -0.000789748 0
0.00781888 -0.00112955 0
0.00747908 -0.000542479 0
0.00584808 -0.000214978 0
0.00911008 -0.000522802 0
0.00554025 0.000339139 0
0.00747908 -0.00036889 0
0.00732516 -9.18314e-05 0
0.00569416 6.20809e-05 0
0.00584193 -0.000202679 0
0.00240237 0.000612178 0
0.00665678 -0.00137682 0
0.00412215 0.000204749 0
0.00452958 -0.00038232 0
0.00624935 -0.000789748 0
0.00584193 -0.000214978 0
0.00549723 0.000339139 0
0.00240237 0.000129714 0
0.00566958 6.20809e-05 0
0.0039498 0.000234427 0
0.00412215 -4.26319e-05 0
0.00972706 -0.00276973 0
0.00881641 -0.00058861 0
0.00700994 -0.00185908 0
0.00927173 -0.00167917 0
0.00791317 -0.00122385 0
0.0083685 -0.00231441 0
0.00974325 -0.00276973 0
0.0118307 -0.00328302 0
0.00922996 -0.00058861 0
0.010787 -0.00302638 0
0.0105303 -0.00193582 0
0.00948661 -0.00167917 0
0.00972706 -0.00273734 0
0.00700994 -0.00150611 0
0.0109583 -0.00695101 0
0.0083685 -0.00212173 0
0.00898412 -0.00422856 0
0.0103427 -0.00484418 0
0.00974325 -0.00273734 0
0.010318 -0.00695101 0
0.0118307 -0.00331211 0
0.0100306 -0.00484418 0
0.0110743 -0.00513156 0
0.010787 -0.00302473 0
2.67697e-05 0 0
0.00207545 -3.39514e-05 0
-7.18169e-06 0 0
0.00105111 -1.69757e-05 0
0.00103413 -1.69757e-05 0
9.79401e-06 0 0
2.67697e-05 0 0
-0.000450946 0 0
0.00207545 0.000477716 0
-0.000212088 0 0
0.000812252 0.000238858 0
0.00105111 0.000238858 0
0.00287041 -0.000475042 0
0.00687885 -0.00115475 0
0.0021907 0.000400508 0
0.00487463 -0.000814898 0
0.00453477 -0.000377123 0
0.00253055 -3.72665e-05 0
0.00290524 -0.000475042 0
0.00215266 0.000400508 0
-0.000728487 0.000277541 0
0.00252895 -3.72665e-05 0
0.000712085 0.000339025 0
0.00108838 -9.87504e-05 0
0.00287041 -0.000544698 0
0.0043726 -0.00150976 0
0.00687885 -0.00204689 0
0.00362151 -0.00102723 0
0.00562573 -0.00177832 0
0.00487463 -0.00129579 0
0.00290524 -0.000544698 0
-0.000728487 0.00047311 0
0.00392305 -0.00150976 0
0.00108838 -3.57939e-05 0
0.00159728 -0.000518324 0
0.00341414 -0.00102723 0
0.0150612 -0.0478783 0
0.0103363 -0.0043858 0
0.0532487 -0.0431533 0
0.0126987 -0.026132 0
0.0317925 -0.0237696 0
0.034155 -0.0455158 0
0.0269766 -0.0478783 0
0.00871774 -0.0475311 0
0.0273238 -0.0043858 0
0.0178472 -0.0477047 0
0.0180207 -0.0259585 0
0.0271502 -0.026132 0
-0.000264988 0 0
0.0100954 0 0
0.0163108 -0.0103604 0
0.00491521 0 0
0.0132031 -0.00518019 0
0.00802293 -0.00518019 0
-0.000264988 0 0
0.0163108 -0.00383156 0
-0.00409655 0 0
0.00802293 -0.00191578 0
0.00610715 -0.00191578 0
-0.00218077 0 0
0.00662181 -0.0026021 0
0.0123725 -0.00773012 0
0.0118067 -0.0083528 0
0.00949716 -0.00516611 0
0.0120896 -0.00804146 0
0.00921427 -0.00547745 0
0.0066228 -0.0026021 0
-0.000909169 0.00318738 0
0.0124123 -0.00773012 0
0.00285681 0.000292638 0
0.00575156 -0.00227137 0
0.00951754 -0.00516611 0
0.00662181 -0.00260013 0
0.0118067 -0.00572503 0
0.00349691 0.000247536 0
0.00921427 -0.00416258 0
0.00765182 -0.00273875 0
0.00505936 -0.0011763 0
0.0066228 -0.00260013 0
0.00344334 0.000247536 0
-0.000909169 0.000579323 0
0.00503307 -0.0011763 0
0.00126709 0.00041343 0
0.00285681 -0.0010104 0
1.53849e-05 0 0
0.00334565 -0.000288085 0
-0.0002727 0 0
0.00168052 -0.000144042 0
0.00153647 -0.000144042 0
-0.000128658 0 0
1.53849e-05 0 0
-0.000329846 0 0
0.00334565 0.000345231 0
-0.000157231 0 0
0.0015079 0.000172615 0
0.00168052 0.000172615 0
0.00312756 -0.000219925 0
-0.000250391 2.23089e-05 0
0.00336979 -0.00026394 0
0.00143859 -9.88078e-05 0
0.0015597 -0.000120815 0
0.00324868 -0.000241932 0
0.0031068 -0.000219925 0
0.00368461 -0.00026394 0
0.00683489 -0.000797736 0
0.0033957 -0.000241932 0
0.00525975 -0.000530838 0
0.00497084 -0.00050883 0
0.00312756 -0.000178394 0
0.00285916 0.000148663 0
-0.000250391 9.00064e-05 0
0.00299336 -1.48654e-05 0
0.00130438 0.000119335 0
0.00143859 -4.41938e-05 0
0.0031068 -0.000178394 0
0.00683489 -0.000450129 0
0.00283506 0.000148663 0
0.00497084 -0.000314262 0
0.00483498 -0.000150733 0
0.00297093 -1.48654e-05 0
1.00054e-05 0 0
-0.000160385 0 0
0.00283743 0.00017039 0
-7.51896e-05 0 0
0.00133852 8.5195e-05 0
0.00142372 8.5195e-05 0
1.00054e-05 0 0
0.00283743 -8.28637e-06 0
1.71907e-06 0 0
0.00142372 -4.14318e-06 0
0.00141958 -4.14318e-06 0
5.86226e-06 0 0
0.00296769 2.73406e-05 0
0.00294992 5.79555e-05 0
0.00602176 4.51077e-05 0
0.00295881 4.2648e-05 0
0.00448584 5.15316e-05 0
0.00449473 3.62241e-05 0
0.00297105 2.73406e-05 0
-3.83102e-05 -4.00293e-05 0
0.00290368 5.79555e-05 0
0.00146637 -6.34436e-06 0
0.00143268 8.96308e-06 0
0.00293736 4.2648e-05 0
0.00296769 3.4052e-05 0
0.00602176 6.7698e-05 0
0.00300134 4.44086e-05 0
0.00449473 5.0875e-05 0
0.00451155 5.60533e-05 0
0.00298451 3.92303e-05 0
0.00297105 3.4052e-05 0
0.0030006 4.44086e-05 0
-3.83102e-05 4.49493e-06 0
0.00298582 3.92303e-05 0
0.00148115 2.44518e-05 0
0.00146637 1.92735e-05 0
5.10949e-06 0 0
0.00300609 1.70491e-05 0
2.21586e-05 0 0
0.0015056 8.52455e-06 0
0.00151412 8.52455e-06 0
1.3634e-05 0 0
5.10949e-06 0 0
-3.38153e-05 0 0
0.00300609 3.89248e-05 0
-1.43529e-05 0 0
0.00148614 1.94624e-05 0
0.0015056 1.94624e-05 0
0.00302318 -6.11646e-06 0
1.62425e-05 -5.91613e-06 0
0.00302338 3.43396e-05 0
0.00151971 -6.0163e-06 0
0.00151981 1.42117e-05 0
0.00302328 1.41116e-05 0
0.00302322 -6.11646e-06 0
0.00302988 3.43396e-05 0
0.00593872 -1.277e-05 0
0.00302655 1.41116e-05 0
0.0044843 1.07848e-05 0
0.00448097 -9.44324e-06 0
0.00302318 -6.2075e-06 0
0.00300791 -3.48633e-05 0
1.62425e-05 9.05962e-06 0
0.00301554 -2.05354e-05 0
0.00151208 -1.29018e-05 0
0.00151971 1.42606e-06 0
0.00302322 -6.2075e-06 0
0.00593872 -2.86562e-05 0
0.00300077 -3.48633e-05 0
0.00448097 -1.74319e-05 0
0.00446975 -3.17597e-05 0
0.003012 -2.05354e-05 0
0.00586571 -0.000116908 0
0.0057751 -0.000222176 0
0.00299292 -2.63039e-05 0
0.0058204 -0.000169542 0
0.00438401 -0.00012424 0
0.00442931 -7.16059e-05 0
0.00586571 -0.000119156 0
0.00299292 -4.27206e-05 0
0.00594214 -2.524e-05 0
0.00442931 -8.09384e-05 0
0.00446753 -3.39803e-05 0
0.00590392 -7.21982e-05 0
0.00586458 -0.000116908 0
0.00863019 -0.000194228 0
0.00578726 -0.000222176 0
0.00724738 -0.000155568 0
0.00720872 -0.000208202 0
0.00582592 -0.000169542 0
0.00586458 -0.000119156 0
0.00594572 -2.524e-05 0
0.00863019 -0.000200294 0
0.00590515 -7.21982e-05 0
0.00728795 -0.000112767 0
0.00724738 -0.000159725 0
4.92479e-06 0 0
2.53021e-05 0 0
0.00299342 -2.03773e-05 0
1.51134e-05 0 0
0.00150936 -1.01886e-05 0
0.00149917 -1.01886e-05 0
4.92479e-06 0 0
0.00299342 -2.48059e-05 0
-1.98811e-05 0 0
0.00149917 -1.24029e-05 0
0.00148677 -1.24029e-05 0
-7.47815e-06 0 0
0.00288163 -8.88673e-05 0
0.00300047 -3.38599e-05 0
0.00576063 -0.000207709 0
0.00294105 -6.13636e-05 0
0.00438055 -0.000120784 0
0.00432113 -0.000148288 0
0.00288212 -8.88673e-05 0
-6.49621e-06 1.33849e-05 0
0.00298437 -3.38599e-05 0
0.00143781 -3.77412e-05 0
0.00148894 -1.02375e-05 0
0.00293324 -6.13636e-05 0
0.00288163 -8.78936e-05 0
0.00576063 -0.00024206 0
0.00272746 -0.000119275 0
0.00432113 -0.000164977 0
0.00424405 -0.000180668 0
0.00280455 -0.000103584 0
0.00288212 -8.78936e-05 0
0.00273675 -0.000119275 0
-6.49621e-06 5.74722e-05 0
0.00280943 -0.000103584 0
0.00136513 -3.09015e-05 0
0.00143781 -1.52107e-05 0
0.00855837 -0.00028544 0
0.00578732 -0.000222117 0
0.00862169 -0.00020272 0
0.00717285 -0.000253779 0
0.00720451 -0.000212418 0
0.00859003 -0.00024408 0
0.00855747 -0.00028544 0
0.00861822 -0.00020272 0
0.0111269 -0.000346191 0
0.00858785 -0.00024408 0
0.00987254 -0.000274456 0
0.00984216 -0.000315816 0
0.00855837 -0.000283641 0
0.00854364 -0.00034917 0
0.00578732 -0.000268912 0
0.008551 -0.000316406 0
0.00716548 -0.000309041 0
0.00717285 -0.000276276 0
0.00855747 -0.000283641 0
0.0111269 -0.000281404 0
0.00855971 -0.00034917 0
0.00984216 -0.000282523 0
0.00984328 -0.000315287 0
0.00855859 -0.000316406 0
0.0111466 -0.000237225 0
0.0133254 -0.000100484 0
0.0112834 6.42543e-05 0
0.012236 -0.000168854 0
0.0123044 -1.81151e-05 0
0.011215 -8.64851e-05 0
0.0111466 -0.000234088 0
0.0111106 -0.000324681 0
0.0133254 -0.000198097 0
0.0111286 -0.000279385 0
0.012218 -0.000261389 0
0.012236 -0.000216093 0
0.0111451 -0.000237225 0
0.0113324 6.42543e-05 0
0.00861331 -0.00042454 0
0.0112387 -8.64851e-05 0
0.00997284 -0.000180143 0
0.00987918 -0.000330882 0
0.0111451 -0.000234088 0
0.00861331 -0.000295565 0
0.0110836 -0.000324681 0
0.00987918 -0.000264827 0
0.00984845 -0.000310123 0
0.0111143 -0.000279385 0
0.0133498 0.000266661 0
0.0113903 0.000171167 0
0.0132543 -0.000171607 0
0.01237 0.000218914 0
0.0123223 -2.19975e-07 0
0.013302 4.75271e-05 0
0.013353 0.000266661 0
0.0133464 -0.000171607 0
0.0148743 0.000273245 0
0.0133497 4.75271e-05 0
0.0141104 5.08189e-05 0
0.0141137 0.000269953 0
0.0133498 0.000260246 0
0.0135153 0.00115904 0
0.0113903 9.47287e-05 0
0.0134325 0.00070964 0
0.0124528 0.000626882 0
0.01237 0.000177487 0
0.013353 0.000260246 0
0.0148743 0.000285529 0
0.0133783 0.00115904 0
0.0141137 0.000272887 0
0.0141263 0.000722282 0
0.0133656 0.00070964 0
0.00866631 -7.41411e-05 0
0.00856257 -0.000373801 0
0.011367 2.95935e-05 0
0.00861444 -0.000223971 0
0.0099648 -0.000172104 0
0.0100167 -2.22738e-05 0
0.00866319 -7.41411e-05 0
0.00564896 -0.000218933 0
0.00851839 -0.000373801 0
0.00715607 -0.000146537 0
0.00708368 -0.000296367 0
0.00859079 -0.000223971 0
0.00866631 -8.03866e-05 0
0.011367 0.000196056 0
0.00894275 0.00060223 0
0.0100167 5.78349e-05 0
0.0101549 0.000399143 0
0.00880453 0.000260922 0
0.00866319 -8.03866e-05 0
0.00903065 0.00060223 0
0.00564896 -0.00044785 0
0.00884692 0.000260922 0
0.00733981 7.719e-05 0
0.00715607 -0.000264118 0
0.00564439 -0.000265436 0
0.00575707 -0.000238662 0
0.00857259 -0.000378119 0
0.00570073 -0.000252049 0
0.00716483 -0.00030839 0
0.00710849 -0.000321778 0
0.00564439 -0.000261357 0
0.00857259 -0.000319605 0
0.00558614 -0.000281755 0
0.00710849 -0.000290481 0
0.00707936 -0.00030068 0
0.00561526 -0.000271556 0
0.00564643 -0.000265436 0
0.00269891 -0.000147832 0
0.00576403 -0.000238662 0
0.00417267 -0.000206634 0
0.00423147 -0.000193247 0
0.00570523 -0.000252049 0
0.00564643 -0.000261357 0
0.00555062 -0.000281755 0
0.00269891 -0.000165548 0
0.00559852 -0.000271556 0
0.00412476 -0.000223652 0
0.00417267 -0.000213453 0
0.0146133 0.000993186 0
0.0142414 0.00225227 0
0.0134462 0.00136503 0
0.0144273 0.00162273 0
0.0138438 0.00180865 0
0.0140297 0.00117911 0
0.0146133 0.000997493 0
0.0134462 0.001227 0
0.0148428 0.00025397 0
0.0140297 0.00111224 0
0.0141445 0.000740483 0
0.014728 0.000625732 0
0.0146154 0.000993186 0
0.0153877 0.000464048 0
0.0140863 0.00225227 0
0.0150015 0.000728617 0
0.014737 0.00135816 0
0.0143509 0.00162273 0
0.0146154 0.000997493 0
0.0149678 0.00025397 0
0.0153877 0.00064516 0
0.0147916 0.000625732 0
0.0151777 0.000449565 0
0.0150015 0.000821327 0
0.0115383 0.00111947 0
0.0114268 5.81719e-05 0
0.0134434 0.00123095 0
0.0114826 0.000588819 0
0.0124351 0.000644563 0
0.0124908 0.00117521 0
0.0115383 0.00110509 0
0.0134434 0.00124412 0
0.0116773 0.00313803 0
0.0124908 0.00117461 0
0.0125604 0.00219108 0
0.0116078 0.00212156 0
0.0115311 0.00111947 0
0.009158 0.00081748 0
0.0112291 5.81719e-05 0
0.0103446 0.000968473 0
0.0101936 0.000437826 0
0.0113801 0.000588819 0
0.0115311 0.00110509 0
0.0119757 0.00313803 0
0.009158 0.000660571 0
0.0117534 0.00212156 0
0.0105668 0.0018993 0
0.0103446 0.000882832 0
0.013103 0.00300941 0
0.0136418 0.00116949 0
0.0140231 0.0024706 0
0.0133724 0.00208945 0
0.0138324 0.00182005 0
0.013563 0.00274001 0
0.0131006 0.00300941 0
0.0118169 0.00327755 0
0.0133687 0.00116949 0
0.0124587 0.00314348 0
0.0125928 0.00222352 0
0.0132347 0.00208945 0
0.013103 0.00300471 0
0.0140231 0.00214857 0
0.0122468 0.0058895 0
0.013563 0.00257664 0
0.013135 0.00401904 0
0.0126749 0.0044471 0
0.0131006 0.00300471 0
0.0125528 0.0058895 0
0.0118169 0.0035525 0
0.0128267 0.0044471 0
0.0121848 0.004721 0
0.0124587 0.00327861 0
0.0145056 0.00121966 0
0.0140187 0.00218464 0
0.0154706 0.000546984 0
0.0142621 0.00170215 0
0.0147446 0.00136581 0
0.0149881 0.00088332 0
0.0145061 0.00121966 0
0.0155555 0.000546984 0
0.0146892 0.000170253 0
0.0150308 0.00088332 0
0.0151223 0.000358619 0
0.0145976 0.000694955 0
0.0145056 0.00121874 0
0.0131519 0.00220582 0
0.0140187 0.00257245 0
0.0138288 0.00171228 0
0.0135853 0.00238913 0
0.0142621 0.00189559 0
0.0145061 0.00121874 0
0.0146892 -0.000226735 0
0.0130606 0.00220582 0
0.0145976 0.000496002 0
0.0138749 0.000989543 0
0.0137833 0.00171228 0
8.96168e-06 0 0
0.00265949 -0.00014562 0
-0.000136658 0 0
0.00133423 -7.28099e-05 0
0.00126142 -7.28099e-05 0
-6.38483e-05 0 0
8.96168e-06 0 0
5.0976e-05 0 0
0.00265949 -4.20144e-05 0
2.99689e-05 0 0
0.00135523 -2.10072e-05 0
0.00133423 -2.10072e-05 0
0.00253419 -0.000134286 0
-0.000149583 -1.29248e-05 0
0.00265555 -0.000149562 0
0.0011923 -7.36052e-05 0
0.00125298 -8.12436e-05 0
0.00259487 -0.000141924 0
0.00252564 -0.000134286 0
0.00268292 -0.000149562 0
0.00556043 -0.000291568 0
0.00260428 -0.000141924 0
0.00412168 -0.000220565 0
0.00404304 -0.000212927 0
0.00253419 -0.00011719 0
0.0022746 -0.000165194 0
-0.000149583 0.000142401 0
0.00240439 -0.000141192 0
0.00106251 -1.13963e-05 0
0.0011923 1.26054e-05 0
0.00252564 -0.00011719 0
0.00556043 -0.000275943 0
0.00236689 -0.000165194 0
0.00404304 -0.000196567 0
0.00396366 -0.000220568 0
0.00244626 -0.000141192 0
0.00584808 0.000202679 0
0.00911008 0.000882279 0
0.00652768 0.00137682 0
0.00747908 0.000542479 0
0.00781888 0.00112955 0
0.00618788 0.000789748 0
0.00584808 0.000214978 0
0.00554025 -0.000339139 0
0.00911008 0.000522802 0
0.00569416 -6.20809e-05 0
0.00732516 9.18314e-05 0
0.00747908 0.00036889 0
0.00584193 0.000202679 0
0.00665678 0.00137682 0
0.00240237 -0.000612178 0
0.00624935 0.000789748 0
0.00452958 0.00038232 0
0.00412215 -0.000204749 0
0.00584193 0.000214978 0
0.00240237 -0.000129714 0
0.00549723 -0.000339139 0
0.00412215 4.26319e-05 0
0.0039498 -0.000234427 0
0.00566958 -6.20809e-05 0
0.00972706 0.00276973 0
0.00700994 0.00185908 0
0.00881641 0.00058861 0
0.0083685 0.00231441 0
0.00791317 0.00122385 0
0.00927173 0.00167917 0
0.00974325 0.00276973 0
0.00922996 0.00058861 0
0.0118307 0.00328302 0
0.00948661 0.00167917 0
0.0105303 0.00193582 0
0.010787 0.00302638 0
0.00972706 0.00273734 0
0.0109583 0.00695101 0
0.00700994 0.00150611 0
0.0103427 0.00484418 0
0.00898412 0.00422856 0
0.0083685 0.00212173 0
0.00974325 0.00273734 0
0.0118307 0.00331211 0
0.010318 0.00695101 0
0.010787 0.00302473 0
0.0110743 0.00513156 0
0.0100306 0.00484418 0
2.67697e-05 0 0
-7.18169e-06 0 0
0.00207545 3.39514e-05 0
9.79401e-06 0 0
0.00103413 1.69757e-05 0
0.00105111 1.69757e-05 0
2.67697e-05 0 0
0.00207545 -0.000477716 0
-0.000450946 0 0
0.00105111 -0.000238858 0
0.000812252 -0.000238858 0
-0.000212088 0 0
0.00287041 0.000475042 0
0.0021907 -0.000400508 0
0.00687885 0.00115475 0
0.00253055 3.72665e-05 0
0.00453477 0.000377123 0
0.00487463 0.000814898 0
0.00290524 0.000475042 0
-0.000728487 -0.000277541 0
0.00215266 -0.000400508 0
0.00108838 9.87504e-05 0
0.000712085 -0.000339025 0
0.00252895 3.72665e-05 0
0.00287041 0.000544698 0
0.00687885 0.00204689 0
0.0043726 0.00150976 0
0.00487463 0.00129579 0
0.00562573 0.00177832 0
0.00362151 0.00102723 0
0.00290524 0.000544698 0
0.00392305 0.00150976 0
-0.000728487 -0.00047311 0
0.00341414 0.00102723 0
0.00159728 0.000518324 0
0.00108838 3.57939e-05 0
-7.07791e-05 0 0
0.00430199 0.00133216 0
0.00126139 0 0
0.0021156 0.000666082 0
0.00278169 0.000666082 0
0.000595303 0 0
-7.07791e-05 0 0
-0.0012016 0 0
0.00430199 0.00113082 0
-0.000636188 0 0
0.0015502 0.000565409 0
0.0021156 0.000565409 0
0.01 0.0157636 0
0.01 0.00873861 0
0.00297497 5.14144e-06 0
0.01 0.0122511 0
0.00648748 0.00437188 0
0.00648748 0.0078844 0
0.01 0.0157636 0
0.00883065 5.14144e-06 0
0.01 0.016933 0
0.00941532 0.0078844 0
0.00941532 0.00846907 0
0.01 0.0163483 0
0.00872054 0.00579248 0
0.00605448 0.00319163 0
0.00611969 0.00128774 0
0.00738751 0.00449205 0
0.00608709 0.00223969 0
0.00742012 0.00354011 0
0.00872054 0.00571172 0
0.0116509 0.0152821 0
0.00605448 0.00278131 0
0.0101857 0.0104969 0
0.00885271 0.00903168 0
0.00738751 0.00424651 0
0.00876092 0.00579248 0
0.00722831 0.00128774 0
0.0105842 0.00732508 0
0.00799461 0.00354011 0
0.00890627 0.00430641 0
0.00967257 0.00655878 0
0.00876092 0.00571172 0
0.0105842 0.00692781 0
0.00997701 0.0152821 0
0.00967257 0.00631976 0
0.0102806 0.0111049 0
0.00936896 0.0104969 0
0.01 0.0146464 0
0.0114419 0.00700228 0
0.01 0.0132045 0
0.0107209 0.0108243 0
0.0107209 0.0101034 0
0.01 0.0139254 0
0.01 0.0146464 0
0.01 0.015305 0
0.0106587 0.00700228 0
0.01 0.0149757 0
0.0103293 0.0111537 0
0.0103293 0.0108243 0
0.011491 0.00701485 0
0.0106322 0.0125723 0
0.0105705 0.00787369 0
0.0110616 0.00979356 0
0.0106013 0.010223 0
0.0110308 0.00744427 0
0.011491 0.00700815 0
0.0105705 0.00720347 0
0.0116864 0.00316781 0
0.0110308 0.00710581 0
0.0111284 0.00518564 0
0.0115887 0.00508798 0
0.0114877 0.00701485 0
0.012148 0.00569101 0
0.0101639 0.0125723 0
0.0118179 0.00635293 0
0.0111559 0.00913164 0
0.0108258 0.00979356 0
0.0114877 0.00700815 0
0.0122016 0.00316781 0
0.012148 0.00629428 0
0.0118446 0.00508798 0
0.0121748 0.00473104 0
0.0118179 0.00665122 0
0.01 0.0100577 0
0.01 0.0124084 0
0.0123507 0.00589365 0
0.01 0.0112331 0
0.0111753 0.00915103 0
0.0111753 0.0079757 0
0.01 0.0100577 0
0.0126685 0.00589365 0
0.01 0.00738927 0
0.0113342 0.0079757 0
0.0113342 0.00664146 0
0.01 0.00872351 0
0.0125973 0.00425855 0
0.012152 0.00579472 0
0.0141334 0.00225891 0
0.0123746 0.00502663 0
0.0131427 0.00402682 0
0.0133653 0.00325873 0
0.0125973 0.00425944 0
0.0104466 0.00694266 0
0.012152 0.00641008 0
0.0115219 0.00560105 0
0.0112993 0.00667637 0
0.0123746 0.00533476 0
0.0125968 0.00425855 0
0.0143322 0.00225891 0
0.0128346 0.00252317 0
0.0134645 0.00325873 0
0.0135834 0.00239104 0
0.0127157 0.00339086 0
0.0125968 0.00425944 0
0.0128346 0.00191673 0
0.0102541 0.00694266 0
0.0127157 0.00308808 0
0.0115443 0.00442969 0
0.0114255 0.00560105 0
0.01 0.00356398 0
0.0132211 0.00220674 0
0.01 0.000342897 0
0.0116105 0.00288536 0
0.0116105 0.00127482 0
0.01 0.00195344 0
0.01 0.00356398 0
0.01 0.00668856 0
0.0131246 0.00220674 0
0.01 0.00512627 0
0.0115623 0.00444765 0
0.0115623 0.00288536 0
0.012934 0 0
0.0103429 0 0
0.0128368 0.00259106 0
0.0116384 0 0
0.0115898 0.00129553 0
0.0128854 0.00129553 0
0.012934 0 0
0.0128368 0.001982 0
0.014916 0 0
0.0128854 0.000990999 0
0.0138764 0.000990999 0
0.013925 0 0
0.012934 0 0
0.0128368 -0.00259106 0
0.0103429 0 0
0.0128854 -0.00129553 0
0.0115898 -0.00129553 0
0.0116384 0 0
0.012934 0 0
0.014916 0 0
0.0128368 -0.001982 0
0.013925 0 0
0.0138764 -0.000990999 0
0.0128854 -0.000990999 0
0.01 -0.00356398 0
0.01 -0.000342897 0
0.0132211 -0.00220674 0
0.01 -0.00195344 0
0.0116105 -0.00127482 0
0.0116105 -0.00288536 0
0.01 -0.00356398 0
0.0131246 -0.00220674 0
0.01 -0.00668856 0
0.0115623 -0.00288536 0
0.0115623 -0.00444765 0
0.01 -0.00512627 0
0.0125968 -0.00425855 0
0.0128346 -0.00252317 0
0.0143322 -0.00225891 0
0.0127157 -0.00339086 0
0.0135834 -0.00239104 0
0.0134645 -0.00325873 0
0.0125968 -0.00425944 0
0.0102541 -0.00694266 0
0.0128346 -0.00191673 0
0.0114255 -0.00560105 0
0.0115443 -0.00442969 0
0.0127157 -0.00308808 0
0.0125973 -0.00425855 0
0.0141334 -0.00225891 0
0.012152 -0.00579472 0
0.0133653 -0.00325873 0
0.0131427 -0.00402682 0
0.0123746 -0.00502663 0
0.0125973 -0.00425944 0
0.012152 -0.00641008 0
0.0104466 -0.00694266 0
0.0123746 -0.00533476 0
0.0112993 -0.00667637 0
0.0115219 -0.00560105 0
0.01 -0.0100577 0
0.0123507 -0.00589365 0
0.01 -0.0124084 0
0.0111753 -0.0079757 0
0.0111753 -0.00915103 0
0.01 -0.0112331 0
0.01 -0.0100577 0
0.01 -0.00738927 0
0.0126685 -0.00589365 0
0.01 -0.00872351 0
0.0113342 -0.00664146 0
0.0113342 -0.0079757 0
0.0114877 -0.00701485 0
0.0101639 -0.0125723 0
0.012148 -0.00569101 0
0.0108258 -0.00979356 0
0.0111559 -0.00913164 0
0.0118179 -0.00635293 0
0.0114877 -0.00700815 0
0.012148 -0.00629428 0
0.0122016 -0.00316781 0
0.0118179 -0.00665122 0
0.0121748 -0.00473104 0
0.0118446 -0.00508798 0
0.011491 -0.00701485 0
0.0105705 -0.00787369 0
0.0106322 -0.0125723 0
0.0110308 -0.00744427 0
0.0106013 -0.010223 0
0.0110616 -0.00979356 0
0.011491 -0.00700815 0
0.0116864 -0.00316781 0
0.0105705 -0.00720347 0
0.0115887 -0.00508798 0
0.0111284 -0.00518564 0
0.0110308 -0.00710581 0
0.01 -0.0146464 0
0.01 -0.0132045 0
0.0114419 -0.00700228 0
0.01 -0.0139254 0
0.0107209 -0.0101034 0
0.0107209 -0.0108243 0
0.01 -0.0146464 0
0.0106587 -0.00700228 0
0.01 -0.015305 0
0.0103293 -0.0108243 0
0.0103293 -0.0111537 0
0.01 -0.0149757 0
0.00876092 -0.00579248 0
0.0105842 -0.00732508 0
0.00722831 -0.00128774 0
0.00967257 -0.00655878 0
0.00890627 -0.00430641 0
0.00799461 -0.00354011 0
0.00876092 -0.00571172 0
0.00997701 -0.0152821 0
0.0105842 -0.00692781 0
0.00936896 -0.0104969 0
0.0102806 -0.0111049 0
0.00967257 -0.00631976 0
0.00872054 -0.00579248 0
0.00611969 -0.00128774 0
0.00605448 -0.00319163 0
0.00742012 -0.00354011 0
0.00608709 -0.00223969 0
0.00738751 -0.00449205 0
0.00872054 -0.00571172 0
0.00605448 -0.00278131 0
0.0116509 -0.0152821 0
0.00738751 -0.00424651 0
0.00885271 -0.00903168 0
0.0101857 -0.0104969 0
-7.07791e-05 0 0
0.00126139 0 0
0.00430199 -0.00133216 0
0.000595303 0 0
0.00278169 -0.000666082 0
0.0021156 -0.000666082 0
-7.07791e-05 0 0
0.00430199 -0.00113082 0
-0.0012016 0 0
0.0021156 -0.000565409 0
0.0015502 -0.000565409 0
-0.000636188 0 0
0.01 -0.0157636 0
0.00297497 -5.14144e-06 0
0.01 -0.00873861 0
0.00648748 -0.0078844 0
0.00648748 -0.00437188 0
0.01 -0.0122511 0
0.01 -0.0157636 0
0.01 -0.016933 0
0.00883065 -5.14144e-06 0
0.01 -0.0163483 0
0.00941532 -0.00846907 0
0.00941532 -0.0078844 0

VECTORS disp float
-0.0001316 -0.000143146  0
9.6232e-05 0.000272781  0
0.000376345 0.00164652  0
-1.76841e-05 6.48172e-05  0
0.000236289 0.000959648  0
0.000122372 0.000751684  0
-4.76361e-05 1.12664e-05  0
0.000286228 0.00136761  0
-5.57442e-05 -0.000126552  0
0.000119296 0.000689439  0
0.000115242 0.000620529  0
-5.16901e-05 -5.7643e-05  0
0.00015663 0.000926346  0
0.000426364 0.00145699  0
0.00067326 0.00204147  0
0.000291497 0.00119167  0
0.000549812 0.00174923  0
0.000414945 0.00148391  0
0.000175449 0.000951172  0
-0.00010732 -0.000124637  0
0.000337236 0.00135841  0
3.40646e-05 0.000413267  0
0.000114958 0.000616887  0
0.000256342 0.00115479  0
0.000186479 0.000951242  0
0.000609589 0.00198087  0
5.46856e-05 0.000609748  0
0.000398034 0.00146606  0
0.000332137 0.00129531  0
0.000120582 0.000780495  0
0.00016081 0.000919426  0
9.95052e-05 0.000679421  0
-4.28777e-05 -1.51612e-05  0
0.000130158 0.000799424  0
2.83138e-05 0.00033213  0
5.89661e-05 0.000452132  0
0.00125585 0.00242971  0
0.000243924 0.00149895  0
0.000332398 0.000620238  0
0.000749886 0.00196433  0
0.000288161 0.00105959  0
0.000794123 0.00152498  0
0.00123515 0.00234745  0
0.0020216 0.00345075  0
0.000327393 0.00150686  0
0.00162838 0.0028991  0
0.0011745 0.0024788  0
0.00078127 0.00192715  0
0.0011428 0.00265617  0
0.000649893 0.00200683  0
0.000454951 0.00150738  0
0.000896348 0.0023315  0
0.000552422 0.00175711  0
0.000798877 0.00208177  0
0.00115956 0.00265871  0
0.000398895 0.00152611  0
0.00196192 0.00342424  0
0.000779227 0.00209241  0
0.00118041 0.00247517  0
0.00156074 0.00304147  0
0.00116163 0.00265709  0
0.00183597 0.00369882  0
0.000603139 0.0020048  0
0.0014988 0.00317796  0
0.00121956 0.00285181  0
0.000882384 0.00233094  0
0.00115411 0.00266792  0
0.00198716 0.0033974  0
0.00186199 0.00369269  0
0.00157063 0.00303266  0
0.00192457 0.00354504  0
0.00150805 0.00318031  0
-9.24223e-06 -1.08934e-05  0
6.86346e-05 0.000586967  0
-1.3054e-05 -4.59715e-05  0
2.96962e-05 0.000288037  0
2.77903e-05 0.000270498  0
-1.11481e-05 -2.84324e-05  0
-1.37471e-05 -3.28477e-05  0
-7.94801e-06 1.36398e-05  0
7.47778e-05 0.000648731  0
-1.08475e-05 -9.60394e-06  0
3.34149e-05 0.000331185  0
3.05154e-05 0.000307941  0
5.60863e-05 0.000491528  0
-2.8907e-05 -7.47576e-05  0
8.55238e-05 0.000616446  0
1.35896e-05 0.000208385  0
2.83084e-05 0.000270844  0
7.0805e-05 0.000553987  0
4.9268e-05 0.000479099  0
0.000107254 0.000664305  0
0.000243652 0.00125524  0
7.82608e-05 0.000571702  0
0.000175453 0.000959773  0
0.00014646 0.00086717  0
5.34846e-05 0.000479308  0
3.68094e-05 0.00039624  0
-1.42304e-05 -3.4264e-05  0
4.5147e-05 0.000437774  0
1.12895e-05 0.000180988  0
1.96271e-05 0.000222522  0
5.93108e-05 0.000492311  0
0.000220971 0.00121956  0
2.05532e-05 0.000366465  0
0.000140141 0.000855935  0
0.000120762 0.000793012  0
3.9932e-05 0.000429388  0
0.000397199 0.00156334  0
5.01778e-05 0.000617515  0
0.000613897 0.00196894  0
0.000223689 0.00109043  0
0.000332037 0.00129323  0
0.000505548 0.00176614  0
0.000384454 0.00155159  0
0.000250295 0.00126445  0
9.70859e-05 0.000657384  0
0.000317375 0.00140802  0
0.00017369 0.000960917  0
0.00024077 0.00110449  0
0.000383619 0.00155559  0
0.00066601 0.002003  0
0.000813848 0.00256569  0
0.000524814 0.00177929  0
0.000739929 0.00228434  0
0.000598733 0.00206064  0
0.000400565 0.00156481  0
0.000772523 0.00254258  0
0.000213257 0.00123654  0
0.000586544 0.00205369  0
0.00049289 0.00188956  0
0.000306911 0.00140068  0
0.000515269 0.0021922  0
0.000806171 0.00255158  0
0.000856911 0.0032263  0
0.00066072 0.00237189  0
0.000831541 0.00288894  0
0.00068609 0.00270925  0
0.000525709 0.00219504  0
0.00021627 0.00123874  0
0.000769502 0.00253847  0
0.00037099 0.00171689  0
0.000492886 0.0018886  0
0.000647606 0.00236675  0
0.00052727 0.00219571  0
0.000825654 0.00321778  0
0.000309079 0.00192448  0
0.000676462 0.00270674  0
0.000567366 0.00257113  0
0.000418174 0.0020601  0
0.000515591 0.00219029  0
0.000338785 0.00193568  0
0.00025116 0.00125505  0
0.000427188 0.00206298  0
0.000294973 0.00159536  0
0.000383376 0.00172267  0
0.00123016 0.00361365  0
0.000845975 0.00322265  0
0.000816966 0.00255755  0
0.00103807 0.00341815  0
0.00083147 0.0028901  0
0.00102356 0.0030856  0
0.001241 0.0036132  0
0.000781514 0.00256017  0
0.00174014 0.004092  0
0.00101125 0.00308669  0
0.00126083 0.00332609  0
0.00149057 0.0038526  0
0.00124159 0.00361373  0
0.00164787 0.00471356  0
0.000815296 0.00322475  0
0.00144473 0.00416365  0
0.00123158 0.00396915  0
0.00102844 0.00341924  0
0.0012314 0.00361602  0
0.00177248 0.00408533  0
0.00167601 0.00470804  0
0.00150194 0.00385068  0
0.00172425 0.00439669  0
0.00145371 0.00416203  0
0.00121314 0.00306008  0
0.000800281 0.00255351  0
0.000680092 0.00202032  0
0.00100671 0.00280679  0
0.000740186 0.00228691  0
0.000946617 0.0025402  0
0.00122809 0.00306083  0
0.00175816 0.00410119  0
0.000762425 0.00255232  0
0.00149313 0.00358101  0
0.00126029 0.00332676  0
0.000995259 0.00280658  0
0.00122752 0.00306089  0
0.000634148 0.00202312  0
0.00180884 0.00367727  0
0.000930835 0.00254201  0
0.0012215 0.00285019  0
0.00151818 0.00336908  0
0.00121716 0.00306461  0
0.00184677 0.00366566  0
0.00178997 0.00409526  0
0.00153196 0.00336514  0
0.00181837 0.00388046  0
0.00150356 0.00357993  0
0.000153571 0.00106697  0
0.000316278 0.00191204  0
7.28843e-05 0.000929804  0
0.000234925 0.00148951  0
0.000194581 0.00142092  0
0.000113228 0.000998389  0
0.00014417 0.00106029  0
0.000252305 0.0012594  0
0.000339122 0.00192948  0
0.000198237 0.00115985  0
0.000295714 0.00159444  0
0.000241646 0.00149489  0
0.000146362 0.00105983  0
9.19319e-05 0.000945281  0
3.34309e-05 0.000373801  0
0.000119147 0.00100256  0
6.26814e-05 0.000659541  0
8.98966e-05 0.000716817  0
0.000151375 0.00106652  0
1.3556e-05 0.000351166  0
0.000228064 0.00123449  0
8.24655e-05 0.000708842  0
0.00012081 0.000792826  0
0.00018972 0.0011505  0
0.000558348 0.00295185  0
0.000314522 0.00192343  0
0.000820283 0.00321799  0
0.000436435 0.00243764  0
0.000567402 0.00257071  0
0.000689315 0.00308492  0
0.000549994 0.00295032  0
0.000341532 0.00275701  0
0.000343043 0.00192903  0
0.000445763 0.00285367  0
0.000342287 0.00234302  0
0.000446519 0.00243968  0
0.000549594 0.00295158  0
0.000849245 0.0032222  0
0.000802493 0.0040622  0
0.00069942 0.00308689  0
0.000825869 0.0036422  0
0.000676044 0.00350689  0
0.000559383 0.00295248  0
0.000776673 0.00406051  0
0.000316059 0.00275418  0
0.000668028 0.00350649  0
0.000546366 0.00340734  0
0.000437721 0.00285333  0
0.000199514 0.00177278  0
7.1507e-05 0.000919205  0
0.000317747 0.00192221  0
0.000135511 0.00134599  0
0.000194627 0.00142071  0
0.000258631 0.0018475  0
0.000192418 0.0017705  0
0.000340894 0.00193329  0
0.00034451 0.00275161  0
0.000266656 0.00185189  0
0.000342702 0.00234245  0
0.000268464 0.00226106  0
0.000193691 0.0017699  0
9.80224e-05 0.00167576  0
9.24957e-05 0.000929207  0
0.000145857 0.00172283  0
9.5259e-05 0.00130248  0
0.000143093 0.00134956  0
0.000200964 0.0017732  0
0.000322677 0.00274489  0
7.80346e-05 0.00167011  0
0.00026182 0.00225904  0
0.000200356 0.0022075  0
0.000139499 0.00172166  0
-4.56387e-06 -2.12148e-05  0
-2.59748e-06 -4.05204e-06  0
2.75001e-05 0.000366602  0
-3.58067e-06 -1.26334e-05  0
1.24513e-05 0.000181275  0
1.14681e-05 0.000172694  0
-3.17369e-06 -1.36303e-05  0
2.43335e-05 0.000344324  0
-5.10651e-06 -2.5751e-05  0
1.05799e-05 0.000165347  0
9.61348e-06 0.000159287  0
-4.1401e-06 -1.96906e-05  0
1.59806e-05 0.000324353  0
3.90814e-05 0.000392867  0
8.7784e-05 0.000925857  0
2.7531e-05 0.00035861  0
6.34327e-05 0.000659362  0
5.18823e-05 0.000625105  0
1.91235e-05 0.000329036  0
-1.04904e-05 -5.4572e-05  0
3.02648e-05 0.000373751  0
4.31653e-06 0.000137232  0
9.8872e-06 0.000159589  0
2.46942e-05 0.000351393  0
2.07132e-05 0.000329459  0
7.72355e-05 0.00091176  0
2.58068e-06 0.000287885  0
4.89743e-05 0.00062061  0
3.99081e-05 0.000599823  0
1.1647e-05 0.000308672  0
1.82512e-05 0.000324611  0
1.05807e-05 0.000297798  0
-4.24584e-06 -4.01128e-05  0
1.4416e-05 0.000311204  0
3.16742e-06 0.000128842  0
7.00269e-06 0.000142249  0
0.00271442 0.00435956  0
0.00337575 0.00530155  0
0.00183894 0.00369251  0
0.00304508 0.00483055  0
0.00260734 0.00449703  0
0.00227668 0.00402603  0
0.00271527 0.00437195  0
0.00183537 0.00368303  0
0.00202298 0.00340635  0
0.00227532 0.00402749  0
0.00192917 0.00354469  0
0.00236912 0.00388915  0
0.00249187 0.00467173  0
0.00186024 0.00369169  0
0.00335422 0.00530136  0
0.00217605 0.00418171  0
0.00260723 0.00449653  0
0.00292304 0.00498654  0
0.00248602 0.00467614  0
0.0017657 0.0040879  0
0.00187408 0.00367418  0
0.00212586 0.00438202  0
0.00181989 0.00388104  0
0.00218005 0.00417516  0
0.00248735 0.00467586  0
0.00336733 0.00528592  0
0.00307889 0.00568151  0
0.00292734 0.00498089  0
0.00322311 0.00548371  0
0.00278312 0.00517868  0
0.00249195 0.00467004  0
0.00306201 0.00569479  0
0.00174742 0.0041022  0
0.00277698 0.00518241  0
0.00240472 0.0048985  0
0.00211968 0.00438612  0
0.00229052 0.00516655  0
0.00274714 0.00628701  0
0.00163475 0.00471617  0
0.00251883 0.00572678  0
0.00219094 0.00550159  0
0.00196264 0.00494136  0
0.00228277 0.00517066  0
0.00165731 0.00470419  0
0.00179222 0.0040903  0
0.00197004 0.00493742  0
0.00172477 0.00439724  0
0.0020375 0.00463048  0
0.00228376 0.00517155  0
0.00306144 0.00567775  0
0.00276758 0.00627433  0
0.0026726 0.00542465  0
0.00291451 0.00597604  0
0.00252567 0.00572294  0
0.00229037 0.00516678  0
0.00176945 0.00410426  0
0.00304092 0.00569233  0
0.00202991 0.00463552  0
0.00240518 0.0048983  0
0.00266565 0.00542956  0
0.00117534 0.00434881  0
0.000829416 0.00322774  0
0.00163417 0.00470998  0
0.00100238 0.00378828  0
0.00123179 0.00396886  0
0.00140476 0.00452939  0
0.00116688 0.00435147  0
0.00166157 0.00470396  0
0.00149739 0.00552769  0
0.00141422 0.00452772  0
0.00157948 0.00511583  0
0.00133213 0.00493958  0
0.00116654 0.00435005  0
0.000793104 0.00406191  0
0.0008584 0.00322378  0
0.000979824 0.00420598  0
0.000825752 0.00364284  0
0.00101247 0.00378691  0
0.00117586 0.00434938  0
0.00147285 0.00553368  0
0.000767158 0.00406614  0
0.00132436 0.00494153  0
0.00112001 0.00479991  0
0.000971511 0.00420776  0
0.00205777 0.00587399  0
0.00165332 0.00471777  0
0.00272911 0.00628525  0
0.00185555 0.00529588  0
0.00219122 0.00550151  0
0.00239344 0.00607962  0
0.00205041 0.00587746  0
0.00148243 0.00552611  0
0.00167682 0.00470637  0
0.00176642 0.00570179  0
0.00157962 0.00511624  0
0.00186361 0.00529192  0
0.00205079 0.0058784  0
0.00275078 0.00627304  0
0.00242337 0.00708222  0
0.00240078 0.00607572  0
0.00258707 0.00667763  0
0.00223708 0.00648031  0
0.00205803 0.00587429  0
0.00240289 0.00709355  0
0.00146026 0.00553666  0
0.00223046 0.00648392  0
0.00193158 0.0063151  0
0.00175915 0.00570547  0
0.00399532 0.00627247  0
0.00306063 0.00568118  0
0.00338677 0.00528603  0
0.00352798 0.00597683  0
0.0032237 0.0054836  0
0.00369105 0.00577925  0
0.00400006 0.00626677  0
0.00457497 0.0072929  0
0.00304643 0.00569358  0
0.00428751 0.00677983  0
0.0038107 0.00649324  0
0.00352325 0.00598017  0
0.00359223 0.00676346  0
0.0027483 0.00627375  0
0.00308136 0.00567842  0
0.00317027 0.00651861  0
0.00291483 0.00597609  0
0.0033368 0.00622094  0
0.00359787 0.00675882  0
0.00306483 0.00569288  0
0.00455627 0.00729343  0
0.00333135 0.00622585  0
0.00381055 0.00649316  0
0.00407707 0.00702612  0
0.00359796 0.00675853  0
0.00407073 0.00788966  0
0.00273103 0.00628789  0
0.00383435 0.0073241  0
0.00340088 0.00708877  0
0.00316449 0.00652321  0
0.00359232 0.00676334  0
0.00457288 0.00727937  0
0.00408783 0.00787575  0
0.0040826 0.00702135  0
0.00433035 0.00757756  0
0.00384007 0.00731955  0
-6.42631e-07 -1.4629e-05  0
5.79676e-06 0.000263688  0
-1.718e-06 -1.7008e-05  0
2.57707e-06 0.000124529  0
2.03938e-06 0.00012334  0
-1.18031e-06 -1.58185e-05  0
-1.33013e-06 -1.65714e-05  0
-3.10665e-07 -1.14213e-05  0
7.61302e-06 0.000269452  0
-8.204e-07 -1.39963e-05  0
3.65118e-06 0.000129015  0
3.14144e-06 0.00012644  0
2.77653e-07 0.000285576  0
-2.21183e-06 -4.51269e-05  0
6.82781e-06 0.000291942  0
-9.67089e-07 0.000120225  0
2.30799e-06 0.000123408  0
3.55273e-06 0.000288759  0
-1.74494e-06 0.000285628  0
1.28942e-05 0.000295441  0
3.87162e-06 0.000831758  0
5.57462e-06 0.000290534  0
8.3829e-06 0.000563599  0
1.06334e-06 0.000558693  0
-2.77653e-07 0.000285576  0
-6.82781e-06 0.000291942  0
2.21183e-06 -4.51269e-05  0
-3.55273e-06 0.000288759  0
-2.30799e-06 0.000123408  0
9.67089e-07 0.000120225  0
1.74494e-06 0.000285628  0
-3.87162e-06 0.000831758  0
-1.28942e-05 0.000295441  0
-1.06334e-06 0.000558693  0
-8.3829e-06 0.000563599  0
-5.57462e-06 0.000290534  0
4.11044e-05 0.000877948  0
-4.60015e-08 0.000267257  0
8.01843e-05 0.000932496  0
2.05292e-05 0.000572603  0
4.00691e-05 0.000599877  0
6.06444e-05 0.000905222  0
3.82821e-05 0.000875938  0
4.45722e-06 0.000853314  0
1.16087e-05 0.000273999  0
2.13697e-05 0.000864626  0
8.03295e-06 0.000563656  0
2.49454e-05 0.000574968  0
3.66257e-05 0.000876014  0
9.40681e-05 0.000942363  0
9.73968e-05 0.00166206  0
6.53469e-05 0.000909189  0
9.57324e-05 0.00130221  0
6.70112e-05 0.00126903  0
4.26576e-05 0.000878128  0
8.27025e-05 0.00165643  0
-8.24101e-06 0.000850707  0
6.26801e-05 0.00126728  0
3.72308e-05 0.00125357  0
1.72083e-05 0.000864418  0
-3.60597e-06 0.00164916  0
0.00010098 0.00167393  0
9.15036e-06 0.00260338  0
4.86871e-05 0.00166155  0
5.50652e-05 0.00213865  0
2.77219e-06 0.00212627  0
2.27956e-06 0.00164882  0
-8.3949e-06 0.000836081  0
8.33134e-05 0.00167115  0
-3.05767e-06 0.00124245  0
3.74593e-05 0.00125361  0
4.27965e-05 0.00165999  0
3.60597e-06 0.00164916  0
-9.15036e-06 0.00260338  0
-0.00010098 0.00167393  0
-2.77219e-06 0.00212627  0
-5.50652e-05 0.00213865  0
-4.86871e-05 0.00166155  0
-2.27956e-06 0.00164882  0
-8.33134e-05 0.00167115  0
8.3949e-06 0.000836081  0
-4.27965e-05 0.00165999  0
-3.74593e-05 0.00125361  0
3.05767e-06 0.00124245  0
0.00015452 0.00265385  0
8.58632e-06 0.0026126  0
0.000100978 0.0016651  0
8.15533e-05 0.00263322  0
5.47821e-05 0.00213885  0
0.000127749 0.00215947  0
0.000160739 0.00265459  0
7.92054e-05 0.00166238  0
0.00032173 0.00275247  0
0.000119972 0.00215848  0
0.000200468 0.00220742  0
0.000241235 0.00270353  0
0.000161803 0.00265511  0
0.00021995 0.00375298  0
-1.24376e-05 0.00261233  0
0.000190877 0.00320405  0
0.000103756 0.00318265  0
7.46829e-05 0.00263372  0
0.00015358 0.0026545  0
0.000344049 0.00275621  0
0.000241312 0.00375432  0
0.000248815 0.00270535  0
0.00029268 0.00325526  0
0.000197446 0.00320441  0
-4.11044e-05 0.000877948  0
-8.01843e-05 0.000932496  0
4.60015e-08 0.000267257  0
-6.06444e-05 0.000905222  0
-4.00691e-05 0.000599877  0
-2.05292e-05 0.000572603  0
-3.82821e-05 0.000875938  0
-1.16087e-05 0.000273999  0
-4.45722e-06 0.000853314  0
-2.49454e-05 0.000574968  0
-8.03295e-06 0.000563656  0
-2.13697e-05 0.000864626  0
-3.66257e-05 0.000876014  0
-9.73968e-05 0.00166206  0
-9.40681e-05 0.000942363  0
-6.70112e-05 0.00126903  0
-9.57324e-05 0.00130221  0
-6.53469e-05 0.000909189  0
-4.26576e-05 0.000878128  0
8.24101e-06 0.000850707  0
-8.27025e-05 0.00165643  0
-1.72083e-05 0.000864418  0
-3.72308e-05 0.00125357  0
-6.26801e-05 0.00126728  0
6.42631e-07 -1.4629e-05  0
1.718e-06 -1.7008e-05  0
-5.79676e-06 0.000263688  0
1.18031e-06 -1.58185e-05  0
-2.03938e-06 0.00012334  0
-2.57707e-06 0.000124529  0
1.33013e-06 -1.65714e-05  0
-7.61302e-06 0.000269452  0
3.10665e-07 -1.14213e-05  0
-3.14144e-06 0.00012644  0
-3.65118e-06 0.000129015  0
8.204e-07 -1.39963e-05  0
-2.07132e-05 0.000329459  0
-2.58068e-06 0.000287885  0
-7.72355e-05 0.00091176  0
-1.1647e-05 0.000308672  0
-3.99081e-05 0.000599823  0
-4.89743e-05 0.00062061  0
-1.82512e-05 0.000324611  0
4.24584e-06 -4.01128e-05  0
-1.05807e-05 0.000297798  0
-7.00269e-06 0.000142249  0
-3.16742e-06 0.000128842  0
-1.4416e-05 0.000311204  0
-1.59806e-05 0.000324353  0
-8.7784e-05 0.000925857  0
-3.90814e-05 0.000392867  0
-5.18823e-05 0.000625105  0
-6.34327e-05 0.000659362  0
-2.7531e-05 0.00035861  0
-1.91235e-05 0.000329036  0
-3.02648e-05 0.000373751  0
1.04904e-05 -5.4572e-05  0
-2.46942e-05 0.000351393  0
-9.8872e-06 0.000159589  0
-4.31653e-06 0.000137232  0
-0.00015452 0.00265385  0
-0.000100978 0.0016651  0
-8.58632e-06 0.0026126  0
-0.000127749 0.00215947  0
-5.47821e-05 0.00213885  0
-8.15533e-05 0.00263322  0
-0.000160739 0.00265459  0
-0.00032173 0.00275247  0
-7.92054e-05 0.00166238  0
-0.000241235 0.00270353  0
-0.000200468 0.00220742  0
-0.000119972 0.00215848  0
-0.000161803 0.00265511  0
1.24376e-05 0.00261233  0
-0.00021995 0.00375298  0
-7.46829e-05 0.00263372  0
-0.000103756 0.00318265  0
-0.000190877 0.00320405  0
-0.00015358 0.0026545  0
-0.000241312 0.00375432  0
-0.000344049 0.00275621  0
-0.000197446 0.00320441  0
-0.00029268 0.00325526  0
-0.000248815 0.00270535  0
-0.000193691 0.0017699  0
-9.24957e-05 0.000929207  0
-9.80224e-05 0.00167576  0
-0.000143093 0.00134956  0
-9.5259e-05 0.00130248  0
-0.000145857 0.00172283  0
-0.000200964 0.0017732  0
-7.80346e-05 0.00167011  0
-0.000322677 0.00274489  0
-0.000139499 0.00172166  0
-0.000200356 0.0022075  0
-0.00026182 0.00225904  0
-0.000199514 0.00177278  0
-0.000317747 0.00192221  0
-7.1507e-05 0.000919205  0
-0.000258631 0.0018475  0
-0.000194627 0.00142071  0
-0.000135511 0.00134599  0
-0.000192418 0.0017705  0
-0.00034451 0.00275161  0
-0.000340894 0.00193329  0
-0.000268464 0.00226106  0
-0.000342702 0.00234245  0
-0.000266656 0.00185189  0
0.000481292 0.00387935  0
0.000795927 0.00406223  0
0.000646927 0.00508379  0
0.000638609 0.00397079  0
0.000721427 0.00457301  0
0.000564109 0.00448157  0
0.000489097 0.00387839  0
0.000321674 0.00275215  0
0.000771205 0.00406223  0
0.000405385 0.00331527  0
0.000546439 0.00340719  0
0.000630151 0.00397031  0
0.000489842 0.00387905  0
0.000624306 0.00508515  0
0.000215059 0.00375955  0
0.000557074 0.0044821  0
0.000419683 0.00442235  0
0.000352451 0.0038193  0
0.000481723 0.00387838  0
0.000238118 0.00375857  0
0.000346747 0.00275266  0
0.000359921 0.00381847  0
0.000292433 0.00325561  0
0.000414235 0.00331552  0
0.00101495 0.00527798  0
0.000639307 0.00508466  0
0.000803306 0.00406215  0
0.000827128 0.00518132  0
0.000721307 0.0045734  0
0.000909127 0.00467007  0
0.00102242 0.00527639  0
0.000778389 0.00406692  0
0.00146186 0.0055327  0
0.000900405 0.00467165  0
0.00112013 0.00479981  0
0.00124214 0.00540454  0
0.00102286 0.00527704  0
0.00122165 0.00655314  0
0.00061664 0.0050897  0
0.00112225 0.00591509  0
0.000919143 0.00582142  0
0.000819752 0.00518337  0
0.0010149 0.00527904  0
0.00148549 0.00552685  0
0.00124306 0.00654714  0
0.00125019 0.00540294  0
0.00136427 0.006037  0
0.00112898 0.00591309  0
3.30136e-06 0.00372886  0
-1.13697e-05 0.0026074  0
0.000219197 0.00375807  0
-4.03415e-06 0.00316813  0
0.000103914 0.00318274  0
0.000111249 0.00374347  0
-4.03e-06 0.00372956  0
0.000241198 0.00375901  0
1.05553e-05 0.00493928  0
0.000118584 0.00374429  0
0.000125876 0.00434915  0
3.26265e-06 0.00433442  0
-3.30136e-06 0.00372886  0
-0.000219197 0.00375807  0
1.13697e-05 0.0026074  0
-0.000111249 0.00374347  0
-0.000103914 0.00318274  0
4.03415e-06 0.00316813  0
4.03e-06 0.00372956  0
-1.05553e-05 0.00493928  0
-0.000241198 0.00375901  0
-3.26265e-06 0.00433442  0
-0.000125876 0.00434915  0
-0.000118584 0.00374429  0
0.00030758 0.00498508  0
0.000219394 0.00375776  0
0.000620164 0.00508699  0
0.000263487 0.00437142  0
0.000419779 0.00442238  0
0.000463872 0.00503604  0
0.000300827 0.00498549  0
9.02435e-06 0.00494201  0
0.000242424 0.00375671  0
0.000154926 0.00496375  0
0.000125724 0.00434936  0
0.000271626 0.0043711  0
0.000300413 0.00498636  0
0.000642125 0.00508578  0
0.000384011 0.00628338  0
0.000471269 0.00503607  0
0.000513068 0.00568458  0
0.000342212 0.00563487  0
0.000308109 0.00498584  0
0.000363765 0.00628507  0
-1.23684e-05 0.00494359  0
0.000335937 0.00563546  0
0.000175698 0.00561433  0
0.00014787 0.00496472  0
-3.43851e-06 0.00626068  0
0.00038178 0.00628627  0
8.95043e-06 0.0076376  0
0.000189171 0.00627347  0
0.000195365 0.00696193  0
2.75596e-06 0.00694914  0
3.08799e-06 0.00625981  0
-1.06049e-05 0.00494251  0
0.000362199 0.00628644  0
-3.75847e-06 0.00560116  0
0.000175797 0.00561447  0
0.000182643 0.00627313  0
3.43851e-06 0.00626068  0
-8.95043e-06 0.0076376  0
-0.00038178 0.00628627  0
-2.75596e-06 0.00694914  0
-0.000195365 0.00696193  0
-0.000189171 0.00627347  0
-3.08799e-06 0.00625981  0
-0.000362199 0.00628644  0
1.06049e-05 0.00494251  0
-0.000182643 0.00627313  0
-0.000175797 0.00561447  0
3.75847e-06 0.00560116  0
0.000431955 0.00767383  0
7.01926e-06 0.00763847  0
0.000383533 0.00628578  0
0.000219487 0.00765615  0
0.000195276 0.00696213  0
0.000407744 0.0069798  0
0.000437427 0.00767292  0
0.000364532 0.00628844  0
0.00088509 0.00775541  0
0.00040098 0.00698068  0
0.000624811 0.00702192  0
0.000661258 0.00771417  0
0.000437692 0.00767379  0
0.000480336 0.00911195  0
-1.00713e-05 0.00764081  0
0.000459014 0.00839287  0
0.000235132 0.00837638  0
0.00021381 0.0076573  0
0.000431708 0.00767472  0
0.000902371 0.00775222  0
0.000495683 0.00910909  0
0.00066704 0.00771347  0
0.000699027 0.00843065  0
0.000463696 0.00839191  0
0.000770929 0.00639212  0
0.000378845 0.0062844  0
0.000647078 0.00508527  0
0.000574887 0.00633826  0
0.000512961 0.00568484  0
0.000709003 0.0057387  0
0.000777717 0.00639141  0
0.000890524 0.00775483  0
0.000358961 0.00628877  0
0.00083412 0.00707312  0
0.000624742 0.0070218  0
0.000568339 0.00634009  0
0.000777374 0.00639064  0
0.000625234 0.00508964  0
0.00121322 0.00655327  0
0.000701304 0.00574014  0
0.000919227 0.00582145  0
0.000995298 0.00647195  0
0.000770734 0.00639304  0
0.00123363 0.00654821  0
0.000908957 0.00774984  0
0.00100218 0.00647063  0
0.00107129 0.00714903  0
0.000839845 0.00707144  0
-0.000300413 0.00498636  0
-0.000384011 0.00628338  0
-0.000642125 0.00508578  0
-0.000342212 0.00563487  0
-0.000513068 0.00568458  0
-0.000471269 0.00503607  0
-0.000308109 0.00498584  0
1.23684e-05 0.00494359  0
-0.000363765 0.00628507  0
-0.00014787 0.00496472  0
-0.000175698 0.00561433  0
-0.000335937 0.00563546  0
-0.00030758 0.00498508  0
-0.000620164 0.00508699  0
-0.000219394 0.00375776  0
-0.000463872 0.00503604  0
-0.000419779 0.00442238  0
-0.000263487 0.00437142  0
-0.000300827 0.00498549  0
-0.000242424 0.00375671  0
-9.02435e-06 0.00494201  0
-0.000271626 0.0043711  0
-0.000125724 0.00434936  0
-0.000154926 0.00496375  0
-0.000431955 0.00767383  0
-0.000383533 0.00628578  0
-7.01926e-06 0.00763847  0
-0.000407744 0.0069798  0
-0.000195276 0.00696213  0
-0.000219487 0.00765615  0
-0.000437427 0.00767292  0
-0.00088509 0.00775541  0
-0.000364532 0.00628844  0
-0.000661258 0.00771417  0
-0.000624811 0.00702192  0
-0.00040098 0.00698068  0
-0.000437692 0.00767379  0
1.00713e-05 0.00764081  0
-0.000480336 0.00911195  0
-0.00021381 0.0076573  0
-0.000235132 0.00837638  0
-0.000459014 0.00839287  0
-0.000431708 0.00767472  0
-0.000495683 0.00910909  0
-0.000902371 0.00775222  0
-0.000463696 0.00839191  0
-0.000699027 0.00843065  0
-0.00066704 0.00771347  0
-0.000770929 0.00639212  0
-0.000647078 0.00508527  0
-0.000378845 0.0062844  0
-0.000709003 0.0057387  0
-0.000512961 0.00568484  0
-0.000574887 0.00633826  0
-0.000777717 0.00639141  0
-0.000358961 0.00628877  0
-0.000890524 0.00775483  0
-0.000568339 0.00634009  0
-0.000624742 0.0070218  0
-0.00083412 0.00707312  0
-0.000777374 0.00639064  0
-0.00121322 0.00655327  0
-0.000625234 0.00508964  0
-0.000995298 0.00647195  0
-0.000919227 0.00582145  0
-0.000701304 0.00574014  0
-0.000770734 0.00639304  0
-0.000908957 0.00774984  0
-0.00123363 0.00654821  0
-0.000839845 0.00707144  0
-0.00107129 0.00714903  0
-0.00100218 0.00647063  0
-0.000489842 0.00387905  0
-0.000215059 0.00375955  0
-0.000624306 0.00508515  0
-0.000352451 0.0038193  0
-0.000419683 0.00442235  0
-0.000557074 0.0044821  0
-0.000481723 0.00387838  0
-0.000346747 0.00275266  0
-0.000238118 0.00375857  0
-0.000414235 0.00331552  0
-0.000292433 0.00325561  0
-0.000359921 0.00381847  0
-0.000481292 0.00387935  0
-0.000646927 0.00508379  0
-0.000795927 0.00406223  0
-0.000564109 0.00448157  0
-0.000721427 0.00457301  0
-0.000638609 0.00397079  0
-0.000489097 0.00387839  0
-0.000771205 0.00406223  0
-0.000321674 0.00275215  0
-0.000630151 0.00397031  0
-0.000546439 0.00340719  0
-0.000405385 0.00331527  0
0.00142038 0.00790222  0
0.00122318 0.0065565  0
0.00200048 0.00810588  0
0.00132178 0.00722936  0
0.00161183 0.00733119  0
0.00171043 0.00800405  0
0.0014146 0.00790493  0
0.000899799 0.00775009  0
0.00124265 0.00654843  0
0.0011572 0.00782751  0
0.00107123 0.00714926  0
0.00132863 0.00722668  0
0.00141448 0.00790573  0
0.00201847 0.00809711  0
0.00158822 0.0092984  0
0.00171647 0.00800142  0
0.00180334 0.00869775  0
0.00150135 0.00860206  0
0.00142058 0.00790294  0
0.00157202 0.00930682  0
0.000882123 0.00775783  0
0.0014963 0.00860488  0
0.00122707 0.00853232  0
0.00115135 0.00783039  0
0.00177115 0.00679084  0
0.00201281 0.00810612  0
0.00121071 0.00655612  0
0.00189198 0.00744848  0
0.00161176 0.00733112  0
0.00149093 0.00667348  0
0.00176421 0.00679346  0
0.00123102 0.00654675  0
0.00149753 0.00552785  0
0.00149761 0.00667011  0
0.00136427 0.0060373  0
0.00163087 0.00616065  0
0.00176426 0.0067943  0
0.00240828 0.00708211  0
0.0020317 0.00809604  0
0.00208627 0.0069382  0
0.00221999 0.00758907  0
0.00189798 0.00744517  0
0.0017709 0.00679031  0
0.00147561 0.00553759  0
0.00238784 0.0070926  0
0.00162325 0.00616395  0
0.00193172 0.0063151  0
0.00207937 0.00694146  0
0.00100584 0.0091881  0
0.00108484 0.0106676  0
0.000475275 0.00911502  0
0.00104534 0.00992784  0
0.000780058 0.0098913  0
0.00074056 0.00915156  0
0.00100099 0.00918919  0
0.000489834 0.00910969  0
0.000908041 0.00775199  0
0.000745413 0.00914944  0
0.000698938 0.00843084  0
0.000954516 0.00847059  0
0.00100075 0.00919001  0
0.00157742 0.00930081  0
0.00109768 0.0106617  0
0.00128909 0.00924541  0
0.00133755 0.00998123  0
0.00104922 0.00992583  0
0.00100568 0.00918721  0
0.000891565 0.00775775  0
0.00156265 0.00930718  0
0.000948621 0.00847248  0
0.00122711 0.00853247  0
0.00128416 0.0092472  0
2.2397e-06 0.00909306  0
-8.05808e-06 0.00764041  0
0.000478462 0.0091127  0
-2.90919e-06 0.00836674  0
0.000235202 0.00837656  0
0.000240351 0.00910288  0
-2.4953e-06 0.00909398  0
0.000492668 0.00911222  0
6.13961e-06 0.010589  0
0.000245086 0.0091031  0
0.000249404 0.00985062  0
1.82216e-06 0.0098415  0
-2.2397e-06 0.00909306  0
-0.000478462 0.0091127  0
8.05808e-06 0.00764041  0
-0.000240351 0.00910288  0
-0.000235202 0.00837656  0
2.90919e-06 0.00836674  0
2.4953e-06 0.00909398  0
-6.13961e-06 0.010589  0
-0.000492668 0.00911222  0
-1.82216e-06 0.0098415  0
-0.000249404 0.00985062  0
-0.000245086 0.0091031  0
0.000531296 0.0106126  0
0.000481223 0.00911469  0
0.00107898 0.0106683  0
0.000506259 0.00986366  0
0.0007801 0.0098915  0
0.000805136 0.0106405  0
0.000527773 0.0106136  0
4.07727e-06 0.0105897  0
0.000494547 0.00911186  0
0.000265925 0.0106017  0
0.000249312 0.0098508  0
0.00051116 0.00986273  0
0.000527437 0.0106145  0
0.00109041 0.0106651  0
0.000568395 0.0121468  0
0.000808925 0.0106398  0
0.000829404 0.0114059  0
0.000547916 0.0113806  0
0.000531532 0.0106136  0
0.000558866 0.0121496  0
-7.34317e-06 0.0105922  0
0.000545199 0.0113816  0
0.000275761 0.0113709  0
0.000262095 0.0106029  0
0.00223175 0.00948145  0
0.00157548 0.00929845  0
0.00203107 0.00809737  0
0.00190361 0.00938995  0
0.00180327 0.00869791  0
0.00213141 0.00878941  0
0.00223698 0.00947838  0
0.00240943 0.0109042  0
0.00155981 0.00930905  0
0.00232321 0.0101913  0
0.00198462 0.0101066  0
0.0018984 0.00939371  0
0.00223691 0.00947773  0
0.00201394 0.00810827  0
0.00297689 0.00970396  0
0.00212542 0.008793  0
0.00249542 0.00890612  0
0.0026069 0.00959084  0
0.00223159 0.00948201  0
0.00299288 0.0096925  0
0.00242394 0.010893  0
0.00261223 0.00958725  0
0.00270841 0.0102928  0
0.00232777 0.0101875  0
0.00170606 0.0107675  0
0.00108796 0.0106622  0
0.0015869 0.00930056  0
0.00139701 0.0107148  0
0.00133743 0.00998136  0
0.00164648 0.0100341  0
0.00171006 0.0107646  0
0.00157273 0.00930898  0
0.00239647 0.0109046  0
0.00164139 0.0100368  0
0.0019846 0.0101068  0
0.00205326 0.0108346  0
0.00171009 0.0107655  0
0.00180827 0.0122691  0
0.00107557 0.0106701  0
0.00175918 0.0115173  0
0.00144192 0.0114696  0
0.00139283 0.0107178  0
0.00170576 0.0107682  0
0.00240908 0.0108956  0
0.00181906 0.0122607  0
0.00205742 0.0108319  0
0.00211407 0.0115781  0
0.00176241 0.0115144  0
0.0027212 0.00837309  0
0.00201649 0.00809565  0
0.00242353 0.00708283  0
0.00236884 0.00823437  0
0.00222001 0.00758924  0
0.00257236 0.00772796  0
0.00272704 0.00836895  0
0.00240475 0.0070954  0
0.00352836 0.00869466  0
0.00256589 0.00773218  0
0.00296656 0.00789503  0
0.0031277 0.00853181  0
0.0027272 0.00836933  0
0.00299216 0.00970413  0
0.00199862 0.00810793  0
0.00285968 0.00903673  0
0.00249539 0.00890603  0
0.00236291 0.00823863  0
0.00272115 0.00837358  0
0.00354616 0.00868183  0
0.00300908 0.00969155  0
0.00313366 0.00852771  0
0.00327762 0.00918669  0
0.00286511 0.00903256  0
0.00317188 0.00746348  0
0.00240589 0.00708161  0
0.00276857 0.00627396  0
0.00278889 0.00727255  0
0.00258723 0.00667779  0
0.00297022 0.00686872  0
0.00317806 0.00745916  0
0.00354547 0.00869495  0
0.00238744 0.00709503  0
0.00336176 0.00807706  0
0.00296645 0.00789499  0
0.00278275 0.00727709  0
0.00317788 0.00745906  0
0.0027499 0.00628784  0
0.0040521 0.00788971  0
0.00296389 0.00687345  0
0.003401 0.00708877  0
0.00361499 0.00767438  0
0.00317196 0.00746384  0
0.00406991 0.0078759  0
0.00356305 0.00868153  0
0.00362094 0.00766987  0
0.00381648 0.00827871  0
0.00336751 0.00807269  0
-0.000549594 0.00295158  0
-0.000802493 0.0040622  0
-0.000849245 0.0032222  0
-0.000676044 0.00350689  0
-0.000825869 0.0036422  0
-0.00069942 0.00308689  0
-0.000559383 0.00295248  0
-0.000316059 0.00275418  0
-0.000776673 0.00406051  0
-0.000437721 0.00285333  0
-0.000546366 0.00340734  0
-0.000668028 0.00350649  0
-0.000558348 0.00295185  0
-0.000820283 0.00321799  0
-0.000314522 0.00192343  0
-0.000689315 0.00308492  0
-0.000567402 0.00257071  0
-0.000436435 0.00243764  0
-0.000549994 0.00295032  0
-0.000343043 0.00192903  0
-0.000341532 0.00275701  0
-0.000446519 0.00243968  0
-0.000342287 0.00234302  0
-0.000445763 0.00285367  0
-0.00116654 0.00435005  0
-0.0008584 0.00322378  0
-0.000793104 0.00406191  0
-0.00101247 0.00378691  0
-0.000825752 0.00364284  0
-0.000979824 0.00420598  0
-0.00117586 0.00434938  0
-0.000767158 0.00406614  0
-0.00147285 0.00553368  0
-0.000971511 0.00420776  0
-0.00112001 0.00479991  0
-0.00132436 0.00494153  0
-0.00117534 0.00434881  0
-0.00163417 0.00470998  0
-0.000829416 0.00322774  0
-0.00140476 0.00452939  0
-0.00123179 0.00396886  0
-0.00100238 0.00378828  0
-0.00116688 0.00435147  0
-0.00149739 0.00552769  0
-0.00166157 0.00470396  0
-0.00133213 0.00493958  0
-0.00157948 0.00511583  0
-0.00141422 0.00452772  0
-0.00101495 0.00527798  0
-0.000803306 0.00406215  0
-0.000639307 0.00508466  0
-0.000909127 0.00467007  0
-0.000721307 0.0045734  0
-0.000827128 0.00518132  0
-0.00102242 0.00527639  0
-0.00146186 0.0055327  0
-0.000778389 0.00406692  0
-0.00124214 0.00540454  0
-0.00112013 0.00479981  0
-0.000900405 0.00467165  0
-0.00102286 0.00527704  0
-0.00061664 0.0050897  0
-0.00122165 0.00655314  0
-0.000819752 0.00518337  0
-0.000919143 0.00582142  0
-0.00112225 0.00591509  0
-0.0010149 0.00527904  0
-0.00124306 0.00654714  0
-0.00148549 0.00552685  0
-0.00112898 0.00591309  0
-0.00136427 0.006037  0
-0.00125019 0.00540294  0
-0.00052727 0.00219571  0
-0.000309079 0.00192448  0
-0.000825654 0.00321778  0
-0.000418174 0.0020601  0
-0.000567366 0.00257113  0
-0.000676462 0.00270674  0
-0.000515591 0.00219029  0
-0.00025116 0.00125505  0
-0.000338785 0.00193568  0
-0.000383376 0.00172267  0
-0.000294973 0.00159536  0
-0.000427188 0.00206298  0
-0.000515269 0.0021922  0
-0.000856911 0.0032263  0
-0.000806171 0.00255158  0
-0.00068609 0.00270925  0
-0.000831541 0.00288894  0
-0.00066072 0.00237189  0
-0.000525709 0.00219504  0
-0.000769502 0.00253847  0
-0.00021627 0.00123874  0
-0.000647606 0.00236675  0
-0.000492886 0.0018886  0
-0.00037099 0.00171689  0
-0.000153571 0.00106697  0
-7.28843e-05 0.000929804  0
-0.000316278 0.00191204  0
-0.000113228 0.000998389  0
-0.000194581 0.00142092  0
-0.000234925 0.00148951  0
-0.00014417 0.00106029  0
-0.000339122 0.00192948  0
-0.000252305 0.0012594  0
-0.000241646 0.00149489  0
-0.000295714 0.00159444  0
-0.000198237 0.00115985  0
-0.000146362 0.00105983  0
-3.34309e-05 0.000373801  0
-9.19319e-05 0.000945281  0
-8.98966e-05 0.000716817  0
-6.26814e-05 0.000659541  0
-0.000119147 0.00100256  0
-0.000151375 0.00106652  0
-0.000228064 0.00123449  0
-1.3556e-05 0.000351166  0
-0.00018972 0.0011505  0
-0.00012081 0.000792826  0
-8.24655e-05 0.000708842  0
-0.00142038 0.00790222  0
-0.00200048 0.00810588  0
-0.00122318 0.0065565  0
-0.00171043 0.00800405  0
-0.00161183 0.00733119  0
-0.00132178 0.00722936  0
-0.0014146 0.00790493  0
-0.00124265 0.00654843  0
-0.000899799 0.00775009  0
-0.00132863 0.00722668  0
-0.00107123 0.00714926  0
-0.0011572 0.00782751  0
-0.00141448 0.00790573  0
-0.00158822 0.0092984  0
-0.00201847 0.00809711  0
-0.00150135 0.00860206  0
-0.00180334 0.00869775  0
-0.00171647 0.00800142  0
-0.00142058 0.00790294  0
-0.000882123 0.00775783  0
-0.00157202 0.00930682  0
-0.00115135 0.00783039  0
-0.00122707 0.00853232  0
-0.0014963 0.00860488  0
-0.00177115 0.00679084  0
-0.00121071 0.00655612  0
-0.00201281 0.00810612  0
-0.00149093 0.00667348  0
-0.00161176 0.00733112  0
-0.00189198 0.00744848  0
-0.00176421 0.00679346  0
-0.00149753 0.00552785  0
-0.00123102 0.00654675  0
-0.00163087 0.00616065  0
-0.00136427 0.0060373  0
-0.00149761 0.00667011  0
-0.00176426 0.0067943  0
-0.0020317 0.00809604  0
-0.00240828 0.00708211  0
-0.00189798 0.00744517  0
-0.00221999 0.00758907  0
-0.00208627 0.0069382  0
-0.0017709 0.00679031  0
-0.00238784 0.0070926  0
-0.00147561 0.00553759  0
-0.00207937 0.00694146  0
-0.00193172 0.0063151  0
-0.00162325 0.00616395  0
-0.00100584 0.0091881  0
-0.000475275 0.00911502  0
-0.00108484 0.0106676  0
-0.00074056 0.00915156  0
-0.000780058 0.0098913  0
-0.00104534 0.00992784  0
-0.00100099 0.00918919  0
-0.000908041 0.00775199  0
-0.000489834 0.00910969  0
-0.000954516 0.00847059  0
-0.000698938 0.00843084  0
-0.000745413 0.00914944  0
-0.00100075 0.00919001  0
-0.00109768 0.0106617  0
-0.00157742 0.00930081  0
-0.00104922 0.00992583  0
-0.00133755 0.00998123  0
-0.00128909 0.00924541  0
-0.00100568 0.00918721  0
-0.00156265 0.00930718  0
-0.000891565 0.00775775  0
-0.00128416 0.0092472  0
-0.00122711 0.00853247  0
-0.000948621 0.00847248  0
-0.000531296 0.0106126  0
-0.00107898 0.0106683  0
-0.000481223 0.00911469  0
-0.000805136 0.0106405  0
-0.0007801 0.0098915  0
-0.000506259 0.00986366  0
-0.000527773 0.0106136  0
-0.000494547 0.00911186  0
-4.07727e-06 0.0105897  0
-0.00051116 0.00986273  0
-0.000249312 0.0098508  0
-0.000265925 0.0106017  0
-0.000527437 0.0106145  0
-0.000568395 0.0121468  0
-0.00109041 0.0106651  0
-0.000547916 0.0113806  0
-0.000829404 0.0114059  0
-0.000808925 0.0106398  0
-0.000531532 0.0106136  0
7.34317e-06 0.0105922  0
-0.000558866 0.0121496  0
-0.000262095 0.0106029  0
-0.000275761 0.0113709  0
-0.000545199 0.0113816  0
-0.00223175 0.00948145  0
-0.00203107 0.00809737  0
-0.00157548 0.00929845  0
-0.00213141 0.00878941  0
-0.00180327 0.00869791  0
-0.00190361 0.00938995  0
-0.00223698 0.00947838  0
-0.00155981 0.00930905  0
-0.00240943 0.0109042  0
-0.0018984 0.00939371  0
-0.00198462 0.0101066  0
-0.00232321 0.0101913  0
-0.00223691 0.00947773  0
-0.00297689 0.00970396  0
-0.00201394 0.00810827  0
-0.0026069 0.00959084  0
-0.00249542 0.00890612  0
-0.00212542 0.008793  0
-0.00223159 0.00948201  0
-0.00242394 0.010893  0
-0.00299288 0.0096925  0
-0.00232777 0.0101875  0
-0.00270841 0.0102928  0
-0.00261223 0.00958725  0
-0.00170606 0.0107675  0
-0.0015869 0.00930056  0
-0.00108796 0.0106622  0
-0.00164648 0.0100341  0
-0.00133743 0.00998136  0
-0.00139701 0.0107148  0
-0.00171006 0.0107646  0
-0.00239647 0.0109046  0
-0.00157273 0.00930898  0
-0.00205326 0.0108346  0
-0.0019846 0.0101068  0
-0.00164139 0.0100368  0
-0.00171009 0.0107655  0
-0.00107557 0.0106701  0
-0.00180827 0.0122691  0
-0.00139283 0.0107178  0
-0.00144192 0.0114696  0
-0.00175918 0.0115173  0
-0.00170576 0.0107682  0
-0.00181906 0.0122607  0
-0.00240908 0.0108956  0
-0.00176241 0.0115144  0
-0.00211407 0.0115781  0
-0.00205742 0.0108319  0
-0.00205777 0.00587399  0
-0.00272911 0.00628525  0
-0.00165332 0.00471777  0
-0.00239344 0.00607962  0
-0.00219122 0.00550151  0
-0.00185555 0.00529588  0
-0.00205041 0.00587746  0
-0.00167682 0.00470637  0
-0.00148243 0.00552611  0
-0.00186361 0.00529192  0
-0.00157962 0.00511624  0
-0.00176642 0.00570179  0
-0.00205079 0.0058784  0
-0.00242337 0.00708222  0
-0.00275078 0.00627304  0
-0.00223708 0.00648031  0
-0.00258707 0.00667763  0
-0.00240078 0.00607572  0
-0.00205803 0.00587429  0
-0.00146026 0.00553666  0
-0.00240289 0.00709355  0
-0.00175915 0.00570547  0
-0.00193158 0.0063151  0
-0.00223046 0.00648392  0
-0.00124159 0.00361373  0
-0.000815296 0.00322475  0
-0.00164787 0.00471356  0
-0.00102844 0.00341924  0
-0.00123158 0.00396915  0
-0.00144473 0.00416365  0
-0.0012314 0.00361602  0
-0.00167601 0.00470804  0
-0.00177248 0.00408533  0
-0.00145371 0.00416203  0
-0.00172425 0.00439669  0
-0.00150194 0.00385068  0
-0.00123016 0.00361365  0
-0.000816966 0.00255755  0
-0.000845975 0.00322265  0
-0.00102356 0.0030856  0
-0.00083147 0.0028901  0
-0.00103807 0.00341815  0
-0.001241 0.0036132  0
-0.00174014 0.004092  0
-0.000781514 0.00256017  0
-0.00149057 0.0038526  0
-0.00126083 0.00332609  0
-0.00101125 0.00308669  0
-0.00229052 0.00516655  0
-0.00163475 0.00471617  0
-0.00274714 0.00628701  0
-0.00196264 0.00494136  0
-0.00219094 0.00550159  0
-0.00251883 0.00572678  0
-0.00228277 0.00517066  0
-0.00179222 0.0040903  0
-0.00165731 0.00470419  0
-0.0020375 0.00463048  0
-0.00172477 0.00439724  0
-0.00197004 0.00493742  0
-0.00228376 0.00517155  0
-0.00276758 0.00627433  0
-0.00306144 0.00567775  0
-0.00252567 0.00572294  0
-0.00291451 0.00597604  0
-0.0026726 0.00542465  0
-0.00229037 0.00516678  0
-0.00304092 0.00569233  0
-0.00176945 0.00410426  0
-0.00266565 0.00542956  0
-0.00240518 0.0048983  0
-0.00202991 0.00463552  0
-0.0027212 0.00837309  0
-0.00242353 0.00708283  0
-0.00201649 0.00809565  0
-0.00257236 0.00772796  0
-0.00222001 0.00758924  0
-0.00236884 0.00823437  0
-0.00272704 0.00836895  0
-0.00352836 0.00869466  0
-0.00240475 0.0070954  0
-0.0031277 0.00853181  0
-0.00296656 0.00789503  0
-0.00256589 0.00773218  0
-0.0027272 0.00836933  0
-0.00199862 0.00810793  0
-0.00299216 0.00970413  0
-0.00236291 0.00823863  0
-0.00249539 0.00890603  0
-0.00285968 0.00903673  0
-0.00272115 0.00837358  0
-0.00300908 0.00969155  0
-0.00354616 0.00868183  0
-0.00286511 0.00903256  0
-0.00327762 0.00918669  0
-0.00313366 0.00852771  0
-0.00317188 0.00746348  0
-0.00276857 0.00627396  0
-0.00240589 0.00708161  0
-0.00297022 0.00686872  0
-0.00258723 0.00667779  0
-0.00278889 0.00727255  0
-0.00317806 0.00745916  0
-0.00238744 0.00709503  0
-0.00354547 0.00869495  0
-0.00278275 0.00727709  0
-0.00296645 0.00789499  0
-0.00336176 0.00807706  0
-0.00317788 0.00745906  0
-0.0040521 0.00788971  0
-0.0027499 0.00628784  0
-0.00361499 0.00767438  0
-0.003401 0.00708877  0
-0.00296389 0.00687345  0
-0.00317196 0.00746384  0
-0.00356305 0.00868153  0
-0.00406991 0.0078759  0
-0.00336751 0.00807269  0
-0.00381648 0.00827871  0
-0.00362094 0.00766987  0
4.56387e-06 -2.12148e-05  0
-2.75001e-05 0.000366602  0
2.59748e-06 -4.05204e-06  0
-1.14681e-05 0.000172694  0
-1.24513e-05 0.000181275  0
3.58067e-06 -1.26334e-05  0
3.17369e-06 -1.36303e-05  0
5.10651e-06 -2.5751e-05  0
-2.43335e-05 0.000344324  0
4.1401e-06 -1.96906e-05  0
-9.61348e-06 0.000159287  0
-1.05799e-05 0.000165347  0
-5.34846e-05 0.000479308  0
1.42304e-05 -3.4264e-05  0
-3.68094e-05 0.00039624  0
-1.96271e-05 0.000222522  0
-1.12895e-05 0.000180988  0
-4.5147e-05 0.000437774  0
-5.93108e-05 0.000492311  0
-2.05532e-05 0.000366465  0
-0.000220971 0.00121956  0
-3.9932e-05 0.000429388  0
-0.000120762 0.000793012  0
-0.000140141 0.000855935  0
-5.60863e-05 0.000491528  0
-8.55238e-05 0.000616446  0
2.8907e-05 -7.47576e-05  0
-7.0805e-05 0.000553987  0
-2.83084e-05 0.000270844  0
-1.35896e-05 0.000208385  0
-4.9268e-05 0.000479099  0
-0.000243652 0.00125524  0
-0.000107254 0.000664305  0
-0.00014646 0.00086717  0
-0.000175453 0.000959773  0
-7.82608e-05 0.000571702  0
-0.000383619 0.00155559  0
-0.000813848 0.00256569  0
-0.00066601 0.002003  0
-0.000598733 0.00206064  0
-0.000739929 0.00228434  0
-0.000524814 0.00177929  0
-0.000400565 0.00156481  0
-0.000213257 0.00123654  0
-0.000772523 0.00254258  0
-0.000306911 0.00140068  0
-0.00049289 0.00188956  0
-0.000586544 0.00205369  0
-0.000397199 0.00156334  0
-0.000613897 0.00196894  0
-5.01778e-05 0.000617515  0
-0.000505548 0.00176614  0
-0.000332037 0.00129323  0
-0.000223689 0.00109043  0
-0.000384454 0.00155159  0
-9.70859e-05 0.000657384  0
-0.000250295 0.00126445  0
-0.00024077 0.00110449  0
-0.00017369 0.000960917  0
-0.000317375 0.00140802  0
-0.00121314 0.00306008  0
-0.000680092 0.00202032  0
-0.000800281 0.00255351  0
-0.000946617 0.0025402  0
-0.000740186 0.00228691  0
-0.00100671 0.00280679  0
-0.00122809 0.00306083  0
-0.000762425 0.00255232  0
-0.00175816 0.00410119  0
-0.000995259 0.00280658  0
-0.00126029 0.00332676  0
-0.00149313 0.00358101  0
-0.00122752 0.00306089  0
-0.00180884 0.00367727  0
-0.000634148 0.00202312  0
-0.00151818 0.00336908  0
-0.0012215 0.00285019  0
-0.000930835 0.00254201  0
-0.00121716 0.00306461  0
-0.00178997 0.00409526  0
-0.00184677 0.00366566  0
-0.00150356 0.00357993  0
-0.00181837 0.00388046  0
-0.00153196 0.00336514  0
9.24223e-06 -1.08934e-05  0
1.3054e-05 -4.59715e-05  0
-6.86346e-05 0.000586967  0
1.11481e-05 -2.84324e-05  0
-2.77903e-05 0.000270498  0
-2.96962e-05 0.000288037  0
1.37471e-05 -3.28477e-05  0
-7.47778e-05 0.000648731  0
7.94801e-06 1.36398e-05  0
-3.05154e-05 0.000307941  0
-3.34149e-05 0.000331185  0
1.08475e-05 -9.60394e-06  0
-0.000186479 0.000951242  0
-5.46856e-05 0.000609748  0
-0.000609589 0.00198087  0
-0.000120582 0.000780495  0
-0.000332137 0.00129531  0
-0.000398034 0.00146606  0
-0.00016081 0.000919426  0
4.28777e-05 -1.51612e-05  0
-9.95052e-05 0.000679421  0
-5.89661e-05 0.000452132  0
-2.83138e-05 0.00033213  0
-0.000130158 0.000799424  0
-0.00015663 0.000926346  0
-0.00067326 0.00204147  0
-0.000426364 0.00145699  0
-0.000414945 0.00148391  0
-0.000549812 0.00174923  0
-0.000291497 0.00119167  0
-0.000175449 0.000951172  0
-0.000337236 0.00135841  0
0.00010732 -0.000124637  0
-0.000256342 0.00115479  0
-0.000114958 0.000616887  0
-3.40646e-05 0.000413267  0
0.00511712 0.00837057  0
0.00559935 0.00951309  0
0.00405222 0.00789023  0
0.00535824 0.00894183  0
0.00482579 0.00870166  0
0.00458467 0.0081304  0
0.00511148 0.0083753  0
0.00406919 0.00787605  0
0.00459156 0.00727911  0
0.00459033 0.00812568  0
0.00433037 0.00757758  0
0.00485152 0.0078272  0
0.00451003 0.00907258  0
0.0040711 0.00789012  0
0.00558047 0.00951327  0
0.00429057 0.00848135  0
0.00482578 0.0087017  0
0.00504525 0.00929293  0
0.00450457 0.00907724  0
0.00354484 0.00868152  0
0.00408821 0.00787601  0
0.0040247 0.00887938  0
0.00381652 0.00827876  0
0.00429639 0.00847662  0
0.00450445 0.0090774  0
0.0055972 0.00949929  0
0.00490581 0.0103041  0
0.00505083 0.00928835  0
0.00525151 0.00990172  0
0.00470513 0.00969078  0
0.0045102 0.0090727  0
0.00488928 0.0103181  0
0.00352791 0.00869562  0
0.00469974 0.0096954  0
0.0042086 0.00950686  0
0.00401905 0.00888416  0
0.00387643 0.00998447  0
0.00488813 0.0103042  0
0.00417572 0.0113091  0
0.00438228 0.0101443  0
0.00453193 0.0108066  0
0.00402608 0.0106468  0
0.00388204 0.00997972  0
0.00354601 0.00869598  0
0.00487128 0.0103178  0
0.00371403 0.00933785  0
0.00420865 0.00950689  0
0.00437666 0.0101488  0
0.00388216 0.00997992  0
0.00415928 0.0113228  0
0.0029752 0.00970487  0
0.00402072 0.0106514  0
0.00356724 0.0105138  0
0.00342868 0.00984239  0
0.00387656 0.00998428  0
0.00299197 0.0096912  0
0.00356324 0.00868234  0
0.00343426 0.00983774  0
0.0032776 0.00918677  0
0.0037199 0.00933331  0
0.00604081 0.0107087  0
0.00488705 0.0103041  0
0.005616 0.00949947  0
0.00546393 0.0105064  0
0.00525153 0.00990177  0
0.0058284 0.0101041  0
0.00604616 0.0107041  0
0.00643318 0.0119547  0
0.00487104 0.0103183  0
0.00623967 0.0113294  0
0.00565211 0.0111365  0
0.0054586 0.0105112  0
0.00522965 0.0116115  0
0.00415767 0.0113084  0
0.00490616 0.0103049  0
0.00469366 0.0114599  0
0.00453191 0.0108067  0
0.0050679 0.0109582  0
0.00523508 0.011607  0
0.00488948 0.0103188  0
0.00641492 0.0119544  0
0.00506228 0.0109629  0
0.0056522 0.0111366  0
0.005825 0.0117807  0
0.00523525 0.0116069  0
0.00552201 0.0129519  0
0.00414081 0.0113222  0
0.00537863 0.0122794  0
0.00483141 0.012137  0
0.00468803 0.0114646  0
0.00522957 0.0116115  0
0.00643142 0.0119409  0
0.00553888 0.0129383  0
0.00583049 0.0117762  0
0.00598515 0.0124396  0
0.00538422 0.0122749  0
0.00322812 0.011085  0
0.00299241 0.00970538  0
0.004142 0.0113224  0
0.00311026 0.0103952  0
0.0035672 0.0105139  0
0.00368506 0.0112037  0
0.00322317 0.0110895  0
0.00240826 0.010893  0
0.00300833 0.00969273  0
0.00281571 0.0109912  0
0.0027083 0.0102928  0
0.00311575 0.0103911  0
0.00322295 0.0110897  0
0.00415739 0.0113092  0
0.00342352 0.0125078  0
0.00369017 0.0111995  0
0.00379045 0.0119085  0
0.00332323 0.0117987  0
0.00322804 0.0110856  0
0.00340932 0.0125209  0
0.00239351 0.0109055  0
0.00331868 0.0118032  0
0.00290142 0.0117132  0
0.00281078 0.0109955  0
0.00255595 0.0123749  0
0.00266072 0.0138917  0
0.00179482 0.0122708  0
0.00260834 0.0131333  0
0.00222777 0.0130812  0
0.00217538 0.0123228  0
0.00255254 0.0123776  0
0.00180575 0.0122612  0
0.00242205 0.0108952  0
0.00217915 0.0123194  0
0.0021139 0.0115782  0
0.0024873 0.0116364  0
0.00255217 0.012378  0
0.00340447 0.0125105  0
0.00267023 0.0138815  0
0.00297832 0.0124442  0
0.00303735 0.013196  0
0.0026112 0.0131298  0
0.00255618 0.0123739  0
0.0024094 0.0109054  0
0.00339317 0.0125213  0
0.00248279 0.0116397  0
0.00290128 0.0117134  0
0.00297467 0.0124476  0
0.00188957 0.0138105  0
0.00180787 0.0122703  0
0.00264748 0.013893  0
0.00184872 0.0130404  0
0.00222767 0.0130816  0
0.00226852 0.0138518  0
0.00188753 0.0138126  0
0.00120288 0.0137503  0
0.00181674 0.0122645  0
0.00154521 0.0137815  0
0.00150981 0.0130074  0
0.00185214 0.0130386  0
0.00188683 0.0138132  0
0.00265424 0.0138875  0
0.00195337 0.0153768  0
0.00227054 0.0138504  0
0.0023038 0.0146322  0
0.0019201 0.014595  0
0.00188954 0.0138118  0
0.00194807 0.0153813  0
0.00119543 0.0137553  0
0.0019188 0.0145966  0
0.00157175 0.0145683  0
0.00154248 0.0137836  0
0.00115758 0.012195  0
0.00108526 0.0106698  0
0.00179857 0.0122699  0
0.00112142 0.0114324  0
0.00144191 0.0114699  0
0.00147808 0.0122325  0
0.00115439 0.0121976  0
0.00180755 0.0122648  0
0.00121245 0.01375  0
0.00148097 0.0122312  0
0.00151 0.0130074  0
0.00118342 0.0129738  0
0.00115488 0.0121968  0
0.000562398 0.0121473  0
0.00109614 0.0106648  0
0.000858641 0.012172  0
0.000829271 0.011406  0
0.00112551 0.0114308  0
0.00115774 0.0121961  0
0.00120518 0.0137546  0
0.000553225 0.0121518  0
0.00118146 0.0129754  0
0.000879202 0.0129532  0
0.000855485 0.012174  0
0.00355323 0.0140005  0
0.00265356 0.0138823  0
0.00342061 0.0125095  0
0.0031034 0.0139414  0
0.00303709 0.0131959  0
0.00348692 0.013255  0
0.00355701 0.0139961  0
0.00340837 0.0125207  0
0.00456875 0.0141447  0
0.00348269 0.0132584  0
0.00398856 0.0133327  0
0.00406288 0.0140704  0
0.00355624 0.0139973  0
0.00366063 0.0155271  0
0.00264321 0.0138925  0
0.00360843 0.0147622  0
0.00315192 0.0147098  0
0.00309972 0.0139449  0
0.00355284 0.0140005  0
0.00457994 0.0141323  0
0.00366972 0.0155158  0
0.00406639 0.0140664  0
0.00412483 0.0148241  0
0.00361128 0.0147582  0
0.00439723 0.01271  0
0.00340556 0.0125073  0
0.00417502 0.0113097  0
0.0039014 0.0126086  0
0.00379029 0.0119085  0
0.00428613 0.0120098  0
0.00440237 0.0127054  0
0.00458772 0.0141442  0
0.00339004 0.0125209  0
0.00449505 0.0134248  0
0.00398888 0.0133325  0
0.0038962 0.0126132  0
0.00440266 0.0127051  0
0.00415879 0.0113232  0
0.00550392 0.0129509  0
0.00428073 0.0120142  0
0.00483136 0.0121371  0
0.00495329 0.012828  0
0.00439709 0.0127098  0
0.00552052 0.0129368  0
0.0046037 0.0141299  0
0.00495881 0.0128233  0
0.00506211 0.0135333  0
0.00450039 0.0134198  0
-1.66968e-06 0.0121389  0
0.000565692 0.01215  0
3.47973e-06 0.013708  0
0.000282011 0.0121445  0
0.000284586 0.012929  0
9.05021e-07 0.0129235  0
1.24192e-06 0.012138  0
-5.26733e-06 0.010592  0
0.000556958 0.0121501  0
-2.01271e-06 0.011365  0
0.000275845 0.0113711  0
0.0002791 0.012144  0
1.66968e-06 0.0121389  0
-3.47973e-06 0.013708  0
-0.000565692 0.01215  0
-9.05021e-07 0.0129235  0
-0.000284586 0.012929  0
-0.000282011 0.0121445  0
-1.24192e-06 0.012138  0
-0.000556958 0.0121501  0
5.26733e-06 0.010592  0
-0.0002791 0.012144  0
-0.000275845 0.0113711  0
2.01271e-06 0.011365  0
0.000587289 0.0137221  0
1.48938e-06 0.0137077  0
0.000567394 0.0121507  0
0.000294389 0.0137149  0
0.000284442 0.0129292  0
0.000577342 0.0129364  0
0.000588968 0.0137215  0
0.000558961 0.0121523  0
0.00119959 0.0137548  0
0.000573964 0.0129369  0
0.000879275 0.0129535  0
0.000894279 0.0137381  0
0.000589462 0.0137226  0
0.000606669 0.0153035  0
-5.5668e-06 0.0137094  0
0.000598065 0.014513  0
0.000300551 0.0145064  0
0.000291948 0.013716  0
0.000586565 0.0137229  0
0.00120626 0.0137538  0
0.000612019 0.0153024  0
0.000896411 0.0137383  0
0.000909138 0.0145281  0
0.000599292 0.0145126  0
-0.000587289 0.0137221  0
-0.000567394 0.0121507  0
-1.48938e-06 0.0137077  0
-0.000577342 0.0129364  0
-0.000284442 0.0129292  0
-0.000294389 0.0137149  0
-0.000588968 0.0137215  0
-0.00119959 0.0137548  0
-0.000558961 0.0121523  0
-0.000894279 0.0137381  0
-0.000879275 0.0129535  0
-0.000573964 0.0129369  0
-0.000589462 0.0137226  0
5.5668e-06 0.0137094  0
-0.000606669 0.0153035  0
-0.000291948 0.013716  0
-0.000300551 0.0145064  0
-0.000598065 0.014513  0
-0.000586565 0.0137229  0
-0.000612019 0.0153024  0
-0.00120626 0.0137538  0
-0.000599292 0.0145126  0
-0.000909138 0.0145281  0
-0.000896411 0.0137383  0
-0.00115488 0.0121968  0
-0.00109614 0.0106648  0
-0.000562398 0.0121473  0
-0.00112551 0.0114308  0
-0.000829271 0.011406  0
-0.000858641 0.012172  0
-0.00115774 0.0121961  0
-0.000553225 0.0121518  0
-0.00120518 0.0137546  0
-0.000855485 0.012174  0
-0.000879202 0.0129532  0
-0.00118146 0.0129754  0
-0.00115758 0.012195  0
-0.00179857 0.0122699  0
-0.00108526 0.0106698  0
-0.00147808 0.0122325  0
-0.00144191 0.0114699  0
-0.00112142 0.0114324  0
-0.00115439 0.0121976  0
-0.00121245 0.01375  0
-0.00180755 0.0122648  0
-0.00118342 0.0129738  0
-0.00151 0.0130074  0
-0.00148097 0.0122312  0
0.00124704 0.0153342  0
0.00194454 0.0153823  0
0.00129196 0.0169089  0
0.00159579 0.0153582  0
0.00161825 0.0161456  0
0.0012695 0.0161216  0
0.00124923 0.0153333  0
0.00120407 0.0137563  0
0.00193955 0.0153813  0
0.00122665 0.0145448  0
0.00157181 0.0145688  0
0.00159439 0.0153573  0
0.00124975 0.0153346  0
0.00128749 0.016908  0
0.000600517 0.0153016  0
0.00126862 0.0161213  0
0.000944003 0.0161048  0
0.000925131 0.0153181  0
0.00124816 0.0153336  0
0.000606847 0.0153007  0
0.00121102 0.0137555  0
0.000927501 0.0153172  0
0.000908934 0.0145281  0
0.00122959 0.0145445  0
0.00274224 0.0154471  0
0.00194083 0.0153773  0
0.00266626 0.0138866  0
0.00234154 0.0154122  0
0.00230354 0.0146319  0
0.00270425 0.0146668  0
0.0027432 0.0154471  0
0.00281288 0.0170308  0
0.00193495 0.0153801  0
0.00277804 0.0162389  0
0.00237392 0.0162054  0
0.00233907 0.0154136  0
0.00274366 0.0154453  0
0.00265928 0.0138909  0
0.003644 0.0155299  0
0.00270147 0.0146681  0
0.00315164 0.0147104  0
0.00319383 0.0154876  0
0.00274128 0.0154474  0
0.00364811 0.0155262  0
0.0028158 0.0170291  0
0.0031947 0.0154868  0
0.00323196 0.0162777  0
0.00277854 0.0162382  0
0.00200782 0.0169619  0
0.00128498 0.0169058  0
0.00195101 0.015385  0
0.0016464 0.0169339  0
0.00161799 0.0161454  0
0.00197941 0.0161735  0
0.00200827 0.0169633  0
0.00194527 0.015381  0
0.00280268 0.0170315  0
0.00197677 0.0161722  0
0.00237398 0.0162062  0
0.00240548 0.0169974  0
0.00200886 0.0169648  0
0.00208093 0.0185243  0
0.00127871 0.0169017  0
0.0020449 0.0177446  0
0.00167982 0.017713  0
0.00164379 0.0169333  0
0.00200613 0.0169623  0
0.00280595 0.0170389  0
0.00208491 0.018532  0
0.00240604 0.0170006  0
0.00244543 0.0177855  0
0.00204552 0.0177472  0
5.80922e-07 0.0152932  0
-3.71352e-06 0.0137119  0
0.000605155 0.0153015  0
-1.5663e-06 0.0145026  0
0.000300721 0.0145067  0
0.000302868 0.0152973  0
-1.53314e-06 0.0152941  0
0.000611492 0.0153027  0
2.68378e-06 0.016862  0
0.000304979 0.0152984  0
0.000307088 0.0160824  0
5.75321e-07 0.016078  0
-5.80922e-07 0.0152932  0
-0.000605155 0.0153015  0
3.71352e-06 0.0137119  0
-0.000302868 0.0152973  0
-0.000300721 0.0145067  0
1.5663e-06 0.0145026  0
1.53314e-06 0.0152941  0
-2.68378e-06 0.016862  0
-0.000611492 0.0153027  0
-5.75321e-07 0.016078  0
-0.000307088 0.0160824  0
-0.000304979 0.0152984  0
0.000631423 0.0168715  0
0.000604689 0.0153067  0
0.00128376 0.0169038  0
0.000618056 0.0160891  0
0.000944223 0.0161052  0
0.00095759 0.0168876  0
0.000630326 0.0168708  0
1.19669e-06 0.0168566  0
0.000612479 0.0153084  0
0.000315761 0.0168637  0
0.000306838 0.0160825  0
0.000621402 0.0160896  0
0.000628835 0.0168715  0
0.00129057 0.0169083  0
0.000662617 0.0183963  0
0.000959703 0.0168899  0
0.000976594 0.0176523  0
0.000645726 0.0176339  0
0.000632601 0.0168725  0
0.000655681 0.0183934  0
-6.56361e-06 0.0168565  0
0.000644141 0.0176329  0
0.000324559 0.017625  0
0.000313019 0.0168645  0
0.00678754 0.0132466  0
0.00708773 0.014596  0
0.00550502 0.0129497  0
0.00693763 0.0139213  0
0.00629637 0.0137729  0
0.00614628 0.0130982  0
0.006782 0.0132513  0
0.00552151 0.0129375  0
0.00644916 0.0119417  0
0.00615176 0.0130944  0
0.00598534 0.0124396  0
0.00661558 0.0125965  0
0.00577748 0.0143347  0
0.0055214 0.0129506  0
0.00707127 0.0145951  0
0.00564944 0.0136427  0
0.00629633 0.0137728  0
0.00642438 0.0144649  0
0.00577096 0.0143393  0
0.00458481 0.0141288  0
0.00553916 0.0129377  0
0.00517788 0.014234  0
0.00506198 0.0135332  0
0.00565506 0.0136385  0
0.00577098 0.0143382  0
0.0070909 0.0145824  0
0.00599331 0.015766  0
0.00643094 0.0144603  0
0.0065421 0.0151742  0
0.00588215 0.0150521  0
0.00577725 0.0143339  0
0.0059721 0.0157796  0
0.00456608 0.0141422  0
0.00587468 0.0150568  0
0.00526909 0.0149609  0
0.00517166 0.0142381  0
0.00473396 0.0156301  0
0.00483618 0.0171918  0
0.00363854 0.0155274  0
0.00478507 0.016411  0
0.00423736 0.0163596  0
0.00418625 0.0155787  0
0.00473101 0.0156338  0
0.00364965 0.0155175  0
0.00459915 0.01413  0
0.00419033 0.0155757  0
0.0041244 0.0148238  0
0.00466508 0.0148819  0
0.0047308 0.015633  0
0.00596473 0.0157658  0
0.00484666 0.0171794  0
0.00534776 0.0156994  0
0.00540569 0.0164726  0
0.00478873 0.0164062  0
0.00473602 0.0156287  0
0.00458561 0.0141416  0
0.00595128 0.0157803  0
0.00466081 0.0148852  0
0.00526844 0.014961  0
0.00534365 0.0157045  0
0.00374418 0.0171115  0
0.00365769 0.0155225  0
0.00481558 0.0171988  0
0.00370093 0.016317  0
0.00423663 0.0163607  0
0.00427988 0.0171551  0
0.00374376 0.0171118  0
0.00280107 0.0170314  0
0.00366212 0.0155228  0
0.00327241 0.0170716  0
0.0032316 0.0162771  0
0.00370294 0.0163173  0
0.00374222 0.0171118  0
0.00481519 0.0172006  0
0.00383449 0.0187486  0
0.00427871 0.0171562  0
0.00432484 0.0179746  0
0.00378836 0.0179302  0
0.00374289 0.0171143  0
0.00383588 0.0187424  0
0.00279738 0.0170275  0
0.00378939 0.0179283  0
0.00331663 0.0178849  0
0.00327014 0.0170709  0
0.007363 0.015999  0
0.00597833 0.0157639  0
0.00710692 0.014584  0
0.00667066 0.0158814  0
0.00654263 0.0151739  0
0.00723496 0.0152915  0
0.00737186 0.015992  0
0.00760741 0.017473  0
0.00595169 0.0157709  0
0.00748964 0.0167325  0
0.00677955 0.016622  0
0.00666178 0.0158815  0
0.00612501 0.0173014  0
0.00482277 0.0171832  0
0.00598689 0.0157605  0
0.00547389 0.0172423  0
0.00540483 0.0164719  0
0.00605595 0.016531  0
0.00613406 0.0172948  0
0.00596628 0.0157698  0
0.0075896 0.0174734  0
0.00605017 0.0165323  0
0.00677794 0.0166216  0
0.00686183 0.0173841  0
0.00613015 0.0172956  0
0.00623393 0.0189451  0
0.00480608 0.0171925  0
0.00618204 0.0181203  0
0.00552001 0.0180688  0
0.00546811 0.0172441  0
0.0061245 0.0172978  0
0.00761708 0.017458  0
0.00625624 0.0189279  0
0.00687079 0.0173779  0
0.00693666 0.018193  0
0.00619037 0.0181128  0
0.0001316 -0.000143146  0
-0.000376345 0.00164652  0
-9.6232e-05 0.000272781  0
-0.000122372 0.000751684  0
-0.000236289 0.000959648  0
1.76841e-05 6.48172e-05  0
4.76361e-05 1.12664e-05  0
5.57442e-05 -0.000126552  0
-0.000286228 0.00136761  0
5.16901e-05 -5.7643e-05  0
-0.000115242 0.000620529  0
-0.000119296 0.000689439  0
-0.00125585 0.00242971  0
-0.000332398 0.000620238  0
-0.000243924 0.00149895  0
-0.000794123 0.00152498  0
-0.000288161 0.00105959  0
-0.000749886 0.00196433  0
-0.00123515 0.00234745  0
-0.000327393 0.00150686  0
-0.0020216 0.00345075  0
-0.00078127 0.00192715  0
-0.0011745 0.0024788  0
-0.00162838 0.0028991  0
-0.0011428 0.00265617  0
-0.000454951 0.00150738  0
-0.000649893 0.00200683  0
-0.000798877 0.00208177  0
-0.000552422 0.00175711  0
-0.000896348 0.0023315  0
-0.00115956 0.00265871  0
-0.00196192 0.00342424  0
-0.000398895 0.00152611  0
-0.00156074 0.00304147  0
-0.00118041 0.00247517  0
-0.000779227 0.00209241  0
-0.00116163 0.00265709  0
-0.000603139 0.0020048  0
-0.00183597 0.00369882  0
-0.000882384 0.00233094  0
-0.00121956 0.00285181  0
-0.0014988 0.00317796  0
-0.00115411 0.00266792  0
-0.00186199 0.00369269  0
-0.00198716 0.0033974  0
-0.00150805 0.00318031  0
-0.00192457 0.00354504  0
-0.00157063 0.00303266  0
-0.00271442 0.00435956  0
-0.00183894 0.00369251  0
-0.00337575 0.00530155  0
-0.00227668 0.00402603  0
-0.00260734 0.00449703  0
-0.00304508 0.00483055  0
-0.00271527 0.00437195  0
-0.00202298 0.00340635  0
-0.00183537 0.00368303  0
-0.00236912 0.00388915  0
-0.00192917 0.00354469  0
-0.00227532 0.00402749  0
-0.00249187 0.00467173  0
-0.00335422 0.00530136  0
-0.00186024 0.00369169  0
-0.00292304 0.00498654  0
-0.00260723 0.00449653  0
-0.00217605 0.00418171  0
-0.00248602 0.00467614  0
-0.00187408 0.00367418  0
-0.0017657 0.0040879  0
-0.00218005 0.00417516  0
-0.00181989 0.00388104  0
-0.00212586 0.00438202  0
-0.00248735 0.00467586  0
-0.00307889 0.00568151  0
-0.00336733 0.00528592  0
-0.00278312 0.00517868  0
-0.00322311 0.00548371  0
-0.00292734 0.00498089  0
-0.00249195 0.00467004  0
-0.00174742 0.0041022  0
-0.00306201 0.00569479  0
-0.00211968 0.00438612  0
-0.00240472 0.0048985  0
-0.00277698 0.00518241  0
-0.00399532 0.00627247  0
-0.00338677 0.00528603  0
-0.00306063 0.00568118  0
-0.00369105 0.00577925  0
-0.0032237 0.0054836  0
-0.00352798 0.00597683  0
-0.00400006 0.00626677  0
-0.00304643 0.00569358  0
-0.00457497 0.0072929  0
-0.00352325 0.00598017  0
-0.0038107 0.00649324  0
-0.00428751 0.00677983  0
-0.00359223 0.00676346  0
-0.00308136 0.00567842  0
-0.0027483 0.00627375  0
-0.0033368 0.00622094  0
-0.00291483 0.00597609  0
-0.00317027 0.00651861  0
-0.00359787 0.00675882  0
-0.00455627 0.00729343  0
-0.00306483 0.00569288  0
-0.00407707 0.00702612  0
-0.00381055 0.00649316  0
-0.00333135 0.00622585  0
-0.00359796 0.00675853  0
-0.00273103 0.00628789  0
-0.00407073 0.00788966  0
-0.00316449 0.00652321  0
-0.00340088 0.00708877  0
-0.00383435 0.0073241  0
-0.00359232 0.00676334  0
-0.00408783 0.00787575  0
-0.00457288 0.00727937  0
-0.00384007 0.00731955  0
-0.00433035 0.00757756  0
-0.0040826 0.00702135  0
-0.00511712 0.00837057  0
-0.00405222 0.00789023  0
-0.00559935 0.00951309  0
-0.00458467 0.0081304  0
-0.00482579 0.00870166  0
-0.00535824 0.00894183  0
-0.00511148 0.0083753  0
-0.00459156 0.00727911  0
-0.00406919 0.00787605  0
-0.00485152 0.0078272  0
-0.00433037 0.00757758  0
-0.00459033 0.00812568  0
-0.00451003 0.00907258  0
-0.00558047 0.00951327  0
-0.0040711 0.00789012  0
-0.00504525 0.00929293  0
-0.00482578 0.0087017  0
-0.00429057 0.00848135  0
-0.00450457 0.00907724  0
-0.00408821 0.00787601  0
-0.00354484 0.00868152  0
-0.00429639 0.00847662  0
-0.00381652 0.00827876  0
-0.0040247 0.00887938  0
-0.00450445 0.0090774  0
-0.00490581 0.0103041  0
-0.0055972 0.00949929  0
-0.00470513 0.00969078  0
-0.00525151 0.00990172  0
-0.00505083 0.00928835  0
-0.0045102 0.0090727  0
-0.00352791 0.00869562  0
-0.00488928 0.0103181  0
-0.00401905 0.00888416  0
-0.0042086 0.00950686  0
-0.00469974 0.0096954  0
-0.00387643 0.00998447  0
-0.00417572 0.0113091  0
-0.00488813 0.0103042  0
-0.00402608 0.0106468  0
-0.00453193 0.0108066  0
-0.00438228 0.0101443  0
-0.00388204 0.00997972  0
-0.00487128 0.0103178  0
-0.00354601 0.00869598  0
-0.00437666 0.0101488  0
-0.00420865 0.00950689  0
-0.00371403 0.00933785  0
-0.00388216 0.00997992  0
-0.0029752 0.00970487  0
-0.00415928 0.0113228  0
-0.00342868 0.00984239  0
-0.00356724 0.0105138  0
-0.00402072 0.0106514  0
-0.00387656 0.00998428  0
-0.00356324 0.00868234  0
-0.00299197 0.0096912  0
-0.0037199 0.00933331  0
-0.0032776 0.00918677  0
-0.00343426 0.00983774  0
-0.00604081 0.0107087  0
-0.005616 0.00949947  0
-0.00488705 0.0103041  0
-0.0058284 0.0101041  0
-0.00525153 0.00990177  0
-0.00546393 0.0105064  0
-0.00604616 0.0107041  0
-0.00487104 0.0103183  0
-0.00643318 0.0119547  0
-0.0054586 0.0105112  0
-0.00565211 0.0111365  0
-0.00623967 0.0113294  0
-0.00522965 0.0116115  0
-0.00490616 0.0103049  0
-0.00415767 0.0113084  0
-0.0050679 0.0109582  0
-0.00453191 0.0108067  0
-0.00469366 0.0114599  0
-0.00523508 0.011607  0
-0.00641492 0.0119544  0
-0.00488948 0.0103188  0
-0.005825 0.0117807  0
-0.0056522 0.0111366  0
-0.00506228 0.0109629  0
-0.00523525 0.0116069  0
-0.00414081 0.0113222  0
-0.00552201 0.0129519  0
-0.00468803 0.0114646  0
-0.00483141 0.012137  0
-0.00537863 0.0122794  0
-0.00522957 0.0116115  0
-0.00553888 0.0129383  0
-0.00643142 0.0119409  0
-0.00538422 0.0122749  0
-0.00598515 0.0124396  0
-0.00583049 0.0117762  0
-0.00322812 0.011085  0
-0.004142 0.0113224  0
-0.00299241 0.00970538  0
-0.00368506 0.0112037  0
-0.0035672 0.0105139  0
-0.00311026 0.0103952  0
-0.00322317 0.0110895  0
-0.00300833 0.00969273  0
-0.00240826 0.010893  0
-0.00311575 0.0103911  0
-0.0027083 0.0102928  0
-0.00281571 0.0109912  0
-0.00322295 0.0110897  0
-0.00342352 0.0125078  0
-0.00415739 0.0113092  0
-0.00332323 0.0117987  0
-0.00379045 0.0119085  0
-0.00369017 0.0111995  0
-0.00322804 0.0110856  0
-0.00239351 0.0109055  0
-0.00340932 0.0125209  0
-0.00281078 0.0109955  0
-0.00290142 0.0117132  0
-0.00331868 0.0118032  0
-0.00255595 0.0123749  0
-0.00179482 0.0122708  0
-0.00266072 0.0138917  0
-0.00217538 0.0123228  0
-0.00222777 0.0130812  0
-0.00260834 0.0131333  0
-0.00255254 0.0123776  0
-0.00242205 0.0108952  0
-0.00180575 0.0122612  0
-0.0024873 0.0116364  0
-0.0021139 0.0115782  0
-0.00217915 0.0123194  0
-0.00255217 0.012378  0
-0.00267023 0.0138815  0
-0.00340447 0.0125105  0
-0.0026112 0.0131298  0
-0.00303735 0.013196  0
-0.00297832 0.0124442  0
-0.00255618 0.0123739  0
-0.00339317 0.0125213  0
-0.0024094 0.0109054  0
-0.00297467 0.0124476  0
-0.00290128 0.0117134  0
-0.00248279 0.0116397  0
-0.00188957 0.0138105  0
-0.00264748 0.013893  0
-0.00180787 0.0122703  0
-0.00226852 0.0138518  0
-0.00222767 0.0130816  0
-0.00184872 0.0130404  0
-0.00188753 0.0138126  0
-0.00181674 0.0122645  0
-0.00120288 0.0137503  0
-0.00185214 0.0130386  0
-0.00150981 0.0130074  0
-0.00154521 0.0137815  0
-0.00188683 0.0138132  0
-0.00195337 0.0153768  0
-0.00265424 0.0138875  0
-0.0019201 0.014595  0
-0.0023038 0.0146322  0
-0.00227054 0.0138504  0
-0.00188954 0.0138118  0
-0.00119543 0.0137553  0
-0.00194807 0.0153813  0
-0.00154248 0.0137836  0
-0.00157175 0.0145683  0
-0.0019188 0.0145966  0
-0.00355323 0.0140005  0
-0.00342061 0.0125095  0
-0.00265356 0.0138823  0
-0.00348692 0.013255  0
-0.00303709 0.0131959  0
-0.0031034 0.0139414  0
-0.00355701 0.0139961  0
-0.00456875 0.0141447  0
-0.00340837 0.0125207  0
-0.00406288 0.0140704  0
-0.00398856 0.0133327  0
-0.00348269 0.0132584  0
-0.00355624 0.0139973  0
-0.00264321 0.0138925  0
-0.00366063 0.0155271  0
-0.00309972 0.0139449  0
-0.00315192 0.0147098  0
-0.00360843 0.0147622  0
-0.00355284 0.0140005  0
-0.00366972 0.0155158  0
-0.00457994 0.0141323  0
-0.00361128 0.0147582  0
-0.00412483 0.0148241  0
-0.00406639 0.0140664  0
-0.00439723 0.01271  0
-0.00417502 0.0113097  0
-0.00340556 0.0125073  0
-0.00428613 0.0120098  0
-0.00379029 0.0119085  0
-0.0039014 0.0126086  0
-0.00440237 0.0127054  0
-0.00339004 0.0125209  0
-0.00458772 0.0141442  0
-0.0038962 0.0126132  0
-0.00398888 0.0133325  0
-0.00449505 0.0134248  0
-0.00440266 0.0127051  0
-0.00550392 0.0129509  0
-0.00415879 0.0113232  0
-0.00495329 0.012828  0
-0.00483136 0.0121371  0
-0.00428073 0.0120142  0
-0.00439709 0.0127098  0
-0.0046037 0.0141299  0
-0.00552052 0.0129368  0
-0.00450039 0.0134198  0
-0.00506211 0.0135333  0
-0.00495881 0.0128233  0
-0.00124704 0.0153342  0
-0.00129196 0.0169089  0
-0.00194454 0.0153823  0
-0.0012695 0.0161216  0
-0.00161825 0.0161456  0
-0.00159579 0.0153582  0
-0.00124923 0.0153333  0
-0.00193955 0.0153813  0
-0.00120407 0.0137563  0
-0.00159439 0.0153573  0
-0.00157181 0.0145688  0
-0.00122665 0.0145448  0
-0.00124975 0.0153346  0
-0.000600517 0.0153016  0
-0.00128749 0.016908  0
-0.000925131 0.0153181  0
-0.000944003 0.0161048  0
-0.00126862 0.0161213  0
-0.00124816 0.0153336  0
-0.00121102 0.0137555  0
-0.000606847 0.0153007  0
-0.00122959 0.0145445  0
-0.000908934 0.0145281  0
-0.000927501 0.0153172  0
-0.00274224 0.0154471  0
-0.00266626 0.0138866  0
-0.00194083 0.0153773  0
-0.00270425 0.0146668  0
-0.00230354 0.0146319  0
-0.00234154 0.0154122  0
-0.0027432 0.0154471  0
-0.00193495 0.0153801  0
-0.00281288 0.0170308  0
-0.00233907 0.0154136  0
-0.00237392 0.0162054  0
-0.00277804 0.0162389  0
-0.00274366 0.0154453  0
-0.003644 0.0155299  0
-0.00265928 0.0138909  0
-0.00319383 0.0154876  0
-0.00315164 0.0147104  0
-0.00270147 0.0146681  0
-0.00274128 0.0154474  0
-0.0028158 0.0170291  0
-0.00364811 0.0155262  0
-0.00277854 0.0162382  0
-0.00323196 0.0162777  0
-0.0031947 0.0154868  0
-0.00200782 0.0169619  0
-0.00195101 0.015385  0
-0.00128498 0.0169058  0
-0.00197941 0.0161735  0
-0.00161799 0.0161454  0
-0.0016464 0.0169339  0
-0.00200827 0.0169633  0
-0.00280268 0.0170315  0
-0.00194527 0.015381  0
-0.00240548 0.0169974  0
-0.00237398 0.0162062  0
-0.00197677 0.0161722  0
-0.00200886 0.0169648  0
-0.00127871 0.0169017  0
-0.00208093 0.0185243  0
-0.00164379 0.0169333  0
-0.00167982 0.017713  0
-0.0020449 0.0177446  0
-0.00200613 0.0169623  0
-0.00208491 0.018532  0
-0.00280595 0.0170389  0
-0.00204552 0.0177472  0
-0.00244543 0.0177855  0
-0.00240604 0.0170006  0
-0.000631423 0.0168715  0
-0.00128376 0.0169038  0
-0.000604689 0.0153067  0
-0.00095759 0.0168876  0
-0.000944223 0.0161052  0
-0.000618056 0.0160891  0
-0.000630326 0.0168708  0
-0.000612479 0.0153084  0
-1.19669e-06 0.0168566  0
-0.000621402 0.0160896  0
-0.000306838 0.0160825  0
-0.000315761 0.0168637  0
-0.000628835 0.0168715  0
-0.000662617 0.0183963  0
-0.00129057 0.0169083  0
-0.000645726 0.0176339  0
-0.000976594 0.0176523  0
-0.000959703 0.0168899  0
-0.000632601 0.0168725  0
6.56361e-06 0.0168565  0
-0.000655681 0.0183934  0
-0.000313019 0.0168645  0
-0.000324559 0.017625  0
-0.000644141 0.0176329  0
-0.00678754 0.0132466  0
-0.00550502 0.0129497  0
-0.00708773 0.014596  0
-0.00614628 0.0130982  0
-0.00629637 0.0137729  0
-0.00693763 0.0139213  0
-0.006782 0.0132513  0
-0.00644916 0.0119417  0
-0.00552151 0.0129375  0
-0.00661558 0.0125965  0
-0.00598534 0.0124396  0
-0.00615176 0.0130944  0
-0.00577748 0.0143347  0
-0.00707127 0.0145951  0
-0.0055214 0.0129506  0
-0.00642438 0.0144649  0
-0.00629633 0.0137728  0
-0.00564944 0.0136427  0
-0.00577096 0.0143393  0
-0.00553916 0.0129377  0
-0.00458481 0.0141288  0
-0.00565506 0.0136385  0
-0.00506198 0.0135332  0
-0.00517788 0.014234  0
-0.00577098 0.0143382  0
-0.00599331 0.015766  0
-0.0070909 0.0145824  0
-0.00588215 0.0150521  0
-0.0065421 0.0151742  0
-0.00643094 0.0144603  0
-0.00577725 0.0143339  0
-0.00456608 0.0141422  0
-0.0059721 0.0157796  0
-0.00517166 0.0142381  0
-0.00526909 0.0149609  0
-0.00587468 0.0150568  0
-0.00473396 0.0156301  0
-0.00363854 0.0155274  0
-0.00483618 0.0171918  0
-0.00418625 0.0155787  0
-0.00423736 0.0163596  0
-0.00478507 0.016411  0
-0.00473101 0.0156338  0
-0.00459915 0.01413  0
-0.00364965 0.0155175  0
-0.00466508 0.0148819  0
-0.0041244 0.0148238  0
-0.00419033 0.0155757  0
-0.0047308 0.015633  0
-0.00484666 0.0171794  0
-0.00596473 0.0157658  0
-0.00478873 0.0164062  0
-0.00540569 0.0164726  0
-0.00534776 0.0156994  0
-0.00473602 0.0156287  0
-0.00595128 0.0157803  0
-0.00458561 0.0141416  0
-0.00534365 0.0157045  0
-0.00526844 0.014961  0
-0.00466081 0.0148852  0
-0.00374418 0.0171115  0
-0.00481558 0.0171988  0
-0.00365769 0.0155225  0
-0.00427988 0.0171551  0
-0.00423663 0.0163607  0
-0.00370093 0.016317  0
-0.00374376 0.0171118  0
-0.00366212 0.0155228  0
-0.00280107 0.0170314  0
-0.00370294 0.0163173  0
-0.0032316 0.0162771  0
-0.00327241 0.0170716  0
-0.00374222 0.0171118  0
-0.00383449 0.0187486  0
-0.00481519 0.0172006  0
-0.00378836 0.0179302  0
-0.00432484 0.0179746  0
-0.00427871 0.0171562  0
-0.00374289 0.0171143  0
-0.00279738 0.0170275  0
-0.00383588 0.0187424  0
-0.00327014 0.0170709  0
-0.00331663 0.0178849  0
-0.00378939 0.0179283  0
-0.007363 0.015999  0
-0.00710692 0.014584  0
-0.00597833 0.0157639  0
-0.00723496 0.0152915  0
-0.00654263 0.0151739  0
-0.00667066 0.0158814  0
-0.00737186 0.015992  0
-0.00595169 0.0157709  0
-0.00760741 0.017473  0
-0.00666178 0.0158815  0
-0.00677955 0.016622  0
-0.00748964 0.0167325  0
-0.00612501 0.0173014  0
-0.00598689 0.0157605  0
-0.00482277 0.0171832  0
-0.00605595 0.016531  0
-0.00540483 0.0164719  0
-0.00547389 0.0172423  0
-0.00613406 0.0172948  0
-0.0075896 0.0174734  0
-0.00596628 0.0157698  0
-0.00686183 0.0173841  0
-0.00677794 0.0166216  0
-0.00605017 0.0165323  0
-0.00613015 0.0172956  0
-0.00480608 0.0171925  0
-0.00623393 0.0189451  0
-0.00546811 0.0172441  0
-0.00552001 0.0180688  0
-0.00618204 0.0181203  0
-0.0061245 0.0172978  0
-0.00625624 0.0189279  0
-0.00761708 0.017458  0
-0.00619037 0.0181128  0
-0.00693666 0.018193  0
-0.00687079 0.0173779  0
-0.00786753 0.0190515  0
-0.00614936 0.0189201  0
-0.00805047 0.0210072  0
-0.00700844 0.0189858  0
-0.00709991 0.0199637  0
-0.007959 0.0200294  0
-0.00784231 0.0190835  0
-0.00764172 0.0174549  0
-0.0062306 0.0189267  0
-0.00774201 0.0182692  0
-0.00693616 0.0181908  0
-0.00703645 0.0190051  0
-0.00632394 0.020904  0
-0.00796725 0.0210898  0
-0.00619153 0.0188781  0
-0.0071456 0.0209969  0
-0.00707939 0.0199839  0
-0.00625773 0.0198911  0
-0.00635341 0.0208771  0
-0.00619636 0.0189649  0
-0.00506561 0.0206719  0
-0.00627488 0.019921  0
-0.00563098 0.0198184  0
-0.00570951 0.0207745  0
-0.00492491 0.0188678  0
-0.00620418 0.0189652  0
-0.00483052 0.0171783  0
-0.00556455 0.0189165  0
-0.00551735 0.0180718  0
-0.00487772 0.0180231  0
-0.00492368 0.0188622  0
-0.00507293 0.0206548  0
-0.00619248 0.0189855  0
-0.00499831 0.0197585  0
-0.00563271 0.0198201  0
-0.00555808 0.0189238  0
-0.00492732 0.0188634  0
-0.00482986 0.0171911  0
-0.00381866 0.0187552  0
-0.00487859 0.0180272  0
-0.00432426 0.0179731  0
-0.00437299 0.0188093  0
-0.00492297 0.0188721  0
-0.00381646 0.0187344  0
-0.00508013 0.0206244  0
-0.00436972 0.0188032  0
-0.00444829 0.0196794  0
-0.00500155 0.0197483  0
-0.00400728 0.0204039  0
-0.00382941 0.018773  0
-0.00305223 0.0202079  0
-0.00391834 0.0195885  0
-0.00344082 0.0194905  0
-0.00352976 0.0203059  0
-0.00400452 0.0204163  0
-0.00507519 0.0206292  0
-0.0038222 0.0187351  0
-0.00453985 0.0205228  0
-0.00444869 0.0196821  0
-0.00391336 0.0195757  0
-0.0029043 0.0186291  0
-0.00305468 0.0202144  0
-0.0038278 0.0187673  0
-0.00297949 0.0194217  0
-0.00344124 0.0194908  0
-0.00336605 0.0186982  0
-0.00290655 0.0186345  0
-0.00382618 0.0187453  0
-0.00280739 0.0170274  0
-0.00336636 0.0186899  0
-0.00331678 0.0178863  0
-0.00285697 0.0178309  0
-0.00290772 0.018636  0
-0.00207093 0.0185125  0
-0.00304972 0.0201926  0
-0.00248932 0.0185742  0
-0.00256033 0.0193525  0
-0.00297872 0.0194143  0
-0.00290697 0.0186291  0
-0.00281197 0.0170424  0
-0.00207823 0.0185274  0
-0.00285947 0.0178358  0
-0.0024451 0.0177849  0
-0.0024926 0.0185783  0
-0.00221173 0.0200216  0
-0.003048 0.0201822  0
-0.00207341 0.0185249  0
-0.00262986 0.0201019  0
-0.00256071 0.0193535  0
-0.00214257 0.0192732  0
-0.00220994 0.0200149  0
-0.00208624 0.0185451  0
-0.00143442 0.0198874  0
-0.00214809 0.01928  0
-0.00176033 0.0192163  0
-0.00182218 0.0199512  0
-0.0013477 0.018442  0
-0.00207699 0.0185176  0
-0.00128328 0.0169099  0
-0.00171234 0.0184798  0
-0.00168013 0.0177137  0
-0.00131549 0.0176759  0
-0.00134419 0.0184396  0
-0.00143592 0.0199023  0
-0.00208548 0.0185304  0
-0.00139006 0.0191709  0
-0.0017607 0.0192164  0
-0.00171483 0.018485  0
-0.00134631 0.0184392  0
-0.00129263 0.0169179  0
-0.000659916 0.0183866  0
-0.00131947 0.0176786  0
-0.000976274 0.0176523  0
-0.00100311 0.0184129  0
-0.00134921 0.018443  0
-0.000649169 0.0183806  0
-0.00142576 0.0198915  0
-0.000999191 0.0184118  0
-0.00103746 0.0191361  0
-0.00138749 0.0191673  0
-0.00070391 0.0198009  0
-0.000666176 0.0184046  0
-5.3498e-06 0.01977  0
-0.000685043 0.0191028  0
-0.000335763 0.0190873  0
-0.00035463 0.0197855  0
-0.000707059 0.019803  0
-0.00142529 0.0198751  0
-0.000650399 0.0183981  0
-0.00106617 0.019839  0
-0.00103784 0.0191366  0
-0.000678729 0.0191006  0
2.76483e-06 0.0183701  0
-5.87695e-06 0.0197878  0
-0.00066639 0.0183865  0
-1.55606e-06 0.019079  0
-0.000336133 0.0190871  0
-0.000331813 0.0183783  0
-9.6959e-07 0.0183695  0
-0.000655196 0.018383  0
5.42718e-06 0.0168675  0
-0.000328083 0.0183762  0
-0.000324884 0.0176253  0
2.2288e-06 0.0176185  0
-2.76483e-06 0.0183701  0
0.00066639 0.0183865  0
5.87695e-06 0.0197878  0
0.000331813 0.0183783  0
0.000336133 0.0190871  0
1.55606e-06 0.019079  0
9.6959e-07 0.0183695  0
-5.42718e-06 0.0168675  0
0.000655196 0.018383  0
-2.2288e-06 0.0176185  0
0.000324884 0.0176253  0
0.000328083 0.0183762  0
0.00070391 0.0198009  0
5.3498e-06 0.01977  0
0.000666176 0.0184046  0
0.00035463 0.0197855  0
0.000335763 0.0190873  0
0.000685043 0.0191028  0
0.000707059 0.019803  0
0.000650399 0.0183981  0
0.00142529 0.0198751  0
0.000678729 0.0191006  0
0.00103784 0.0191366  0
0.00106617 0.019839  0
0.00134631 0.0184392  0
0.000659916 0.0183866  0
0.00129263 0.0169179  0
0.00100311 0.0184129  0
0.000976274 0.0176523  0
0.00131947 0.0176786  0
0.00134921 0.018443  0
0.00142576 0.0198915  0
0.000649169 0.0183806  0
0.00138749 0.0191673  0
0.00103746 0.0191361  0
0.000999191 0.0184118  0
0.0013477 0.018442  0
0.00128328 0.0169099  0
0.00207699 0.0185176  0
0.00131549 0.0176759  0
0.00168013 0.0177137  0
0.00171234 0.0184798  0
0.00134419 0.0184396  0
0.00208548 0.0185304  0
0.00143592 0.0199023  0
0.00171483 0.018485  0
0.0017607 0.0192164  0
0.00139006 0.0191709  0
0.00221173 0.0200216  0
0.00207341 0.0185249  0
0.003048 0.0201822  0
0.00214257 0.0192732  0
0.00256071 0.0193535  0
0.00262986 0.0201019  0
0.00220994 0.0200149  0
0.00143442 0.0198874  0
0.00208624 0.0185451  0
0.00182218 0.0199512  0
0.00176033 0.0192163  0
0.00214809 0.01928  0
0.00290772 0.018636  0
0.00304972 0.0201926  0
0.00207093 0.0185125  0
0.00297872 0.0194143  0
0.00256033 0.0193525  0
0.00248932 0.0185742  0
0.00290697 0.0186291  0
0.00207823 0.0185274  0
0.00281197 0.0170424  0
0.0024926 0.0185783  0
0.0024451 0.0177849  0
0.00285947 0.0178358  0
0.0029043 0.0186291  0
0.0038278 0.0187673  0
0.00305468 0.0202144  0
0.00336605 0.0186982  0
0.00344124 0.0194908  0
0.00297949 0.0194217  0
0.00290655 0.0186345  0
0.00280739 0.0170274  0
0.00382618 0.0187453  0
0.00285697 0.0178309  0
0.00331678 0.0178863  0
0.00336636 0.0186899  0
0.00400728 0.0204039  0
0.00305223 0.0202079  0
0.00382941 0.018773  0
0.00352976 0.0203059  0
0.00344082 0.0194905  0
0.00391834 0.0195885  0
0.00400452 0.0204163  0
0.0038222 0.0187351  0
0.00507519 0.0206292  0
0.00391336 0.0195757  0
0.00444869 0.0196821  0
0.00453985 0.0205228  0
0.00492732 0.0188634  0
0.00381866 0.0187552  0
0.00482986 0.0171911  0
0.00437299 0.0188093  0
0.00432426 0.0179731  0
0.00487859 0.0180272  0
0.00492297 0.0188721  0
0.00508013 0.0206244  0
0.00381646 0.0187344  0
0.00500155 0.0197483  0
0.00444829 0.0196794  0
0.00436972 0.0188032  0
0.00492491 0.0188678  0
0.00483052 0.0171783  0
0.00620418 0.0189652  0
0.00487772 0.0180231  0
0.00551735 0.0180718  0
0.00556455 0.0189165  0
0.00492368 0.0188622  0
0.00619248 0.0189855  0
0.00507293 0.0206548  0
0.00555808 0.0189238  0
0.00563271 0.0198201  0
0.00499831 0.0197585  0
0.00786753 0.0190515  0
0.00805047 0.0210072  0
0.00614936 0.0189201  0
0.007959 0.0200294  0
0.00709991 0.0199637  0
0.00700844 0.0189858  0
0.00784231 0.0190835  0
0.0062306 0.0189267  0
0.00764172 0.0174549  0
0.00703645 0.0190051  0
0.00693616 0.0181908  0
0.00774201 0.0182692  0
0.00632394 0.020904  0
0.00619153 0.0188781  0
0.00796725 0.0210898  0
0.00625773 0.0198911  0
0.00707939 0.0199839  0
0.0071456 0.0209969  0
0.00635341 0.0208771  0
0.00506561 0.0206719  0
0.00619636 0.0189649  0
0.00570951 0.0207745  0
0.00563098 0.0198184  0
0.00627488 0.019921  0
SCALARS rotation float
LOOKUP_TABLE default
-0.00739638
-0.0383609
-0.0136663
-0.0228786
-0.0260136
-0.0105313
-0.00739638
-0.0136663
-0.0066924
-0.0105313
-0.0101793
-0.00704439
-0.00949644
-0.0136663
-0.0113192
-0.0115813
-0.0124927
-0.0104078
-0.00949644
-0.0066924
-0.0136663
-0.00809442
-0.0101793
-0.0115813
-0.00949644
-0.0113192
-0.00699991
-0.0104078
-0.00915956
-0.00824817
-0.00949644
-0.00699991
-0.0066924
-0.00824817
-0.00684616
-0.00809442
-0.0188913
-0.0136663
-0.0383609
-0.0162788
-0.0260136
-0.0286261
-0.0188913
-0.0163552
-0.0136663
-0.0176233
-0.0150107
-0.0162788
-0.0142486
-0.0113192
-0.0136663
-0.0127839
-0.0124927
-0.0139574
-0.0142486
-0.0136663
-0.0163552
-0.0139574
-0.0150107
-0.0153019
-0.0142486
-0.0138971
-0.0113192
-0.0140729
-0.0126082
-0.0127839
-0.0142486
-0.0163552
-0.0138971
-0.0153019
-0.0151262
-0.0140729
-0.00348787
-0.00699991
-0.00268011
-0.00524389
-0.00484001
-0.00308399
-0.00348787
-0.0066924
-0.00699991
-0.00509014
-0.00684616
-0.00524389
-0.00541019
-0.00268011
-0.00699991
-0.00404515
-0.00484001
-0.00620505
-0.00541019
-0.00699991
-0.00788986
-0.00620505
-0.00744488
-0.00665002
-0.00541019
-0.00460471
-0.00268011
-0.00500745
-0.00364241
-0.00404515
-0.00541019
-0.00788986
-0.00460471
-0.00665002
-0.00624729
-0.00500745
-0.00932711
-0.00699991
-0.0113192
-0.00816351
-0.00915956
-0.0103232
-0.00932711
-0.00788986
-0.00699991
-0.00860848
-0.00744488
-0.00816351
-0.00932711
-0.0113192
-0.0109076
-0.0103232
-0.0111134
-0.0101174
-0.00932711
-0.0109076
-0.00788986
-0.0101174
-0.00939874
-0.00860848
-0.009763
-0.0109076
-0.011308
-0.0103353
-0.0111078
-0.0105355
-0.009763
-0.00788986
-0.0109076
-0.00882643
-0.00939874
-0.0103353
-0.009763
-0.011308
-0.00887577
-0.0105355
-0.0100919
-0.00931938
-0.009763
-0.00887577
-0.00788986
-0.00931938
-0.00838281
-0.00882643
-0.0123317
-0.011308
-0.0109076
-0.0118199
-0.0111078
-0.0116197
-0.0123317
-0.0109076
-0.0133564
-0.0116197
-0.012132
-0.0128441
-0.0123317
-0.0134516
-0.011308
-0.0128917
-0.0123798
-0.0118199
-0.0123317
-0.0133564
-0.0134516
-0.0128441
-0.013404
-0.0128917
-0.0125376
-0.0109076
-0.0113192
-0.0117226
-0.0111134
-0.0119284
-0.0125376
-0.0133564
-0.0109076
-0.012947
-0.012132
-0.0117226
-0.0125376
-0.0113192
-0.0138971
-0.0119284
-0.0126082
-0.0132173
-0.0125376
-0.0138971
-0.0133564
-0.0132173
-0.0136268
-0.012947
-0.00684668
-0.00887577
-0.0062997
-0.00786122
-0.00758773
-0.00657319
-0.00684668
-0.00788986
-0.00887577
-0.00736827
-0.00838281
-0.00786122
-0.00684668
-0.0062997
-0.00460471
-0.00657319
-0.00545221
-0.0057257
-0.00684668
-0.00460471
-0.00788986
-0.0057257
-0.00624729
-0.00736827
-0.0105677
-0.00887577
-0.011308
-0.00972173
-0.0100919
-0.0109379
-0.0105677
-0.0100269
-0.00887577
-0.0102973
-0.00945133
-0.00972173
-0.0105677
-0.011308
-0.0120193
-0.0109379
-0.0116637
-0.0112935
-0.0105677
-0.0120193
-0.0100269
-0.0112935
-0.0110231
-0.0102973
-0.00825343
-0.0062997
-0.00887577
-0.00727656
-0.00758773
-0.0085646
-0.00825343
-0.00887577
-0.0100269
-0.0085646
-0.00945133
-0.00914016
-0.00825343
-0.0079477
-0.0062997
-0.00810057
-0.0071237
-0.00727656
-0.00825343
-0.0100269
-0.0079477
-0.00914016
-0.0089873
-0.00810057
-0.00185765
-0.00268011
-0.00460471
-0.00226888
-0.00364241
-0.00323118
-0.00185765
-0.00460471
-0.00149791
-0.00323118
-0.00305131
-0.00167778
-0.00395957
-0.00460471
-0.0062997
-0.00428214
-0.00545221
-0.00512963
-0.00395957
-0.00149791
-0.00460471
-0.00272874
-0.00305131
-0.00428214
-0.00395957
-0.0062997
-0.00373219
-0.00512963
-0.00501595
-0.00384588
-0.00395957
-0.00373219
-0.00149791
-0.00384588
-0.00261505
-0.00272874
-0.0146351
-0.015341
-0.0138971
-0.014988
-0.014619
-0.0142661
-0.0146351
-0.0138971
-0.0163552
-0.0142661
-0.0151262
-0.0154952
-0.0144313
-0.0138971
-0.015341
-0.0141642
-0.014619
-0.0148862
-0.0144313
-0.0133564
-0.0138971
-0.0138939
-0.0136268
-0.0141642
-0.0144313
-0.015341
-0.0152007
-0.0148862
-0.0152708
-0.014816
-0.0144313
-0.0152007
-0.0133564
-0.014816
-0.0142785
-0.0138939
-0.0143633
-0.0153162
-0.0134516
-0.0148398
-0.0143839
-0.0139075
-0.0143633
-0.0134516
-0.0133564
-0.0139075
-0.013404
-0.0138599
-0.0143633
-0.0152007
-0.0153162
-0.014782
-0.0152584
-0.0148398
-0.0143633
-0.0133564
-0.0152007
-0.0138599
-0.0142785
-0.014782
-0.0127005
-0.011308
-0.0134516
-0.0120043
-0.0123798
-0.0130761
-0.0127005
-0.0134516
-0.0138732
-0.0130761
-0.0136624
-0.0132869
-0.0127005
-0.0120193
-0.011308
-0.0123599
-0.0116637
-0.0120043
-0.0127005
-0.0138732
-0.0120193
-0.0132869
-0.0129462
-0.0123599
-0.0145852
-0.0134516
-0.0153162
-0.0140184
-0.0143839
-0.0149507
-0.0145852
-0.0138732
-0.0134516
-0.0142292
-0.0136624
-0.0140184
-0.0145852
-0.0153162
-0.0155864
-0.0149507
-0.0154513
-0.0150858
-0.0145852
-0.0155864
-0.0138732
-0.0150858
-0.0147298
-0.0142292
-0.0158752
-0.0152007
-0.015341
-0.0155379
-0.0152708
-0.0156081
-0.0158752
-0.0168468
-0.0152007
-0.016361
-0.0160237
-0.0155379
-0.0160824
-0.0153162
-0.0152007
-0.0156993
-0.0152584
-0.0156415
-0.0160824
-0.0152007
-0.0168468
-0.0156415
-0.0160237
-0.0164646
-0.0160824
-0.0170133
-0.0153162
-0.0165478
-0.0161647
-0.0156993
-0.0160824
-0.0168468
-0.0170133
-0.0164646
-0.01693
-0.0165478
-0.00126503
-0.00373219
-0.00121103
-0.00249861
-0.00247161
-0.00123803
-0.00126503
-0.00149791
-0.00373219
-0.00138147
-0.00261505
-0.00249861
-0.00357294
-0.00121103
-0.00373219
-0.00239199
-0.00247161
-0.00365257
-0.00357294
-0.00373219
-0.00584399
-0.00365257
-0.00478809
-0.00470847
-0.00357294
-0.00373219
-0.00121103
-0.00365257
-0.00247161
-0.00239199
-0.00357294
-0.00584399
-0.00373219
-0.00470847
-0.00478809
-0.00365257
-0.00589456
-0.00373219
-0.0062997
-0.00481337
-0.00501595
-0.00609713
-0.00589456
-0.00584399
-0.00373219
-0.00586927
-0.00478809
-0.00481337
-0.00589456
-0.0062997
-0.0079477
-0.00609713
-0.0071237
-0.00692113
-0.00589456
-0.0079477
-0.00584399
-0.00692113
-0.00689585
-0.00586927
-0.00779641
-0.0079477
-0.00960747
-0.00787206
-0.00877758
-0.00870194
-0.00779641
-0.00584399
-0.0079477
-0.0068202
-0.00689585
-0.00787206
-0.00779641
-0.00960747
-0.0079477
-0.00870194
-0.00877758
-0.00787206
-0.00779641
-0.0079477
-0.00584399
-0.00787206
-0.00689585
-0.0068202
-0.00969494
-0.00960747
-0.0079477
-0.0096512
-0.00877758
-0.00882132
-0.00969494
-0.0079477
-0.0100269
-0.00882132
-0.0089873
-0.00986092
-0.00969494
-0.011265
-0.00960747
-0.01048
-0.0104362
-0.0096512
-0.00969494
-0.0100269
-0.011265
-0.00986092
-0.010646
-0.01048
-0.00589456
-0.0062997
-0.00373219
-0.00609713
-0.00501595
-0.00481337
-0.00589456
-0.00373219
-0.00584399
-0.00481337
-0.00478809
-0.00586927
-0.00589456
-0.0079477
-0.0062997
-0.00692113
-0.0071237
-0.00609713
-0.00589456
-0.00584399
-0.0079477
-0.00586927
-0.00689585
-0.00692113
-0.00126503
-0.00121103
-0.00373219
-0.00123803
-0.00247161
-0.00249861
-0.00126503
-0.00373219
-0.00149791
-0.00249861
-0.00261505
-0.00138147
-0.00395957
-0.00373219
-0.0062997
-0.00384588
-0.00501595
-0.00512963
-0.00395957
-0.00149791
-0.00373219
-0.00272874
-0.00261505
-0.00384588
-0.00395957
-0.0062997
-0.00460471
-0.00512963
-0.00545221
-0.00428214
-0.00395957
-0.00460471
-0.00149791
-0.00428214
-0.00305131
-0.00272874
-0.00969494
-0.0079477
-0.00960747
-0.00882132
-0.00877758
-0.0096512
-0.00969494
-0.0100269
-0.0079477
-0.00986092
-0.0089873
-0.00882132
-0.00969494
-0.00960747
-0.011265
-0.0096512
-0.0104362
-0.01048
-0.00969494
-0.011265
-0.0100269
-0.01048
-0.010646
-0.00986092
-0.00825343
-0.0062997
-0.0079477
-0.00727656
-0.0071237
-0.00810057
-0.00825343
-0.0079477
-0.0100269
-0.00810057
-0.0089873
-0.00914016
-0.00825343
-0.00887577
-0.0062997
-0.0085646
-0.00758773
-0.00727656
-0.00825343
-0.0100269
-0.00887577
-0.00914016
-0.00945133
-0.0085646
-0.0115588
-0.0120193
-0.0128864
-0.011789
-0.0124528
-0.0122226
-0.0115588
-0.0100269
-0.0120193
-0.0107928
-0.0110231
-0.011789
-0.0115588
-0.0128864
-0.011265
-0.0122226
-0.0120757
-0.0114119
-0.0115588
-0.011265
-0.0100269
-0.0114119
-0.010646
-0.0107928
-0.0133317
-0.0128864
-0.0120193
-0.013109
-0.0124528
-0.0126755
-0.0133317
-0.0120193
-0.0138732
-0.0126755
-0.0129462
-0.0136024
-0.0133317
-0.0144469
-0.0128864
-0.0138893
-0.0136666
-0.013109
-0.0133317
-0.0138732
-0.0144469
-0.0136024
-0.01416
-0.0138893
-0.0111691
-0.00960747
-0.011265
-0.0103883
-0.0104362
-0.011217
-0.0111691
-0.011265
-0.0125421
-0.011217
-0.0119036
-0.0118556
-0.0111691
-0.011265
-0.00960747
-0.011217
-0.0104362
-0.0103883
-0.0111691
-0.0125421
-0.011265
-0.0118556
-0.0119036
-0.011217
-0.0126428
-0.011265
-0.0128864
-0.0119539
-0.0120757
-0.0127646
-0.0126428
-0.0125421
-0.011265
-0.0125925
-0.0119036
-0.0119539
-0.0126428
-0.0128864
-0.0138213
-0.0127646
-0.0133538
-0.0132321
-0.0126428
-0.0138213
-0.0125421
-0.0132321
-0.0131817
-0.0125925
-0.0137615
-0.0138213
-0.0147776
-0.0137914
-0.0142994
-0.0142695
-0.0137615
-0.0125421
-0.0138213
-0.0131518
-0.0131817
-0.0137914
-0.0137615
-0.0147776
-0.0138213
-0.0142695
-0.0142994
-0.0137914
-0.0137615
-0.0138213
-0.0125421
-0.0137914
-0.0131817
-0.0131518
-0.0148811
-0.0147776
-0.0138213
-0.0148293
-0.0142994
-0.0143512
-0.0148811
-0.0138213
-0.0150852
-0.0143512
-0.0144533
-0.0149831
-0.0148811
-0.0157371
-0.0147776
-0.0153091
-0.0152573
-0.0148293
-0.0148811
-0.0150852
-0.0157371
-0.0149831
-0.0154112
-0.0153091
-0.0140835
-0.0138213
-0.0128864
-0.0139524
-0.0133538
-0.0134849
-0.0140835
-0.0150852
-0.0138213
-0.0145844
-0.0144533
-0.0139524
-0.0140835
-0.0128864
-0.0144469
-0.0134849
-0.0136666
-0.0142652
-0.0140835
-0.0144469
-0.0150852
-0.0142652
-0.0147661
-0.0145844
-0.0126428
-0.0138213
-0.0128864
-0.0132321
-0.0133538
-0.0127646
-0.0126428
-0.0125421
-0.0138213
-0.0125925
-0.0131817
-0.0132321
-0.0126428
-0.0128864
-0.011265
-0.0127646
-0.0120757
-0.0119539
-0.0126428
-0.011265
-0.0125421
-0.0119539
-0.0119036
-0.0125925
-0.0148811
-0.0138213
-0.0147776
-0.0143512
-0.0142994
-0.0148293
-0.0148811
-0.0150852
-0.0138213
-0.0149831
-0.0144533
-0.0143512
-0.0148811
-0.0147776
-0.0157371
-0.0148293
-0.0152573
-0.0153091
-0.0148811
-0.0157371
-0.0150852
-0.0153091
-0.0154112
-0.0149831
-0.0140835
-0.0128864
-0.0138213
-0.0134849
-0.0133538
-0.0139524
-0.0140835
-0.0138213
-0.0150852
-0.0139524
-0.0144533
-0.0145844
-0.0140835
-0.0144469
-0.0128864
-0.0142652
-0.0136666
-0.0134849
-0.0140835
-0.0150852
-0.0144469
-0.0145844
-0.0147661
-0.0142652
-0.0115588
-0.011265
-0.0128864
-0.0114119
-0.0120757
-0.0122226
-0.0115588
-0.0100269
-0.011265
-0.0107928
-0.010646
-0.0114119
-0.0115588
-0.0128864
-0.0120193
-0.0122226
-0.0124528
-0.011789
-0.0115588
-0.0120193
-0.0100269
-0.011789
-0.0110231
-0.0107928
-0.0154807
-0.0144469
-0.0159505
-0.0149638
-0.0151987
-0.0157156
-0.0154807
-0.0150852
-0.0144469
-0.015283
-0.0147661
-0.0149638
-0.0154807
-0.0159505
-0.016342
-0.0157156
-0.0161463
-0.0159114
-0.0154807
-0.016342
-0.0150852
-0.0159114
-0.0157136
-0.015283
-0.0149882
-0.0159505
-0.0144469
-0.0154694
-0.0151987
-0.0147176
-0.0149882
-0.0144469
-0.0138732
-0.0147176
-0.01416
-0.0144307
-0.0149882
-0.0155864
-0.0159505
-0.0152873
-0.0157685
-0.0154694
-0.0149882
-0.0138732
-0.0155864
-0.0144307
-0.0147298
-0.0152873
-0.0159955
-0.0167107
-0.0157371
-0.0163531
-0.0162239
-0.0158663
-0.0159955
-0.0157371
-0.0150852
-0.0158663
-0.0154112
-0.0155404
-0.0159955
-0.016342
-0.0167107
-0.0161688
-0.0165264
-0.0163531
-0.0159955
-0.0150852
-0.016342
-0.0155404
-0.0157136
-0.0161688
-0.0156858
-0.0147776
-0.0157371
-0.0152317
-0.0152573
-0.0157114
-0.0156858
-0.0157371
-0.0163818
-0.0157114
-0.0160595
-0.0160338
-0.0156858
-0.0157371
-0.0147776
-0.0157114
-0.0152573
-0.0152317
-0.0156858
-0.0163818
-0.0157371
-0.0160338
-0.0160595
-0.0157114
-0.0164916
-0.0157371
-0.0167107
-0.0161143
-0.0162239
-0.0166011
-0.0164916
-0.0163818
-0.0157371
-0.0164367
-0.0160595
-0.0161143
-0.0164916
-0.0167107
-0.0170305
-0.0166011
-0.0168706
-0.016761
-0.0164916
-0.0170305
-0.0163818
-0.016761
-0.0167061
-0.0164367
-0.016857
-0.016342
-0.0159505
-0.0165995
-0.0161463
-0.0164037
-0.016857
-0.0176275
-0.016342
-0.0172422
-0.0169847
-0.0165995
-0.016857
-0.0159505
-0.017429
-0.0164037
-0.0166898
-0.017143
-0.016857
-0.017429
-0.0176275
-0.017143
-0.0175282
-0.0172422
-0.0171309
-0.0167107
-0.016342
-0.0169208
-0.0165264
-0.0167365
-0.0171309
-0.016342
-0.0176275
-0.0167365
-0.0169847
-0.0173792
-0.0171309
-0.0177411
-0.0167107
-0.017436
-0.0172259
-0.0169208
-0.0171309
-0.0176275
-0.0177411
-0.0173792
-0.0176843
-0.017436
-0.0165567
-0.0159505
-0.0155864
-0.0162536
-0.0157685
-0.0160716
-0.0165567
-0.0155864
-0.017209
-0.0160716
-0.0163977
-0.0168829
-0.0165567
-0.017429
-0.0159505
-0.0169929
-0.0166898
-0.0162536
-0.0165567
-0.017209
-0.017429
-0.0168829
-0.017319
-0.0169929
-0.0162878
-0.0155864
-0.0153162
-0.0159371
-0.0154513
-0.015802
-0.0162878
-0.017209
-0.0155864
-0.0167484
-0.0163977
-0.0159371
-0.0162878
-0.0153162
-0.0170133
-0.015802
-0.0161647
-0.0166505
-0.0162878
-0.0170133
-0.017209
-0.0166505
-0.0171111
-0.0167484
-0.0105677
-0.0120193
-0.011308
-0.0112935
-0.0116637
-0.0109379
-0.0105677
-0.0100269
-0.0120193
-0.0102973
-0.0110231
-0.0112935
-0.0105677
-0.011308
-0.00887577
-0.0109379
-0.0100919
-0.00972173
-0.0105677
-0.00887577
-0.0100269
-0.00972173
-0.00945133
-0.0102973
-0.0127005
-0.011308
-0.0120193
-0.0120043
-0.0116637
-0.0123599
-0.0127005
-0.0120193
-0.0138732
-0.0123599
-0.0129462
-0.0132869
-0.0127005
-0.0134516
-0.011308
-0.0130761
-0.0123798
-0.0120043
-0.0127005
-0.0138732
-0.0134516
-0.0132869
-0.0136624
-0.0130761
-0.0133317
-0.0120193
-0.0128864
-0.0126755
-0.0124528
-0.013109
-0.0133317
-0.0138732
-0.0120193
-0.0136024
-0.0129462
-0.0126755
-0.0133317
-0.0128864
-0.0144469
-0.013109
-0.0136666
-0.0138893
-0.0133317
-0.0144469
-0.0138732
-0.0138893
-0.01416
-0.0136024
-0.009763
-0.00887577
-0.011308
-0.00931938
-0.0100919
-0.0105355
-0.009763
-0.00788986
-0.00887577
-0.00882643
-0.00838281
-0.00931938
-0.009763
-0.011308
-0.0109076
-0.0105355
-0.0111078
-0.0103353
-0.009763
-0.0109076
-0.00788986
-0.0103353
-0.00939874
-0.00882643
-0.00684668
-0.0062997
-0.00887577
-0.00657319
-0.00758773
-0.00786122
-0.00684668
-0.00887577
-0.00788986
-0.00786122
-0.00838281
-0.00736827
-0.00684668
-0.00460471
-0.0062997
-0.0057257
-0.00545221
-0.00657319
-0.00684668
-0.00788986
-0.00460471
-0.00736827
-0.00624729
-0.0057257
-0.0154807
-0.0159505
-0.0144469
-0.0157156
-0.0151987
-0.0149638
-0.0154807
-0.0144469
-0.0150852
-0.0149638
-0.0147661
-0.015283
-0.0154807
-0.016342
-0.0159505
-0.0159114
-0.0161463
-0.0157156
-0.0154807
-0.0150852
-0.016342
-0.015283
-0.0157136
-0.0159114
-0.0149882
-0.0144469
-0.0159505
-0.0147176
-0.0151987
-0.0154694
-0.0149882
-0.0138732
-0.0144469
-0.0144307
-0.01416
-0.0147176
-0.0149882
-0.0159505
-0.0155864
-0.0154694
-0.0157685
-0.0152873
-0.0149882
-0.0155864
-0.0138732
-0.0152873
-0.0147298
-0.0144307
-0.0159955
-0.0157371
-0.0167107
-0.0158663
-0.0162239
-0.0163531
-0.0159955
-0.0150852
-0.0157371
-0.0155404
-0.0154112
-0.0158663
-0.0159955
-0.0167107
-0.016342
-0.0163531
-0.0165264
-0.0161688
-0.0159955
-0.016342
-0.0150852
-0.0161688
-0.0157136
-0.0155404
-0.0164916
-0.0167107
-0.0157371
-0.0166011
-0.0162239
-0.0161143
-0.0164916
-0.0157371
-0.0163818
-0.0161143
-0.0160595
-0.0164367
-0.0164916
-0.0170305
-0.0167107
-0.016761
-0.0168706
-0.0166011
-0.0164916
-0.0163818
-0.0170305
-0.0164367
-0.0167061
-0.016761
-0.016857
-0.0159505
-0.016342
-0.0164037
-0.0161463
-0.0165995
-0.016857
-0.016342
-0.0176275
-0.0165995
-0.0169847
-0.0172422
-0.016857
-0.017429
-0.0159505
-0.017143
-0.0166898
-0.0164037
-0.016857
-0.0176275
-0.017429
-0.0172422
-0.0175282
-0.017143
-0.0171309
-0.016342
-0.0167107
-0.0167365
-0.0165264
-0.0169208
-0.0171309
-0.0176275
-0.016342
-0.0173792
-0.0169847
-0.0167365
-0.0171309
-0.0167107
-0.0177411
-0.0169208
-0.0172259
-0.017436
-0.0171309
-0.0177411
-0.0176275
-0.017436
-0.0176843
-0.0173792
-0.0145852
-0.0153162
-0.0134516
-0.0149507
-0.0143839
-0.0140184
-0.0145852
-0.0134516
-0.0138732
-0.0140184
-0.0136624
-0.0142292
-0.0145852
-0.0155864
-0.0153162
-0.0150858
-0.0154513
-0.0149507
-0.0145852
-0.0138732
-0.0155864
-0.0142292
-0.0147298
-0.0150858
-0.0123317
-0.011308
-0.0134516
-0.0118199
-0.0123798
-0.0128917
-0.0123317
-0.0134516
-0.0133564
-0.0128917
-0.013404
-0.0128441
-0.0123317
-0.0109076
-0.011308
-0.0116197
-0.0111078
-0.0118199
-0.0123317
-0.0133564
-0.0109076
-0.0128441
-0.012132
-0.0116197
-0.0143633
-0.0134516
-0.0153162
-0.0139075
-0.0143839
-0.0148398
-0.0143633
-0.0133564
-0.0134516
-0.0138599
-0.013404
-0.0139075
-0.0143633
-0.0153162
-0.0152007
-0.0148398
-0.0152584
-0.014782
-0.0143633
-0.0152007
-0.0133564
-0.014782
-0.0142785
-0.0138599
-0.0165567
-0.0155864
-0.0159505
-0.0160716
-0.0157685
-0.0162536
-0.0165567
-0.017209
-0.0155864
-0.0168829
-0.0163977
-0.0160716
-0.0165567
-0.0159505
-0.017429
-0.0162536
-0.0166898
-0.0169929
-0.0165567
-0.017429
-0.017209
-0.0169929
-0.017319
-0.0168829
-0.0162878
-0.0153162
-0.0155864
-0.015802
-0.0154513
-0.0159371
-0.0162878
-0.0155864
-0.017209
-0.0159371
-0.0163977
-0.0167484
-0.0162878
-0.0170133
-0.0153162
-0.0166505
-0.0161647
-0.015802
-0.0162878
-0.017209
-0.0170133
-0.0167484
-0.0171111
-0.0166505
-0.00185765
-0.00460471
-0.00268011
-0.00323118
-0.00364241
-0.00226888
-0.00185765
-0.00149791
-0.00460471
-0.00167778
-0.00305131
-0.00323118
-0.00541019
-0.00268011
-0.00460471
-0.00404515
-0.00364241
-0.00500745
-0.00541019
-0.00460471
-0.00788986
-0.00500745
-0.00624729
-0.00665002
-0.00541019
-0.00699991
-0.00268011
-0.00620505
-0.00484001
-0.00404515
-0.00541019
-0.00788986
-0.00699991
-0.00665002
-0.00744488
-0.00620505
-0.00932711
-0.0109076
-0.0113192
-0.0101174
-0.0111134
-0.0103232
-0.00932711
-0.00788986
-0.0109076
-0.00860848
-0.00939874
-0.0101174
-0.00932711
-0.0113192
-0.00699991
-0.0103232
-0.00915956
-0.00816351
-0.00932711
-0.00699991
-0.00788986
-0.00816351
-0.00744488
-0.00860848
-0.0125376
-0.0113192
-0.0109076
-0.0119284
-0.0111134
-0.0117226
-0.0125376
-0.0109076
-0.0133564
-0.0117226
-0.012132
-0.012947
-0.0125376
-0.0138971
-0.0113192
-0.0132173
-0.0126082
-0.0119284
-0.0125376
-0.0133564
-0.0138971
-0.012947
-0.0136268
-0.0132173
-0.00348787
-0.00268011
-0.00699991
-0.00308399
-0.00484001
-0.00524389
-0.00348787
-0.00699991
-0.0066924
-0.00524389
-0.00684616
-0.00509014
-0.00949644
-0.00699991
-0.0113192
-0.00824817
-0.00915956
-0.0104078
-0.00949644
-0.0066924
-0.00699991
-0.00809442
-0.00684616
-0.00824817
-0.00949644
-0.0113192
-0.0136663
-0.0104078
-0.0124927
-0.0115813
-0.00949644
-0.0136663
-0.0066924
-0.0115813
-0.0101793
-0.00809442
-0.0177557
-0.0186731
-0.0170133
-0.0182144
-0.0178432
-0.0173845
-0.0177557
-0.0170133
-0.0168468
-0.0173845
-0.01693
-0.0173012
-0.0179202
-0.0170133
-0.0186731
-0.0174667
-0.0178432
-0.0182966
-0.0179202
-0.017209
-0.0170133
-0.0175646
-0.0171111
-0.0174667
-0.0179202
-0.0186731
-0.0187932
-0.0182966
-0.0187331
-0.0183567
-0.0179202
-0.0187932
-0.017209
-0.0183567
-0.0180011
-0.0175646
-0.0180913
-0.0187932
-0.0189267
-0.0184423
-0.01886
-0.018509
-0.0180913
-0.017209
-0.0187932
-0.0176502
-0.0180011
-0.0184423
-0.0180913
-0.0189267
-0.017429
-0.018509
-0.0181779
-0.0177602
-0.0180913
-0.017429
-0.017209
-0.0177602
-0.017319
-0.0176502
-0.0195348
-0.0187932
-0.0186731
-0.019164
-0.0187331
-0.019104
-0.0195348
-0.0203517
-0.0187932
-0.0199433
-0.0195724
-0.019164
-0.0196241
-0.0189267
-0.0187932
-0.0192754
-0.01886
-0.0192087
-0.0196241
-0.0187932
-0.0203517
-0.0192087
-0.0195724
-0.0199879
-0.0196241
-0.0204644
-0.0189267
-0.0200442
-0.0196955
-0.0192754
-0.0196241
-0.0203517
-0.0204644
-0.0199879
-0.020408
-0.0200442
-0.0182593
-0.017429
-0.0189267
-0.0178442
-0.0181779
-0.018593
-0.0182593
-0.0176275
-0.017429
-0.0179434
-0.0175282
-0.0178442
-0.0182593
-0.0189267
-0.0190021
-0.018593
-0.0189644
-0.0186307
-0.0182593
-0.0190021
-0.0176275
-0.0186307
-0.0183148
-0.0179434
-0.0183461
-0.0189095
-0.0177411
-0.0186278
-0.0183253
-0.0180436
-0.0183461
-0.0177411
-0.0176275
-0.0180436
-0.0176843
-0.0179868
-0.0183461
-0.0190021
-0.0189095
-0.0186741
-0.0189558
-0.0186278
-0.0183461
-0.0176275
-0.0190021
-0.0179868
-0.0183148
-0.0186741
-0.0182601
-0.0177411
-0.0189095
-0.0180006
-0.0183253
-0.0185848
-0.0182601
-0.0177287
-0.0177411
-0.0179944
-0.0177349
-0.0180006
-0.0182601
-0.0189095
-0.0185616
-0.0185848
-0.0187356
-0.0184109
-0.0182601
-0.0185616
-0.0177287
-0.0184109
-0.0181451
-0.0179944
-0.0173273
-0.0167107
-0.0177411
-0.017019
-0.0172259
-0.0175342
-0.0173273
-0.0177411
-0.0177287
-0.0175342
-0.0177349
-0.017528
-0.0173273
-0.0170305
-0.0167107
-0.0171789
-0.0168706
-0.017019
-0.0173273
-0.0177287
-0.0170305
-0.017528
-0.0173796
-0.0171789
-0.0197382
-0.0189095
-0.0190021
-0.0193239
-0.0189558
-0.0193702
-0.0197382
-0.0190021
-0.0205564
-0.0193702
-0.0197793
-0.0201473
-0.0197382
-0.0203529
-0.0189095
-0.0200456
-0.0196312
-0.0193239
-0.0197382
-0.0205564
-0.0203529
-0.0201473
-0.0204546
-0.0200456
-0.0197403
-0.0190021
-0.0189267
-0.0193712
-0.0189644
-0.0193335
-0.0197403
-0.0205564
-0.0190021
-0.0201484
-0.0197793
-0.0193712
-0.0197403
-0.0189267
-0.0204644
-0.0193335
-0.0196955
-0.0201024
-0.0197403
-0.0204644
-0.0205564
-0.0201024
-0.0205104
-0.0201484
-0.01696
-0.0170305
-0.0173093
-0.0169953
-0.0171699
-0.0171347
-0.01696
-0.0163818
-0.0170305
-0.0166709
-0.0167061
-0.0169953
-0.01696
-0.0173093
-0.0170305
-0.0171347
-0.0171699
-0.0169953
-0.01696
-0.0170305
-0.0163818
-0.0169953
-0.0167061
-0.0166709
-0.0174296
-0.0173093
-0.0170305
-0.0173695
-0.0171699
-0.01723
-0.0174296
-0.0170305
-0.0177287
-0.01723
-0.0173796
-0.0175791
-0.0174296
-0.0175919
-0.0173093
-0.0175107
-0.0174506
-0.0173695
-0.0174296
-0.0177287
-0.0175919
-0.0175791
-0.0176603
-0.0175107
-0.0174296
-0.0170305
-0.0173093
-0.01723
-0.0171699
-0.0173695
-0.0174296
-0.0177287
-0.0170305
-0.0175791
-0.0173796
-0.01723
-0.0174296
-0.0173093
-0.0175919
-0.0173695
-0.0174506
-0.0175107
-0.0174296
-0.0175919
-0.0177287
-0.0175107
-0.0176603
-0.0175791
-0.0173273
-0.0167107
-0.0170305
-0.017019
-0.0168706
-0.0171789
-0.0173273
-0.0170305
-0.0177287
-0.0171789
-0.0173796
-0.017528
-0.0173273
-0.0177411
-0.0167107
-0.0175342
-0.0172259
-0.017019
-0.0173273
-0.0177287
-0.0177411
-0.017528
-0.0177349
-0.0175342
-0.0179658
-0.0185616
-0.0179583
-0.0182637
-0.01826
-0.0179621
-0.0179658
-0.0177287
-0.0185616
-0.0178472
-0.0181451
-0.0182637
-0.0179658
-0.0179583
-0.0175919
-0.0179621
-0.0177751
-0.0177788
-0.0179658
-0.0175919
-0.0177287
-0.0177788
-0.0176603
-0.0178472
-0.0194069
-0.0185616
-0.0189095
-0.0189843
-0.0187356
-0.0191582
-0.0194069
-0.0196726
-0.0185616
-0.0195398
-0.0191171
-0.0189843
-0.0194069
-0.0189095
-0.0203529
-0.0191582
-0.0196312
-0.0198799
-0.0194069
-0.0203529
-0.0196726
-0.0198799
-0.0200127
-0.0195398
-0.0186699
-0.0179583
-0.0185616
-0.0183141
-0.01826
-0.0186157
-0.0186699
-0.0185616
-0.0196726
-0.0186157
-0.0191171
-0.0191712
-0.0186699
-0.0185129
-0.0179583
-0.0185914
-0.0182356
-0.0183141
-0.0186699
-0.0196726
-0.0185129
-0.0191712
-0.0190927
-0.0185914
-0.0174668
-0.0173093
-0.0175919
-0.0173881
-0.0174506
-0.0175293
-0.0174668
-0.0175919
-0.0173792
-0.0175293
-0.0174855
-0.017423
-0.0174668
-0.0175919
-0.0173093
-0.0175293
-0.0174506
-0.0173881
-0.0174668
-0.0173792
-0.0175919
-0.017423
-0.0174855
-0.0175293
-0.0175043
-0.0175919
-0.0179583
-0.0175481
-0.0177751
-0.0177313
-0.0175043
-0.0173792
-0.0175919
-0.0174418
-0.0174855
-0.0175481
-0.0175043
-0.0179583
-0.0171661
-0.0177313
-0.0175622
-0.0173352
-0.0175043
-0.0171661
-0.0173792
-0.0173352
-0.0172727
-0.0174418
-0.0211051
-0.0220308
-0.0204644
-0.021568
-0.0212476
-0.0207847
-0.0211051
-0.0204644
-0.0203517
-0.0207847
-0.020408
-0.0207284
-0.0213224
-0.0204644
-0.0220308
-0.0208934
-0.0212476
-0.0216766
-0.0213224
-0.0205564
-0.0204644
-0.0209394
-0.0205104
-0.0208934
-0.0213224
-0.0220308
-0.0223987
-0.0216766
-0.0222148
-0.0218605
-0.0213224
-0.0223987
-0.0205564
-0.0218605
-0.0214776
-0.0209394
-0.0214707
-0.0223622
-0.0203529
-0.0219164
-0.0213576
-0.0209118
-0.0214707
-0.0203529
-0.0205564
-0.0209118
-0.0204546
-0.0210135
-0.0214707
-0.0223987
-0.0223622
-0.0219347
-0.0223805
-0.0219164
-0.0214707
-0.0205564
-0.0223987
-0.0210135
-0.0214776
-0.0219347
-0.0209734
-0.0203529
-0.0223622
-0.0206632
-0.0213576
-0.0216678
-0.0209734
-0.0196726
-0.0203529
-0.020323
-0.0200127
-0.0206632
-0.0209734
-0.0223622
-0.0212796
-0.0216678
-0.0218209
-0.0211265
-0.0209734
-0.0212796
-0.0196726
-0.0211265
-0.0204761
-0.020323
-0.0228201
-0.0223987
-0.0220308
-0.0226094
-0.0222148
-0.0224255
-0.0228201
-0.0248948
-0.0223987
-0.0238575
-0.0236467
-0.0226094
-0.0238328
-0.0223622
-0.0223987
-0.0230975
-0.0223805
-0.0231157
-0.0238328
-0.0223987
-0.0248948
-0.0231157
-0.0236467
-0.0243638
-0.0238328
-0.0256775
-0.0223622
-0.0247551
-0.0240198
-0.0230975
-0.0238328
-0.0248948
-0.0256775
-0.0243638
-0.0252861
-0.0247551
-0.00739638
-0.0136663
-0.0383609
-0.0105313
-0.0260136
-0.0228786
-0.00739638
-0.0066924
-0.0136663
-0.00704439
-0.0101793
-0.0105313
-0.0188913
-0.0383609
-0.0136663
-0.0286261
-0.0260136
-0.0162788
-0.0188913
-0.0136663
-0.0163552
-0.0162788
-0.0150107
-0.0176233
-0.0142486
-0.0136663
-0.0113192
-0.0139574
-0.0124927
-0.0127839
-0.0142486
-0.0163552
-0.0136663
-0.0153019
-0.0150107
-0.0139574
-0.0142486
-0.0113192
-0.0138971
-0.0127839
-0.0126082
-0.0140729
-0.0142486
-0.0138971
-0.0163552
-0.0140729
-0.0151262
-0.0153019
-0.0146351
-0.0138971
-0.015341
-0.0142661
-0.014619
-0.014988
-0.0146351
-0.0163552
-0.0138971
-0.0154952
-0.0151262
-0.0142661
-0.0144313
-0.015341
-0.0138971
-0.0148862
-0.014619
-0.0141642
-0.0144313
-0.0138971
-0.0133564
-0.0141642
-0.0136268
-0.0138939
-0.0144313
-0.0152007
-0.015341
-0.014816
-0.0152708
-0.0148862
-0.0144313
-0.0133564
-0.0152007
-0.0138939
-0.0142785
-0.014816
-0.0158752
-0.015341
-0.0152007
-0.0156081
-0.0152708
-0.0155379
-0.0158752
-0.0152007
-0.0168468
-0.0155379
-0.0160237
-0.016361
-0.0160824
-0.0152007
-0.0153162
-0.0156415
-0.0152584
-0.0156993
-0.0160824
-0.0168468
-0.0152007
-0.0164646
-0.0160237
-0.0156415
-0.0160824
-0.0153162
-0.0170133
-0.0156993
-0.0161647
-0.0165478
-0.0160824
-0.0170133
-0.0168468
-0.0165478
-0.01693
-0.0164646
-0.0177557
-0.0170133
-0.0186731
-0.0173845
-0.0178432
-0.0182144
-0.0177557
-0.0168468
-0.0170133
-0.0173012
-0.01693
-0.0173845
-0.0179202
-0.0186731
-0.0170133
-0.0182966
-0.0178432
-0.0174667
-0.0179202
-0.0170133
-0.017209
-0.0174667
-0.0171111
-0.0175646
-0.0179202
-0.0187932
-0.0186731
-0.0183567
-0.0187331
-0.0182966
-0.0179202
-0.017209
-0.0187932
-0.0175646
-0.0180011
-0.0183567
-0.0180913
-0.0189267
-0.0187932
-0.018509
-0.01886
-0.0184423
-0.0180913
-0.0187932
-0.017209
-0.0184423
-0.0180011
-0.0176502
-0.0180913
-0.017429
-0.0189267
-0.0177602
-0.0181779
-0.018509
-0.0180913
-0.017209
-0.017429
-0.0176502
-0.017319
-0.0177602
-0.0195348
-0.0186731
-0.0187932
-0.019104
-0.0187331
-0.019164
-0.0195348
-0.0187932
-0.0203517
-0.019164
-0.0195724
-0.0199433
-0.0196241
-0.0187932
-0.0189267
-0.0192087
-0.01886
-0.0192754
-0.0196241
-0.0203517
-0.0187932
-0.0199879
-0.0195724
-0.0192087
-0.0196241
-0.0189267
-0.0204644
-0.0192754
-0.0196955
-0.0200442
-0.0196241
-0.0204644
-0.0203517
-0.0200442
-0.020408
-0.0199879
-0.0182593
-0.0189267
-0.017429
-0.018593
-0.0181779
-0.0178442
-0.0182593
-0.017429
-0.0176275
-0.0178442
-0.0175282
-0.0179434
-0.0182593
-0.0190021
-0.0189267
-0.0186307
-0.0189644
-0.018593
-0.0182593
-0.0176275
-0.0190021
-0.0179434
-0.0183148
-0.0186307
-0.0183461
-0.0177411
-0.0189095
-0.0180436
-0.0183253
-0.0186278
-0.0183461
-0.0176275
-0.0177411
-0.0179868
-0.0176843
-0.0180436
-0.0183461
-0.0189095
-0.0190021
-0.0186278
-0.0189558
-0.0186741
-0.0183461
-0.0190021
-0.0176275
-0.0186741
-0.0183148
-0.0179868
-0.0182601
-0.0189095
-0.0177411
-0.0185848
-0.0183253
-0.0180006
-0.0182601
-0.0177411
-0.0177287
-0.0180006
-0.0177349
-0.0179944
-0.0182601
-0.0185616
-0.0189095
-0.0184109
-0.0187356
-0.0185848
-0.0182601
-0.0177287
-0.0185616
-0.0179944
-0.0181451
-0.0184109
-0.0197382
-0.0190021
-0.0189095
-0.0193702
-0.0189558
-0.0193239
-0.0197382
-0.0205564
-0.0190021
-0.0201473
-0.0197793
-0.0193702
-0.0197382
-0.0189095
-0.0203529
-0.0193239
-0.0196312
-0.0200456
-0.0197382
-0.0203529
-0.0205564
-0.0200456
-0.0204546
-0.0201473
-0.0197403
-0.0189267
-0.0190021
-0.0193335
-0.0189644
-0.0193712
-0.0197403
-0.0190021
-0.0205564
-0.0193712
-0.0197793
-0.0201484
-0.0197403
-0.0204644
-0.0189267
-0.0201024
-0.0196955
-0.0193335
-0.0197403
-0.0205564
-0.0204644
-0.0201484
-0.0205104
-0.0201024
-0.0179658
-0.0179583
-0.0185616
-0.0179621
-0.01826
-0.0182637
-0.0179658
-0.0185616
-0.0177287
-0.0182637
-0.0181451
-0.0178472
-0.0179658
-0.0175919
-0.0179583
-0.0177788
-0.0177751
-0.0179621
-0.0179658
-0.0177287
-0.0175919
-0.0178472
-0.0176603
-0.0177788
-0.0194069
-0.0189095
-0.0185616
-0.0191582
-0.0187356
-0.0189843
-0.0194069
-0.0185616
-0.0196726
-0.0189843
-0.0191171
-0.0195398
-0.0194069
-0.0203529
-0.0189095
-0.0198799
-0.0196312
-0.0191582
-0.0194069
-0.0196726
-0.0203529
-0.0195398
-0.0200127
-0.0198799
-0.0186699
-0.0185616
-0.0179583
-0.0186157
-0.01826
-0.0183141
-0.0186699
-0.0196726
-0.0185616
-0.0191712
-0.0191171
-0.0186157
-0.0186699
-0.0179583
-0.0185129
-0.0183141
-0.0182356
-0.0185914
-0.0186699
-0.0185129
-0.0196726
-0.0185914
-0.0190927
-0.0191712
-0.0175043
-0.0179583
-0.0175919
-0.0177313
-0.0177751
-0.0175481
-0.0175043
-0.0175919
-0.0173792
-0.0175481
-0.0174855
-0.0174418
-0.0175043
-0.0171661
-0.0179583
-0.0173352
-0.0175622
-0.0177313
-0.0175043
-0.0173792
-0.0171661
-0.0174418
-0.0172727
-0.0173352
-0.0211051
-0.0204644
-0.0220308
-0.0207847
-0.0212476
-0.021568
-0.0211051
-0.0203517
-0.0204644
-0.0207284
-0.020408
-0.0207847
-0.0213224
-0.0220308
-0.0204644
-0.0216766
-0.0212476
-0.0208934
-0.0213224
-0.0204644
-0.0205564
-0.0208934
-0.0205104
-0.0209394
-0.0213224
-0.0223987
-0.0220308
-0.0218605
-0.0222148
-0.0216766
-0.0213224
-0.0205564
-0.0223987
-0.0209394
-0.0214776
-0.0218605
-0.0214707
-0.0203529
-0.0223622
-0.0209118
-0.0213576
-0.0219164
-0.0214707
-0.0205564
-0.0203529
-0.0210135
-0.0204546
-0.0209118
-0.0214707
-0.0223622
-0.0223987
-0.0219164
-0.0223805
-0.0219347
-0.0214707
-0.0223987
-0.0205564
-0.0219347
-0.0214776
-0.0210135
-0.0209734
-0.0223622
-0.0203529
-0.0216678
-0.0213576
-0.0206632
-0.0209734
-0.0203529
-0.0196726
-0.0206632
-0.0200127
-0.020323
-0.0209734
-0.0212796
-0.0223622
-0.0211265
-0.0218209
-0.0216678
-0.0209734
-0.0196726
-0.0212796
-0.020323
-0.0204761
-0.0211265
-0.0228201
-0.0220308
-0.0223987
-0.0224255
-0.0222148
-0.0226094
-0.0228201
-0.0223987
-0.0248948
-0.0226094
-0.0236467
-0.0238575
-0.0238328
-0.0223987
-0.0223622
-0.0231157
-0.0223805
-0.0230975
-0.0238328
-0.0248948
-0.0223987
-0.0243638
-0.0236467
-0.0231157
-0.0238328
-0.0223622
-0.0256775
-0.0230975
-0.0240198
-0.0247551
-0.0238328
-0.0256775
-0.0248948
-0.0247551
-0.0252861
-0.0243638
-0.0268666
-0.0256775
-0.0369722
-0.026272
-0.0313248
-0.0319194
-0.0268666
-0.0248948
-0.0256775
-0.0258807
-0.0252861
-0.026272
-0.0267798
-0.0369722
-0.0256775
-0.031876
-0.0313248
-0.0262286
-0.0267798
-0.0256775
-0.0239666
-0.0262286
-0.024822
-0.0253732
-0.0233412
-0.0256775
-0.0223622
-0.0245093
-0.0240198
-0.0228517
-0.0233412
-0.0239666
-0.0256775
-0.0236539
-0.024822
-0.0245093
-0.0233412
-0.0223622
-0.0212796
-0.0228517
-0.0218209
-0.0223104
-0.0233412
-0.0212796
-0.0239666
-0.0223104
-0.0226231
-0.0236539
-0.0209854
-0.0212796
-0.0194138
-0.0211325
-0.0203467
-0.0201996
-0.0209854
-0.0239666
-0.0212796
-0.022476
-0.0226231
-0.0211325
-0.0196683
-0.0194138
-0.0212796
-0.019541
-0.0203467
-0.0204739
-0.0196683
-0.0212796
-0.0196726
-0.0204739
-0.0204761
-0.0196705
-0.0196683
-0.0185129
-0.0194138
-0.0190906
-0.0189633
-0.019541
-0.0196683
-0.0196726
-0.0185129
-0.0196705
-0.0190927
-0.0190906
-0.0178937
-0.0194138
-0.0185129
-0.0186537
-0.0189633
-0.0182033
-0.0178937
-0.0185129
-0.0170574
-0.0182033
-0.0177852
-0.0174756
-0.0176256
-0.0185129
-0.0179583
-0.0180692
-0.0182356
-0.0177919
-0.0176256
-0.0170574
-0.0185129
-0.0173415
-0.0177852
-0.0180692
-0.0176256
-0.0179583
-0.0171661
-0.0177919
-0.0175622
-0.0173959
-0.0176256
-0.0171661
-0.0170574
-0.0173959
-0.0171118
-0.0173415
-0.0163883
-0.0171661
-0.0162978
-0.0167772
-0.016732
-0.016343
-0.0163883
-0.0170574
-0.0171661
-0.0167228
-0.0171118
-0.0167772
-0.016955
-0.0162978
-0.0171661
-0.0166264
-0.016732
-0.0170606
-0.016955
-0.0171661
-0.0173792
-0.0170606
-0.0172727
-0.0171671
-0.016955
-0.0171661
-0.0162978
-0.0170606
-0.016732
-0.0166264
-0.016955
-0.0173792
-0.0171661
-0.0171671
-0.0172727
-0.0170606
-0.0163883
-0.0162978
-0.0171661
-0.016343
-0.016732
-0.0167772
-0.0163883
-0.0171661
-0.0170574
-0.0167772
-0.0171118
-0.0167228
-0.0176256
-0.0171661
-0.0179583
-0.0173959
-0.0175622
-0.0177919
-0.0176256
-0.0170574
-0.0171661
-0.0173415
-0.0171118
-0.0173959
-0.0176256
-0.0179583
-0.0185129
-0.0177919
-0.0182356
-0.0180692
-0.0176256
-0.0185129
-0.0170574
-0.0180692
-0.0177852
-0.0173415
-0.0178937
-0.0185129
-0.0194138
-0.0182033
-0.0189633
-0.0186537
-0.0178937
-0.0170574
-0.0185129
-0.0174756
-0.0177852
-0.0182033
-0.0196683
-0.0194138
-0.0185129
-0.019541
-0.0189633
-0.0190906
-0.0196683
-0.0185129
-0.0196726
-0.0190906
-0.0190927
-0.0196705
-0.0196683
-0.0212796
-0.0194138
-0.0204739
-0.0203467
-0.019541
-0.0196683
-0.0196726
-0.0212796
-0.0196705
-0.0204761
-0.0204739
-0.0209854
-0.0194138
-0.0212796
-0.0201996
-0.0203467
-0.0211325
-0.0209854
-0.0212796
-0.0239666
-0.0211325
-0.0226231
-0.022476
-0.0233412
-0.0212796
-0.0223622
-0.0223104
-0.0218209
-0.0228517
-0.0233412
-0.0239666
-0.0212796
-0.0236539
-0.0226231
-0.0223104
-0.0233412
-0.0223622
-0.0256775
-0.0228517
-0.0240198
-0.0245093
-0.0233412
-0.0256775
-0.0239666
-0.0245093
-0.024822
-0.0236539
-0.0268666
-0.0369722
-0.0256775
-0.0319194
-0.0313248
-0.026272
-0.0268666
-0.0256775
-0.0248948
-0.026272
-0.0252861
-0.0258807
-0.0267798
-0.0256775
-0.0369722
-0.0262286
-0.0313248
-0.031876
-0.0267798
-0.0239666
-0.0256775
-0.0253732
-0.024822
-0.0262286
