# vtk DataFile Version 1.0
2D Unstructured Grid of Linear Triangles
ASCII

DATASET UNSTRUCTURED_GRID
POINTS 12288 float
0 0.03125 0
0 0 0
0.03125 0.03125 0
0 0.015625 0
0.015625 0.015625 0
0.015625 0.03125 0
0 0.03125 0
0.03125 0.03125 0
0 0.0625 0
0.015625 0.03125 0
0.015625 0.046875 0
0 0.046875 0
0.03125 0.0625 0
0.03125 0.03125 0
0.0625 0.0625 0
0.03125 0.046875 0
0.046875 0.046875 0
0.046875 0.0625 0
0.03125 0.0625 0
0 0.0625 0
0.03125 0.03125 0
0.015625 0.0625 0
0.015625 0.046875 0
0.03125 0.046875 0
0.03125 0.0625 0
0.0625 0.0625 0
0.03125 0.09375 0
0.046875 0.0625 0
0.046875 0.078125 0
0.03125 0.078125 0
0.03125 0.0625 0
0.03125 0.09375 0
0 0.0625 0
0.03125 0.078125 0
0.015625 0.078125 0
0.015625 0.0625 0
0.03125 0 0
0.03125 0.03125 0
0 0 0
0.03125 0.015625 0
0.015625 0.015625 0
0.015625 0 0
0.03125 0 0
0.0625 0 0
0.03125 0.03125 0
0.046875 0 0
0.046875 0.015625 0
0.03125 0.015625 0
0.0625 0.03125 0
0.0625 0.0625 0
0.03125 0.03125 0
0.0625 0.046875 0
0.046875 0.046875 0
0.046875 0.03125 0
0.0625 0.03125 0
0.03125 0.03125 0
0.0625 0 0
0.046875 0.03125 0
0.046875 0.015625 0
0.0625 0.015625 0
0.0625 0.03125 0
0.09375 0.03125 0
0.0625 0.0625 0
0.078125 0.03125 0
0.078125 0.046875 0
0.0625 0.046875 0
0.0625 0.03125 0
0.0625 0 0
0.09375 0.03125 0
0.0625 0.015625 0
0.078125 0.015625 0
0.078125 0.03125 0
0 0.09375 0
0.03125 0.09375 0
0 0.125 0
0.015625 0.09375 0
0.015625 0.109375 0
0 0.109375 0
0 0.09375 0
0 0.0625 0
0.03125 0.09375 0
0 0.078125 0
0.015625 0.078125 0
0.015625 0.09375 0
0.03125 0.125 0
0 0.125 0
0.03125 0.09375 0
0.015625 0.125 0
0.015625 0.109375 0
0.03125 0.109375 0
0.03125 0.125 0
0.03125 0.09375 0
0.0625 0.125 0
0.03125 0.109375 0
0.046875 0.109375 0
0.046875 0.125 0
0.03125 0.125 0
0.03125 0.15625 0
0 0.125 0
0.03125 0.140625 0
0.015625 0.140625 0
0.015625 0.125 0
0.03125 0.125 0
0.0625 0.125 0
0.03125 0.15625 0
0.046875 0.125 0
0.046875 0.140625 0
0.03125 0.140625 0
0.0625 0.09375 0
0.03125 0.09375 0
0.0625 0.0625 0
0.046875 0.09375 0
0.046875 0.078125 0
0.0625 0.078125 0
0.0625 0.09375 0
0.0625 0.125 0
0.03125 0.09375 0
0.0625 0.109375 0
0.046875 0.109375 0
0.046875 0.09375 0
0.0625 0.09375 0
0.0625 0.0625 0
0.09375 0.09375 0
0.0625 0.078125 0
0.078125 0.078125 0
0.078125 0.09375 0
0.0625 0.09375 0
0.09375 0.09375 0
0.0625 0.125 0
0.078125 0.09375 0
0.078125 0.109375 0
0.0625 0.109375 0
0.09375 0.125 0
0.09375 0.09375 0
0.125 0.125 0
0.09375 0.109375 0
0.109375 0.109375 0
0.109375 0.125 0
0.09375 0.125 0
0.0625 0.125 0
0.09375 0.09375 0
0.078125 0.125 0
0.078125 0.109375 0
0.09375 0.109375 0
0.09375 0.125 0
0.125 0.125 0
0.09375 0.15625 0
0.109375 0.125 0
0.109375 0.140625 0
0.09375 0.140625 0
0.09375 0.125 0
0.09375 0.15625 0
0.0625 0.125 0
0.09375 0.140625 0
0.078125 0.140625 0
0.078125 0.125 0
0.125 0.09375 0
0.125 0.125 0
0.09375 0.09375 0
0.125 0.109375 0
0.109375 0.109375 0
0.109375 0.09375 0
0.125 0.09375 0
0.09375 0.09375 0
0.125 0.0625 0
0.109375 0.09375 0
0.109375 0.078125 0
0.125 0.078125 0
0.125 0.09375 0
0.15625 0.09375 0
0.125 0.125 0
0.140625 0.09375 0
0.140625 0.109375 0
0.125 0.109375 0
0.125 0.09375 0
0.125 0.0625 0
0.15625 0.09375 0
0.125 0.078125 0
0.140625 0.078125 0
0.140625 0.09375 0
0.09375 0.0625 0
0.09375 0.09375 0
0.0625 0.0625 0
0.09375 0.078125 0
0.078125 0.078125 0
0.078125 0.0625 0
0.09375 0.0625 0
0.125 0.0625 0
0.09375 0.09375 0
0.109375 0.0625 0
0.109375 0.078125 0
0.09375 0.078125 0
0.09375 0.0625 0
0.0625 0.0625 0
0.09375 0.03125 0
0.078125 0.0625 0
0.078125 0.046875 0
0.09375 0.046875 0
0.09375 0.0625 0
0.09375 0.03125 0
0.125 0.0625 0
0.09375 0.046875 0
0.109375 0.046875 0
0.109375 0.0625 0
0.0625 0.15625 0
0.09375 0.15625 0
0.0625 0.1875 0
0.078125 0.15625 0
0.078125 0.171875 0
0.0625 0.171875 0
0.0625 0.15625 0
0.0625 0.125 0
0.09375 0.15625 0
0.0625 0.140625 0
0.078125 0.140625 0
0.078125 0.15625 0
0.0625 0.15625 0
0.0625 0.1875 0
0.03125 0.15625 0
0.0625 0.171875 0
0.046875 0.171875 0
0.046875 0.15625 0
0.0625 0.15625 0
0.03125 0.15625 0
0.0625 0.125 0
0.046875 0.15625 0
0.046875 0.140625 0
0.0625 0.140625 0
0.125 0.15625 0
0.09375 0.15625 0
0.125 0.125 0
0.109375 0.15625 0
0.109375 0.140625 0
0.125 0.140625 0
0.125 0.15625 0
0.125 0.1875 0
0.09375 0.15625 0
0.125 0.171875 0
0.109375 0.171875 0
0.109375 0.15625 0
0.125 0.15625 0
0.125 0.125 0
0.15625 0.15625 0
0.125 0.140625 0
0.140625 0.140625 0
0.140625 0.15625 0
0.125 0.15625 0
0.15625 0.15625 0
0.125 0.1875 0
0.140625 0.15625 0
0.140625 0.171875 0
0.125 0.171875 0
0.09375 0.1875 0
0.0625 0.1875 0
0.09375 0.15625 0
0.078125 0.1875 0
0.078125 0.171875 0
0.09375 0.171875 0
0.09375 0.1875 0
0.09375 0.15625 0
0.125 0.1875 0
0.09375 0.171875 0
0.109375 0.171875 0
0.109375 0.1875 0
0.09375 0.1875 0
0.09375 0.21875 0
0.0625 0.1875 0
0.09375 0.203125 0
0.078125 0.203125 0
0.078125 0.1875 0
0.09375 0.1875 0
0.125 0.1875 0
0.09375 0.21875 0
0.109375 0.1875 0
0.109375 0.203125 0
0.09375 0.203125 0
0 0.15625 0
0 0.125 0
0.03125 0.15625 0
0 0.140625 0
0.015625 0.140625 0
0.015625 0.15625 0
0 0.15625 0
0.03125 0.15625 0
0 0.1875 0
0.015625 0.15625 0
0.015625 0.171875 0
0 0.171875 0
0.03125 0.1875 0
0.03125 0.15625 0
0.0625 0.1875 0
0.03125 0.171875 0
0.046875 0.171875 0
0.046875 0.1875 0
0.03125 0.1875 0
0 0.1875 0
0.03125 0.15625 0
0.015625 0.1875 0
0.015625 0.171875 0
0.03125 0.171875 0
0.03125 0.1875 0
0.0625 0.1875 0
0.03125 0.21875 0
0.046875 0.1875 0
0.046875 0.203125 0
0.03125 0.203125 0
0.03125 0.1875 0
0.03125 0.21875 0
0 0.1875 0
0.03125 0.203125 0
0.015625 0.203125 0
0.015625 0.1875 0
0.09375 0 0
0.125 0 0
0.09375 0.03125 0
0.109375 0 0
0.109375 0.015625 0
0.09375 0.015625 0
0.09375 0 0
0.09375 0.03125 0
0.0625 0 0
0.09375 0.015625 0
0.078125 0.015625 0
0.078125 0 0
0.125 0.03125 0
0.09375 0.03125 0
0.125 0 0
0.109375 0.03125 0
0.109375 0.015625 0
0.125 0.015625 0
0.125 0.03125 0
0.125 0.0625 0
0.09375 0.03125 0
0.125 0.046875 0
0.109375 0.046875 0
0.109375 0.03125 0
0.125 0.03125 0
0.125 0 0
0.15625 0.03125 0
0.125 0.015625 0
0.140625 0.015625 0
0.140625 0.03125 0
0.125 0.03125 0
0.15625 0.03125 0
0.125 0.0625 0
0.140625 0.03125 0
0.140625 0.046875 0
0.125 0.046875 0
0.15625 0.0625 0
0.1875 0.0625 0
0.15625 0.09375 0
0.171875 0.0625 0
0.171875 0.078125 0
0.15625 0.078125 0
0.15625 0.0625 0
0.15625 0.09375 0
0.125 0.0625 0
0.15625 0.078125 0
0.140625 0.078125 0
0.140625 0.0625 0
0.15625 0.0625 0
0.15625 0.03125 0
0.1875 0.0625 0
0.15625 0.046875 0
0.171875 0.046875 0
0.171875 0.0625 0
0.15625 0.0625 0
0.125 0.0625 0
0.15625 0.03125 0
0.140625 0.0625 0
0.140625 0.046875 0
0.15625 0.046875 0
0.15625 0.125 0
0.125 0.125 0
0.15625 0.09375 0
0.140625 0.125 0
0.140625 0.109375 0
0.15625 0.109375 0
0.15625 0.125 0
0.15625 0.09375 0
0.1875 0.125 0
0.15625 0.109375 0
0.171875 0.109375 0
0.171875 0.125 0
0.15625 0.125 0
0.15625 0.15625 0
0.125 0.125 0
0.15625 0.140625 0
0.140625 0.140625 0
0.140625 0.125 0
0.15625 0.125 0
0.1875 0.125 0
0.15625 0.15625 0
0.171875 0.125 0
0.171875 0.140625 0
0.15625 0.140625 0
0.1875 0.09375 0
0.15625 0.09375 0
0.1875 0.0625 0
0.171875 0.09375 0
0.171875 0.078125 0
0.1875 0.078125 0
0.1875 0.09375 0
0.1875 0.125 0
0.15625 0.09375 0
0.1875 0.109375 0
0.171875 0.109375 0
0.171875 0.09375 0
0.1875 0.09375 0
0.1875 0.0625 0
0.21875 0.09375 0
0.1875 0.078125 0
0.203125 0.078125 0
0.203125 0.09375 0
0.1875 0.09375 0
0.21875 0.09375 0
0.1875 0.125 0
0.203125 0.09375 0
0.203125 0.109375 0
0.1875 0.109375 0
0.15625 0 0
0.15625 0.03125 0
0.125 0 0
0.15625 0.015625 0
0.140625 0.015625 0
0.140625 0 0
0.15625 0 0
0.1875 0 0
0.15625 0.03125 0
0.171875 0 0
0.171875 0.015625 0
0.15625 0.015625 0
0.1875 0.03125 0
0.1875 0.0625 0
0.15625 0.03125 0
0.1875 0.046875 0
0.171875 0.046875 0
0.171875 0.03125 0
0.1875 0.03125 0
0.15625 0.03125 0
0.1875 0 0
0.171875 0.03125 0
0.171875 0.015625 0
0.1875 0.015625 0
0.1875 0.03125 0
0.21875 0.03125 0
0.1875 0.0625 0
0.203125 0.03125 0
0.203125 0.046875 0
0.1875 0.046875 0
0.1875 0.03125 0
0.1875 0 0
0.21875 0.03125 0
0.1875 0.015625 0
0.203125 0.015625 0
0.203125 0.03125 0
0 0.21875 0
0.03125 0.21875 0
0 0.25 0
0.015625 0.21875 0
0.015625 0.234375 0
0 0.234375 0
0 0.21875 0
0 0.1875 0
0.03125 0.21875 0
0 0.203125 0
0.015625 0.203125 0
0.015625 0.21875 0
0.03125 0.25 0
0 0.25 0
0.03125 0.21875 0
0.015625 0.25 0
0.015625 0.234375 0
0.03125 0.234375 0
0.03125 0.25 0
0.03125 0.21875 0
0.0625 0.25 0
0.03125 0.234375 0
0.046875 0.234375 0
0.046875 0.25 0
0.03125 0.25 0
0.03125 0.28125 0
0 0.25 0
0.03125 0.265625 0
0.015625 0.265625 0
0.015625 0.25 0
0.03125 0.25 0
0.0625 0.25 0
0.03125 0.28125 0
0.046875 0.25 0
0.046875 0.265625 0
0.03125 0.265625 0
0.0625 0.21875 0
0.03125 0.21875 0
0.0625 0.1875 0
0.046875 0.21875 0
0.046875 0.203125 0
0.0625 0.203125 0
0.0625 0.21875 0
0.0625 0.25 0
0.03125 0.21875 0
0.0625 0.234375 0
0.046875 0.234375 0
0.046875 0.21875 0
0.0625 0.21875 0
0.0625 0.1875 0
0.09375 0.21875 0
0.0625 0.203125 0
0.078125 0.203125 0
0.078125 0.21875 0
0.0625 0.21875 0
0.09375 0.21875 0
0.0625 0.25 0
0.078125 0.21875 0
0.078125 0.234375 0
0.0625 0.234375 0
0.09375 0.25 0
0.09375 0.21875 0
0.125 0.25 0
0.09375 0.234375 0
0.109375 0.234375 0
0.109375 0.25 0
0.09375 0.25 0
0.0625 0.25 0
0.09375 0.21875 0
0.078125 0.25 0
0.078125 0.234375 0
0.09375 0.234375 0
0.09375 0.25 0
0.125 0.25 0
0.09375 0.28125 0
0.109375 0.25 0
0.109375 0.265625 0
0.09375 0.265625 0
0.09375 0.25 0
0.09375 0.28125 0
0.0625 0.25 0
0.09375 0.265625 0
0.078125 0.265625 0
0.078125 0.25 0
0.125 0.21875 0
0.125 0.25 0
0.09375 0.21875 0
0.125 0.234375 0
0.109375 0.234375 0
0.109375 0.21875 0
0.125 0.21875 0
0.09375 0.21875 0
0.125 0.1875 0
0.109375 0.21875 0
0.109375 0.203125 0
0.125 0.203125 0
0.125 0.21875 0
0.15625 0.21875 0
0.125 0.25 0
0.140625 0.21875 0
0.140625 0.234375 0
0.125 0.234375 0
0.125 0.21875 0
0.125 0.1875 0
0.15625 0.21875 0
0.125 0.203125 0
0.140625 0.203125 0
0.140625 0.21875 0
0.0625 0.28125 0
0.0625 0.3125 0
0.03125 0.28125 0
0.0625 0.296875 0
0.046875 0.296875 0
0.046875 0.28125 0
0.0625 0.28125 0
0.03125 0.28125 0
0.0625 0.25 0
0.046875 0.28125 0
0.046875 0.265625 0
0.0625 0.265625 0
0.0625 0.28125 0
0.09375 0.28125 0
0.0625 0.3125 0
0.078125 0.28125 0
0.078125 0.296875 0
0.0625 0.296875 0
0.0625 0.28125 0
0.0625 0.25 0
0.09375 0.28125 0
0.0625 0.265625 0
0.078125 0.265625 0
0.078125 0.28125 0
0 0.28125 0
0 0.25 0
0.03125 0.28125 0
0 0.265625 0
0.015625 0.265625 0
0.015625 0.28125 0
0 0.28125 0
0.03125 0.28125 0
0 0.3125 0
0.015625 0.28125 0
0.015625 0.296875 0
0 0.296875 0
0.03125 0.3125 0
0.03125 0.28125 0
0.0625 0.3125 0
0.03125 0.296875 0
0.046875 0.296875 0
0.046875 0.3125 0
0.03125 0.3125 0
0 0.3125 0
0.03125 0.28125 0
0.015625 0.3125 0
0.015625 0.296875 0
0.03125 0.296875 0
0.03125 0.3125 0
0.0625 0.3125 0
0.03125 0.34375 0
0.046875 0.3125 0
0.046875 0.328125 0
0.03125 0.328125 0
0.03125 0.3125 0
0.03125 0.34375 0
0 0.3125 0
0.03125 0.328125 0
0.015625 0.328125 0
0.015625 0.3125 0
0.125 0.28125 0
0.09375 0.28125 0
0.125 0.25 0
0.109375 0.28125 0
0.109375 0.265625 0
0.125 0.265625 0
0.125 0.28125 0
0.125 0.3125 0
0.09375 0.28125 0
0.125 0.296875 0
0.109375 0.296875 0
0.109375 0.28125 0
0.125 0.28125 0
0.125 0.25 0
0.15625 0.28125 0
0.125 0.265625 0
0.140625 0.265625 0
0.140625 0.28125 0
0.125 0.28125 0
0.15625 0.28125 0
0.125 0.3125 0
0.140625 0.28125 0
0.140625 0.296875 0
0.125 0.296875 0
0.09375 0.3125 0
0.0625 0.3125 0
0.09375 0.28125 0
0.078125 0.3125 0
0.078125 0.296875 0
0.09375 0.296875 0
0.09375 0.3125 0
0.09375 0.28125 0
0.125 0.3125 0
0.09375 0.296875 0
0.109375 0.296875 0
0.109375 0.3125 0
0.09375 0.3125 0
0.09375 0.34375 0
0.0625 0.3125 0
0.09375 0.328125 0
0.078125 0.328125 0
0.078125 0.3125 0
0.09375 0.3125 0
0.125 0.3125 0
0.09375 0.34375 0
0.109375 0.3125 0
0.109375 0.328125 0
0.09375 0.328125 0
0.15625 0.1875 0
0.15625 0.15625 0
0.1875 0.1875 0
0.15625 0.171875 0
0.171875 0.171875 0
0.171875 0.1875 0
0.15625 0.1875 0
0.125 0.1875 0
0.15625 0.15625 0
0.140625 0.1875 0
0.140625 0.171875 0
0.15625 0.171875 0
0.15625 0.1875 0
0.1875 0.1875 0
0.15625 0.21875 0
0.171875 0.1875 0
0.171875 0.203125 0
0.15625 0.203125 0
0.15625 0.1875 0
0.15625 0.21875 0
0.125 0.1875 0
0.15625 0.203125 0
0.140625 0.203125 0
0.140625 0.1875 0
0.1875 0.15625 0
0.1875 0.1875 0
0.15625 0.15625 0
0.1875 0.171875 0
0.171875 0.171875 0
0.171875 0.15625 0
0.1875 0.15625 0
0.15625 0.15625 0
0.1875 0.125 0
0.171875 0.15625 0
0.171875 0.140625 0
0.1875 0.140625 0
0.1875 0.15625 0
0.21875 0.15625 0
0.1875 0.1875 0
0.203125 0.15625 0
0.203125 0.171875 0
0.1875 0.171875 0
0.1875 0.15625 0
0.1875 0.125 0
0.21875 0.15625 0
0.1875 0.140625 0
0.203125 0.140625 0
0.203125 0.15625 0
0.15625 0.25 0
0.125 0.25 0
0.15625 0.21875 0
0.140625 0.25 0
0.140625 0.234375 0
0.15625 0.234375 0
0.15625 0.25 0
0.15625 0.21875 0
0.1875 0.25 0
0.15625 0.234375 0
0.171875 0.234375 0
0.171875 0.25 0
0.15625 0.25 0
0.15625 0.28125 0
0.125 0.25 0
0.15625 0.265625 0
0.140625 0.265625 0
0.140625 0.25 0
0.15625 0.25 0
0.1875 0.25 0
0.15625 0.28125 0
0.171875 0.25 0
0.171875 0.265625 0
0.15625 0.265625 0
0.1875 0.21875 0
0.15625 0.21875 0
0.1875 0.1875 0
0.171875 0.21875 0
0.171875 0.203125 0
0.1875 0.203125 0
0.1875 0.21875 0
0.1875 0.25 0
0.15625 0.21875 0
0.1875 0.234375 0
0.171875 0.234375 0
0.171875 0.21875 0
0.1875 0.21875 0
0.1875 0.1875 0
0.21875 0.21875 0
0.1875 0.203125 0
0.203125 0.203125 0
0.203125 0.21875 0
0.1875 0.21875 0
0.21875 0.21875 0
0.1875 0.25 0
0.203125 0.21875 0
0.203125 0.234375 0
0.1875 0.234375 0
0.21875 0.25 0
0.21875 0.21875 0
0.25 0.25 0
0.21875 0.234375 0
0.234375 0.234375 0
0.234375 0.25 0
0.21875 0.25 0
0.1875 0.25 0
0.21875 0.21875 0
0.203125 0.25 0
0.203125 0.234375 0
0.21875 0.234375 0
0.21875 0.25 0
0.25 0.25 0
0.21875 0.28125 0
0.234375 0.25 0
0.234375 0.265625 0
0.21875 0.265625 0
0.21875 0.25 0
0.21875 0.28125 0
0.1875 0.25 0
0.21875 0.265625 0
0.203125 0.265625 0
0.203125 0.25 0
0.25 0.21875 0
0.25 0.25 0
0.21875 0.21875 0
0.25 0.234375 0
0.234375 0.234375 0
0.234375 0.21875 0
0.25 0.21875 0
0.21875 0.21875 0
0.25 0.1875 0
0.234375 0.21875 0
0.234375 0.203125 0
0.25 0.203125 0
0.25 0.21875 0
0.28125 0.21875 0
0.25 0.25 0
0.265625 0.21875 0
0.265625 0.234375 0
0.25 0.234375 0
0.25 0.21875 0
0.25 0.1875 0
0.28125 0.21875 0
0.25 0.203125 0
0.265625 0.203125 0
0.265625 0.21875 0
0.21875 0.1875 0
0.21875 0.21875 0
0.1875 0.1875 0
0.21875 0.203125 0
0.203125 0.203125 0
0.203125 0.1875 0
0.21875 0.1875 0
0.25 0.1875 0
0.21875 0.21875 0
0.234375 0.1875 0
0.234375 0.203125 0
0.21875 0.203125 0
0.21875 0.1875 0
0.1875 0.1875 0
0.21875 0.15625 0
0.203125 0.1875 0
0.203125 0.171875 0
0.21875 0.171875 0
0.21875 0.1875 0
0.21875 0.15625 0
0.25 0.1875 0
0.21875 0.171875 0
0.234375 0.171875 0
0.234375 0.1875 0
0.1875 0.28125 0
0.21875 0.28125 0
0.1875 0.3125 0
0.203125 0.28125 0
0.203125 0.296875 0
0.1875 0.296875 0
0.1875 0.28125 0
0.1875 0.25 0
0.21875 0.28125 0
0.1875 0.265625 0
0.203125 0.265625 0
0.203125 0.28125 0
0.1875 0.28125 0
0.1875 0.3125 0
0.15625 0.28125 0
0.1875 0.296875 0
0.171875 0.296875 0
0.171875 0.28125 0
0.1875 0.28125 0
0.15625 0.28125 0
0.1875 0.25 0
0.171875 0.28125 0
0.171875 0.265625 0
0.1875 0.265625 0
0.25 0.28125 0
0.21875 0.28125 0
0.25 0.25 0
0.234375 0.28125 0
0.234375 0.265625 0
0.25 0.265625 0
0.25 0.28125 0
0.25 0.3125 0
0.21875 0.28125 0
0.25 0.296875 0
0.234375 0.296875 0
0.234375 0.28125 0
0.25 0.28125 0
0.25 0.25 0
0.28125 0.28125 0
0.25 0.265625 0
0.265625 0.265625 0
0.265625 0.28125 0
0.25 0.28125 0
0.28125 0.28125 0
0.25 0.3125 0
0.265625 0.28125 0
0.265625 0.296875 0
0.25 0.296875 0
0.21875 0.3125 0
0.1875 0.3125 0
0.21875 0.28125 0
0.203125 0.3125 0
0.203125 0.296875 0
0.21875 0.296875 0
0.21875 0.3125 0
0.21875 0.28125 0
0.25 0.3125 0
0.21875 0.296875 0
0.234375 0.296875 0
0.234375 0.3125 0
0.21875 0.3125 0
0.21875 0.34375 0
0.1875 0.3125 0
0.21875 0.328125 0
0.203125 0.328125 0
0.203125 0.3125 0
0.21875 0.3125 0
0.25 0.3125 0
0.21875 0.34375 0
0.234375 0.3125 0
0.234375 0.328125 0
0.21875 0.328125 0
0.15625 0.3125 0
0.15625 0.28125 0
0.1875 0.3125 0
0.15625 0.296875 0
0.171875 0.296875 0
0.171875 0.3125 0
0.15625 0.3125 0
0.125 0.3125 0
0.15625 0.28125 0
0.140625 0.3125 0
0.140625 0.296875 0
0.15625 0.296875 0
0.15625 0.3125 0
0.1875 0.3125 0
0.15625 0.34375 0
0.171875 0.3125 0
0.171875 0.328125 0
0.15625 0.328125 0
0.15625 0.3125 0
0.15625 0.34375 0
0.125 0.3125 0
0.15625 0.328125 0
0.140625 0.328125 0
0.140625 0.3125 0
0.25 0.15625 0
0.21875 0.15625 0
0.25 0.125 0
0.234375 0.15625 0
0.234375 0.140625 0
0.25 0.140625 0
0.25 0.15625 0
0.25 0.1875 0
0.21875 0.15625 0
0.25 0.171875 0
0.234375 0.171875 0
0.234375 0.15625 0
0.25 0.15625 0
0.25 0.125 0
0.28125 0.15625 0
0.25 0.140625 0
0.265625 0.140625 0
0.265625 0.15625 0
0.25 0.15625 0
0.28125 0.15625 0
0.25 0.1875 0
0.265625 0.15625 0
0.265625 0.171875 0
0.25 0.171875 0
0.21875 0.125 0
0.25 0.125 0
0.21875 0.15625 0
0.234375 0.125 0
0.234375 0.140625 0
0.21875 0.140625 0
0.21875 0.125 0
0.21875 0.15625 0
0.1875 0.125 0
0.21875 0.140625 0
0.203125 0.140625 0
0.203125 0.125 0
0.21875 0.125 0
0.21875 0.09375 0
0.25 0.125 0
0.21875 0.109375 0
0.234375 0.109375 0
0.234375 0.125 0
0.21875 0.125 0
0.1875 0.125 0
0.21875 0.09375 0
0.203125 0.125 0
0.203125 0.109375 0
0.21875 0.109375 0
0.28125 0.1875 0
0.3125 0.1875 0
0.28125 0.21875 0
0.296875 0.1875 0
0.296875 0.203125 0
0.28125 0.203125 0
0.28125 0.1875 0
0.28125 0.21875 0
0.25 0.1875 0
0.28125 0.203125 0
0.265625 0.203125 0
0.265625 0.1875 0
0.28125 0.1875 0
0.28125 0.15625 0
0.3125 0.1875 0
0.28125 0.171875 0
0.296875 0.171875 0
0.296875 0.1875 0
0.28125 0.1875 0
0.25 0.1875 0
0.28125 0.15625 0
0.265625 0.1875 0
0.265625 0.171875 0
0.28125 0.171875 0
0.28125 0.25 0
0.25 0.25 0
0.28125 0.21875 0
0.265625 0.25 0
0.265625 0.234375 0
0.28125 0.234375 0
0.28125 0.25 0
0.28125 0.21875 0
0.3125 0.25 0
0.28125 0.234375 0
0.296875 0.234375 0
0.296875 0.25 0
0.28125 0.25 0
0.28125 0.28125 0
0.25 0.25 0
0.28125 0.265625 0
0.265625 0.265625 0
0.265625 0.25 0
0.28125 0.25 0
0.3125 0.25 0
0.28125 0.28125 0
0.296875 0.25 0
0.296875 0.265625 0
0.28125 0.265625 0
0.3125 0.21875 0
0.28125 0.21875 0
0.3125 0.1875 0
0.296875 0.21875 0
0.296875 0.203125 0
0.3125 0.203125 0
0.3125 0.21875 0
0.3125 0.25 0
0.28125 0.21875 0
0.3125 0.234375 0
0.296875 0.234375 0
0.296875 0.21875 0
0.3125 0.21875 0
0.3125 0.1875 0
0.34375 0.21875 0
0.3125 0.203125 0
0.328125 0.203125 0
0.328125 0.21875 0
0.3125 0.21875 0
0.34375 0.21875 0
0.3125 0.25 0
0.328125 0.21875 0
0.328125 0.234375 0
0.3125 0.234375 0
0.28125 0.125 0
0.28125 0.15625 0
0.25 0.125 0
0.28125 0.140625 0
0.265625 0.140625 0
0.265625 0.125 0
0.28125 0.125 0
0.3125 0.125 0
0.28125 0.15625 0
0.296875 0.125 0
0.296875 0.140625 0
0.28125 0.140625 0
0.28125 0.125 0
0.25 0.125 0
0.28125 0.09375 0
0.265625 0.125 0
0.265625 0.109375 0
0.28125 0.109375 0
0.28125 0.125 0
0.28125 0.09375 0
0.3125 0.125 0
0.28125 0.109375 0
0.296875 0.109375 0
0.296875 0.125 0
0.3125 0.15625 0
0.3125 0.1875 0
0.28125 0.15625 0
0.3125 0.171875 0
0.296875 0.171875 0
0.296875 0.15625 0
0.3125 0.15625 0
0.28125 0.15625 0
0.3125 0.125 0
0.296875 0.15625 0
0.296875 0.140625 0
0.3125 0.140625 0
0.3125 0.15625 0
0.34375 0.15625 0
0.3125 0.1875 0
0.328125 0.15625 0
0.328125 0.171875 0
0.3125 0.171875 0
0.3125 0.15625 0
0.3125 0.125 0
0.34375 0.15625 0
0.3125 0.140625 0
0.328125 0.140625 0
0.328125 0.15625 0
0.25 0.09375 0
0.25 0.125 0
0.21875 0.09375 0
0.25 0.109375 0
0.234375 0.109375 0
0.234375 0.09375 0
0.25 0.09375 0
0.21875 0.09375 0
0.25 0.0625 0
0.234375 0.09375 0
0.234375 0.078125 0
0.25 0.078125 0
0.25 0.09375 0
0.28125 0.09375 0
0.25 0.125 0
0.265625 0.09375 0
0.265625 0.109375 0
0.25 0.109375 0
0.25 0.09375 0
0.25 0.0625 0
0.28125 0.09375 0
0.25 0.078125 0
0.265625 0.078125 0
0.265625 0.09375 0
0.21875 0.0625 0
0.21875 0.09375 0
0.1875 0.0625 0
0.21875 0.078125 0
0.203125 0.078125 0
0.203125 0.0625 0
0.21875 0.0625 0
0.25 0.0625 0
0.21875 0.09375 0
0.234375 0.0625 0
0.234375 0.078125 0
0.21875 0.078125 0
0.21875 0.0625 0
0.1875 0.0625 0
0.21875 0.03125 0
0.203125 0.0625 0
0.203125 0.046875 0
0.21875 0.046875 0
0.21875 0.0625 0
0.21875 0.03125 0
0.25 0.0625 0
0.21875 0.046875 0
0.234375 0.046875 0
0.234375 0.0625 0
0.125 0.34375 0
0.15625 0.34375 0
0.125 0.375 0
0.140625 0.34375 0
0.140625 0.359375 0
0.125 0.359375 0
0.125 0.34375 0
0.125 0.3125 0
0.15625 0.34375 0
0.125 0.328125 0
0.140625 0.328125 0
0.140625 0.34375 0
0.125 0.34375 0
0.125 0.375 0
0.09375 0.34375 0
0.125 0.359375 0
0.109375 0.359375 0
0.109375 0.34375 0
0.125 0.34375 0
0.09375 0.34375 0
0.125 0.3125 0
0.109375 0.34375 0
0.109375 0.328125 0
0.125 0.328125 0
0.15625 0.375 0
0.125 0.375 0
0.15625 0.34375 0
0.140625 0.375 0
0.140625 0.359375 0
0.15625 0.359375 0
0.15625 0.375 0
0.15625 0.34375 0
0.1875 0.375 0
0.15625 0.359375 0
0.171875 0.359375 0
0.171875 0.375 0
0.15625 0.375 0
0.15625 0.40625 0
0.125 0.375 0
0.15625 0.390625 0
0.140625 0.390625 0
0.140625 0.375 0
0.15625 0.375 0
0.1875 0.375 0
0.15625 0.40625 0
0.171875 0.375 0
0.171875 0.390625 0
0.15625 0.390625 0
0.1875 0.34375 0
0.15625 0.34375 0
0.1875 0.3125 0
0.171875 0.34375 0
0.171875 0.328125 0
0.1875 0.328125 0
0.1875 0.34375 0
0.1875 0.375 0
0.15625 0.34375 0
0.1875 0.359375 0
0.171875 0.359375 0
0.171875 0.34375 0
0.1875 0.34375 0
0.1875 0.3125 0
0.21875 0.34375 0
0.1875 0.328125 0
0.203125 0.328125 0
0.203125 0.34375 0
0.1875 0.34375 0
0.21875 0.34375 0
0.1875 0.375 0
0.203125 0.34375 0
0.203125 0.359375 0
0.1875 0.359375 0
0.09375 0.375 0
0.09375 0.34375 0
0.125 0.375 0
0.09375 0.359375 0
0.109375 0.359375 0
0.109375 0.375 0
0.09375 0.375 0
0.0625 0.375 0
0.09375 0.34375 0
0.078125 0.375 0
0.078125 0.359375 0
0.09375 0.359375 0
0.09375 0.375 0
0.125 0.375 0
0.09375 0.40625 0
0.109375 0.375 0
0.109375 0.390625 0
0.09375 0.390625 0
0.09375 0.375 0
0.09375 0.40625 0
0.0625 0.375 0
0.09375 0.390625 0
0.078125 0.390625 0
0.078125 0.375 0
0.0625 0.34375 0
0.0625 0.3125 0
0.09375 0.34375 0
0.0625 0.328125 0
0.078125 0.328125 0
0.078125 0.34375 0
0.0625 0.34375 0
0.09375 0.34375 0
0.0625 0.375 0
0.078125 0.34375 0
0.078125 0.359375 0
0.0625 0.359375 0
0.0625 0.34375 0
0.03125 0.34375 0
0.0625 0.3125 0
0.046875 0.34375 0
0.046875 0.328125 0
0.0625 0.328125 0
0.0625 0.34375 0
0.0625 0.375 0
0.03125 0.34375 0
0.0625 0.359375 0
0.046875 0.359375 0
0.046875 0.34375 0
0.25 0.34375 0
0.25 0.375 0
0.21875 0.34375 0
0.25 0.359375 0
0.234375 0.359375 0
0.234375 0.34375 0
0.25 0.34375 0
0.21875 0.34375 0
0.25 0.3125 0
0.234375 0.34375 0
0.234375 0.328125 0
0.25 0.328125 0
0.25 0.34375 0
0.28125 0.34375 0
0.25 0.375 0
0.265625 0.34375 0
0.265625 0.359375 0
0.25 0.359375 0
0.25 0.34375 0
0.25 0.3125 0
0.28125 0.34375 0
0.25 0.328125 0
0.265625 0.328125 0
0.265625 0.34375 0
0.21875 0.375 0
0.21875 0.34375 0
0.25 0.375 0
0.21875 0.359375 0
0.234375 0.359375 0
0.234375 0.375 0
0.21875 0.375 0
0.1875 0.375 0
0.21875 0.34375 0
0.203125 0.375 0
0.203125 0.359375 0
0.21875 0.359375 0
0.21875 0.375 0
0.25 0.375 0
0.21875 0.40625 0
0.234375 0.375 0
0.234375 0.390625 0
0.21875 0.390625 0
0.21875 0.375 0
0.21875 0.40625 0
0.1875 0.375 0
0.21875 0.390625 0
0.203125 0.390625 0
0.203125 0.375 0
0.28125 0.3125 0
0.28125 0.28125 0
0.3125 0.3125 0
0.28125 0.296875 0
0.296875 0.296875 0
0.296875 0.3125 0
0.28125 0.3125 0
0.25 0.3125 0
0.28125 0.28125 0
0.265625 0.3125 0
0.265625 0.296875 0
0.28125 0.296875 0
0.28125 0.3125 0
0.3125 0.3125 0
0.28125 0.34375 0
0.296875 0.3125 0
0.296875 0.328125 0
0.28125 0.328125 0
0.28125 0.3125 0
0.28125 0.34375 0
0.25 0.3125 0
0.28125 0.328125 0
0.265625 0.328125 0
0.265625 0.3125 0
0.3125 0.28125 0
0.3125 0.3125 0
0.28125 0.28125 0
0.3125 0.296875 0
0.296875 0.296875 0
0.296875 0.28125 0
0.3125 0.28125 0
0.28125 0.28125 0
0.3125 0.25 0
0.296875 0.28125 0
0.296875 0.265625 0
0.3125 0.265625 0
0.3125 0.28125 0
0.34375 0.28125 0
0.3125 0.3125 0
0.328125 0.28125 0
0.328125 0.296875 0
0.3125 0.296875 0
0.3125 0.28125 0
0.3125 0.25 0
0.34375 0.28125 0
0.3125 0.265625 0
0.328125 0.265625 0
0.328125 0.28125 0
0.28125 0.375 0
0.25 0.375 0
0.28125 0.34375 0
0.265625 0.375 0
0.265625 0.359375 0
0.28125 0.359375 0
0.28125 0.375 0
0.28125 0.34375 0
0.3125 0.375 0
0.28125 0.359375 0
0.296875 0.359375 0
0.296875 0.375 0
0.28125 0.375 0
0.28125 0.40625 0
0.25 0.375 0
0.28125 0.390625 0
0.265625 0.390625 0
0.265625 0.375 0
0.28125 0.375 0
0.3125 0.375 0
0.28125 0.40625 0
0.296875 0.375 0
0.296875 0.390625 0
0.28125 0.390625 0
0.3125 0.34375 0
0.28125 0.34375 0
0.3125 0.3125 0
0.296875 0.34375 0
0.296875 0.328125 0
0.3125 0.328125 0
0.3125 0.34375 0
0.3125 0.375 0
0.28125 0.34375 0
0.3125 0.359375 0
0.296875 0.359375 0
0.296875 0.34375 0
0.3125 0.34375 0
0.3125 0.3125 0
0.34375 0.34375 0
0.3125 0.328125 0
0.328125 0.328125 0
0.328125 0.34375 0
0.3125 0.34375 0
0.34375 0.34375 0
0.3125 0.375 0
0.328125 0.34375 0
0.328125 0.359375 0
0.3125 0.359375 0
0.1875 0.40625 0
0.1875 0.4375 0
0.15625 0.40625 0
0.1875 0.421875 0
0.171875 0.421875 0
0.171875 0.40625 0
0.1875 0.40625 0
0.15625 0.40625 0
0.1875 0.375 0
0.171875 0.40625 0
0.171875 0.390625 0
0.1875 0.390625 0
0.1875 0.40625 0
0.21875 0.40625 0
0.1875 0.4375 0
0.203125 0.40625 0
0.203125 0.421875 0
0.1875 0.421875 0
0.1875 0.40625 0
0.1875 0.375 0
0.21875 0.40625 0
0.1875 0.390625 0
0.203125 0.390625 0
0.203125 0.40625 0
0.125 0.40625 0
0.125 0.375 0
0.15625 0.40625 0
0.125 0.390625 0
0.140625 0.390625 0
0.140625 0.40625 0
0.125 0.40625 0
0.15625 0.40625 0
0.125 0.4375 0
0.140625 0.40625 0
0.140625 0.421875 0
0.125 0.421875 0
0.125 0.40625 0
0.09375 0.40625 0
0.125 0.375 0
0.109375 0.40625 0
0.109375 0.390625 0
0.125 0.390625 0
0.125 0.40625 0
0.125 0.4375 0
0.09375 0.40625 0
0.125 0.421875 0
0.109375 0.421875 0
0.109375 0.40625 0
0.15625 0.4375 0
0.15625 0.40625 0
0.1875 0.4375 0
0.15625 0.421875 0
0.171875 0.421875 0
0.171875 0.4375 0
0.15625 0.4375 0
0.125 0.4375 0
0.15625 0.40625 0
0.140625 0.4375 0
0.140625 0.421875 0
0.15625 0.421875 0
0.15625 0.4375 0
0.1875 0.4375 0
0.15625 0.46875 0
0.171875 0.4375 0
0.171875 0.453125 0
0.15625 0.453125 0
0.15625 0.4375 0
0.15625 0.46875 0
0.125 0.4375 0
0.15625 0.453125 0
0.140625 0.453125 0
0.140625 0.4375 0
0.25 0.40625 0
0.21875 0.40625 0
0.25 0.375 0
0.234375 0.40625 0
0.234375 0.390625 0
0.25 0.390625 0
0.25 0.40625 0
0.25 0.4375 0
0.21875 0.40625 0
0.25 0.421875 0
0.234375 0.421875 0
0.234375 0.40625 0
0.25 0.40625 0
0.25 0.375 0
0.28125 0.40625 0
0.25 0.390625 0
0.265625 0.390625 0
0.265625 0.40625 0
0.25 0.40625 0
0.28125 0.40625 0
0.25 0.4375 0
0.265625 0.40625 0
0.265625 0.421875 0
0.25 0.421875 0
0.21875 0.4375 0
0.1875 0.4375 0
0.21875 0.40625 0
0.203125 0.4375 0
0.203125 0.421875 0
0.21875 0.421875 0
0.21875 0.4375 0
0.21875 0.40625 0
0.25 0.4375 0
0.21875 0.421875 0
0.234375 0.421875 0
0.234375 0.4375 0
0.21875 0.4375 0
0.21875 0.46875 0
0.1875 0.4375 0
0.21875 0.453125 0
0.203125 0.453125 0
0.203125 0.4375 0
0.21875 0.4375 0
0.25 0.4375 0
0.21875 0.46875 0
0.234375 0.4375 0
0.234375 0.453125 0
0.21875 0.453125 0
0 0.34375 0
0.03125 0.34375 0
0 0.375 0
0.015625 0.34375 0
0.015625 0.359375 0
0 0.359375 0
0 0.34375 0
0 0.3125 0
0.03125 0.34375 0
0 0.328125 0
0.015625 0.328125 0
0.015625 0.34375 0
0.03125 0.375 0
0 0.375 0
0.03125 0.34375 0
0.015625 0.375 0
0.015625 0.359375 0
0.03125 0.359375 0
0.03125 0.375 0
0.03125 0.34375 0
0.0625 0.375 0
0.03125 0.359375 0
0.046875 0.359375 0
0.046875 0.375 0
0.03125 0.375 0
0.03125 0.40625 0
0 0.375 0
0.03125 0.390625 0
0.015625 0.390625 0
0.015625 0.375 0
0.03125 0.375 0
0.0625 0.375 0
0.03125 0.40625 0
0.046875 0.375 0
0.046875 0.390625 0
0.03125 0.390625 0
0.0625 0.40625 0
0.09375 0.40625 0
0.0625 0.4375 0
0.078125 0.40625 0
0.078125 0.421875 0
0.0625 0.421875 0
0.0625 0.40625 0
0.0625 0.375 0
0.09375 0.40625 0
0.0625 0.390625 0
0.078125 0.390625 0
0.078125 0.40625 0
0.0625 0.40625 0
0.0625 0.4375 0
0.03125 0.40625 0
0.0625 0.421875 0
0.046875 0.421875 0
0.046875 0.40625 0
0.0625 0.40625 0
0.03125 0.40625 0
0.0625 0.375 0
0.046875 0.40625 0
0.046875 0.390625 0
0.0625 0.390625 0
0.09375 0.4375 0
0.0625 0.4375 0
0.09375 0.40625 0
0.078125 0.4375 0
0.078125 0.421875 0
0.09375 0.421875 0
0.09375 0.4375 0
0.09375 0.40625 0
0.125 0.4375 0
0.09375 0.421875 0
0.109375 0.421875 0
0.109375 0.4375 0
0.09375 0.4375 0
0.09375 0.46875 0
0.0625 0.4375 0
0.09375 0.453125 0
0.078125 0.453125 0
0.078125 0.4375 0
0.09375 0.4375 0
0.125 0.4375 0
0.09375 0.46875 0
0.109375 0.4375 0
0.109375 0.453125 0
0.09375 0.453125 0
0 0.40625 0
0 0.375 0
0.03125 0.40625 0
0 0.390625 0
0.015625 0.390625 0
0.015625 0.40625 0
0 0.40625 0
0.03125 0.40625 0
0 0.4375 0
0.015625 0.40625 0
0.015625 0.421875 0
0 0.421875 0
0.03125 0.4375 0
0.03125 0.40625 0
0.0625 0.4375 0
0.03125 0.421875 0
0.046875 0.421875 0
0.046875 0.4375 0
0.03125 0.4375 0
0 0.4375 0
0.03125 0.40625 0
0.015625 0.4375 0
0.015625 0.421875 0
0.03125 0.421875 0
0.03125 0.4375 0
0.0625 0.4375 0
0.03125 0.46875 0
0.046875 0.4375 0
0.046875 0.453125 0
0.03125 0.453125 0
0.03125 0.4375 0
0.03125 0.46875 0
0 0.4375 0
0.03125 0.453125 0
0.015625 0.453125 0
0.015625 0.4375 0
0.21875 0 0
0.25 0 0
0.21875 0.03125 0
0.234375 0 0
0.234375 0.015625 0
0.21875 0.015625 0
0.21875 0 0
0.21875 0.03125 0
0.1875 0 0
0.21875 0.015625 0
0.203125 0.015625 0
0.203125 0 0
0.25 0.03125 0
0.21875 0.03125 0
0.25 0 0
0.234375 0.03125 0
0.234375 0.015625 0
0.25 0.015625 0
0.25 0.03125 0
0.25 0.0625 0
0.21875 0.03125 0
0.25 0.046875 0
0.234375 0.046875 0
0.234375 0.03125 0
0.25 0.03125 0
0.25 0 0
0.28125 0.03125 0
0.25 0.015625 0
0.265625 0.015625 0
0.265625 0.03125 0
0.25 0.03125 0
0.28125 0.03125 0
0.25 0.0625 0
0.265625 0.03125 0
0.265625 0.046875 0
0.25 0.046875 0
0.28125 0.0625 0
0.28125 0.03125 0
0.3125 0.0625 0
0.28125 0.046875 0
0.296875 0.046875 0
0.296875 0.0625 0
0.28125 0.0625 0
0.25 0.0625 0
0.28125 0.03125 0
0.265625 0.0625 0
0.265625 0.046875 0
0.28125 0.046875 0
0.28125 0.0625 0
0.3125 0.0625 0
0.28125 0.09375 0
0.296875 0.0625 0
0.296875 0.078125 0
0.28125 0.078125 0
0.28125 0.0625 0
0.28125 0.09375 0
0.25 0.0625 0
0.28125 0.078125 0
0.265625 0.078125 0
0.265625 0.0625 0
0.28125 0 0
0.28125 0.03125 0
0.25 0 0
0.28125 0.015625 0
0.265625 0.015625 0
0.265625 0 0
0.28125 0 0
0.3125 0 0
0.28125 0.03125 0
0.296875 0 0
0.296875 0.015625 0
0.28125 0.015625 0
0.3125 0.03125 0
0.3125 0.0625 0
0.28125 0.03125 0
0.3125 0.046875 0
0.296875 0.046875 0
0.296875 0.03125 0
0.3125 0.03125 0
0.28125 0.03125 0
0.3125 0 0
0.296875 0.03125 0
0.296875 0.015625 0
0.3125 0.015625 0
0.3125 0.03125 0
0.34375 0.03125 0
0.3125 0.0625 0
0.328125 0.03125 0
0.328125 0.046875 0
0.3125 0.046875 0
0.3125 0.03125 0
0.3125 0 0
0.34375 0.03125 0
0.3125 0.015625 0
0.328125 0.015625 0
0.328125 0.03125 0
0.3125 0.09375 0
0.28125 0.09375 0
0.3125 0.0625 0
0.296875 0.09375 0
0.296875 0.078125 0
0.3125 0.078125 0
0.3125 0.09375 0
0.3125 0.125 0
0.28125 0.09375 0
0.3125 0.109375 0
0.296875 0.109375 0
0.296875 0.09375 0
0.3125 0.09375 0
0.3125 0.0625 0
0.34375 0.09375 0
0.3125 0.078125 0
0.328125 0.078125 0
0.328125 0.09375 0
0.3125 0.09375 0
0.34375 0.09375 0
0.3125 0.125 0
0.328125 0.09375 0
0.328125 0.109375 0
0.3125 0.109375 0
0.34375 0.125 0
0.375 0.125 0
0.34375 0.15625 0
0.359375 0.125 0
0.359375 0.140625 0
0.34375 0.140625 0
0.34375 0.125 0
0.34375 0.15625 0
0.3125 0.125 0
0.34375 0.140625 0
0.328125 0.140625 0
0.328125 0.125 0
0.34375 0.125 0
0.34375 0.09375 0
0.375 0.125 0
0.34375 0.109375 0
0.359375 0.109375 0
0.359375 0.125 0
0.34375 0.125 0
0.3125 0.125 0
0.34375 0.09375 0
0.328125 0.125 0
0.328125 0.109375 0
0.34375 0.109375 0
0.375 0.15625 0
0.34375 0.15625 0
0.375 0.125 0
0.359375 0.15625 0
0.359375 0.140625 0
0.375 0.140625 0
0.375 0.15625 0
0.375 0.1875 0
0.34375 0.15625 0
0.375 0.171875 0
0.359375 0.171875 0
0.359375 0.15625 0
0.375 0.15625 0
0.375 0.125 0
0.40625 0.15625 0
0.375 0.140625 0
0.390625 0.140625 0
0.390625 0.15625 0
0.375 0.15625 0
0.40625 0.15625 0
0.375 0.1875 0
0.390625 0.15625 0
0.390625 0.171875 0
0.375 0.171875 0
0.34375 0.1875 0
0.3125 0.1875 0
0.34375 0.15625 0
0.328125 0.1875 0
0.328125 0.171875 0
0.34375 0.171875 0
0.34375 0.1875 0
0.34375 0.15625 0
0.375 0.1875 0
0.34375 0.171875 0
0.359375 0.171875 0
0.359375 0.1875 0
0.34375 0.1875 0
0.34375 0.21875 0
0.3125 0.1875 0
0.34375 0.203125 0
0.328125 0.203125 0
0.328125 0.1875 0
0.34375 0.1875 0
0.375 0.1875 0
0.34375 0.21875 0
0.359375 0.1875 0
0.359375 0.203125 0
0.34375 0.203125 0
0.375 0.09375 0
0.375 0.125 0
0.34375 0.09375 0
0.375 0.109375 0
0.359375 0.109375 0
0.359375 0.09375 0
0.375 0.09375 0
0.34375 0.09375 0
0.375 0.0625 0
0.359375 0.09375 0
0.359375 0.078125 0
0.375 0.078125 0
0.375 0.09375 0
0.40625 0.09375 0
0.375 0.125 0
0.390625 0.09375 0
0.390625 0.109375 0
0.375 0.109375 0
0.375 0.09375 0
0.375 0.0625 0
0.40625 0.09375 0
0.375 0.078125 0
0.390625 0.078125 0
0.390625 0.09375 0
0.34375 0.0625 0
0.34375 0.09375 0
0.3125 0.0625 0
0.34375 0.078125 0
0.328125 0.078125 0
0.328125 0.0625 0
0.34375 0.0625 0
0.375 0.0625 0
0.34375 0.09375 0
0.359375 0.0625 0
0.359375 0.078125 0
0.34375 0.078125 0
0.34375 0.0625 0
0.3125 0.0625 0
0.34375 0.03125 0
0.328125 0.0625 0
0.328125 0.046875 0
0.34375 0.046875 0
0.34375 0.0625 0
0.34375 0.03125 0
0.375 0.0625 0
0.34375 0.046875 0
0.359375 0.046875 0
0.359375 0.0625 0
0.34375 0.25 0
0.34375 0.21875 0
0.375 0.25 0
0.34375 0.234375 0
0.359375 0.234375 0
0.359375 0.25 0
0.34375 0.25 0
0.3125 0.25 0
0.34375 0.21875 0
0.328125 0.25 0
0.328125 0.234375 0
0.34375 0.234375 0
0.34375 0.25 0
0.375 0.25 0
0.34375 0.28125 0
0.359375 0.25 0
0.359375 0.265625 0
0.34375 0.265625 0
0.34375 0.25 0
0.34375 0.28125 0
0.3125 0.25 0
0.34375 0.265625 0
0.328125 0.265625 0
0.328125 0.25 0
0.375 0.21875 0
0.375 0.25 0
0.34375 0.21875 0
0.375 0.234375 0
0.359375 0.234375 0
0.359375 0.21875 0
0.375 0.21875 0
0.34375 0.21875 0
0.375 0.1875 0
0.359375 0.21875 0
0.359375 0.203125 0
0.375 0.203125 0
0.375 0.21875 0
0.40625 0.21875 0
0.375 0.25 0
0.390625 0.21875 0
0.390625 0.234375 0
0.375 0.234375 0
0.375 0.21875 0
0.375 0.1875 0
0.40625 0.21875 0
0.375 0.203125 0
0.390625 0.203125 0
0.390625 0.21875 0
0.375 0.28125 0
0.34375 0.28125 0
0.375 0.25 0
0.359375 0.28125 0
0.359375 0.265625 0
0.375 0.265625 0
0.375 0.28125 0
0.375 0.3125 0
0.34375 0.28125 0
0.375 0.296875 0
0.359375 0.296875 0
0.359375 0.28125 0
0.375 0.28125 0
0.375 0.25 0
0.40625 0.28125 0
0.375 0.265625 0
0.390625 0.265625 0
0.390625 0.28125 0
0.375 0.28125 0
0.40625 0.28125 0
0.375 0.3125 0
0.390625 0.28125 0
0.390625 0.296875 0
0.375 0.296875 0
0.34375 0.3125 0
0.3125 0.3125 0
0.34375 0.28125 0
0.328125 0.3125 0
0.328125 0.296875 0
0.34375 0.296875 0
0.34375 0.3125 0
0.34375 0.28125 0
0.375 0.3125 0
0.34375 0.296875 0
0.359375 0.296875 0
0.359375 0.3125 0
0.34375 0.3125 0
0.34375 0.34375 0
0.3125 0.3125 0
0.34375 0.328125 0
0.328125 0.328125 0
0.328125 0.3125 0
0.34375 0.3125 0
0.375 0.3125 0
0.34375 0.34375 0
0.359375 0.3125 0
0.359375 0.328125 0
0.34375 0.328125 0
0.40625 0.1875 0
0.40625 0.15625 0
0.4375 0.1875 0
0.40625 0.171875 0
0.421875 0.171875 0
0.421875 0.1875 0
0.40625 0.1875 0
0.375 0.1875 0
0.40625 0.15625 0
0.390625 0.1875 0
0.390625 0.171875 0
0.40625 0.171875 0
0.40625 0.1875 0
0.4375 0.1875 0
0.40625 0.21875 0
0.421875 0.1875 0
0.421875 0.203125 0
0.40625 0.203125 0
0.40625 0.1875 0
0.40625 0.21875 0
0.375 0.1875 0
0.40625 0.203125 0
0.390625 0.203125 0
0.390625 0.1875 0
0.40625 0.125 0
0.40625 0.15625 0
0.375 0.125 0
0.40625 0.140625 0
0.390625 0.140625 0
0.390625 0.125 0
0.40625 0.125 0
0.4375 0.125 0
0.40625 0.15625 0
0.421875 0.125 0
0.421875 0.140625 0
0.40625 0.140625 0
0.40625 0.125 0
0.375 0.125 0
0.40625 0.09375 0
0.390625 0.125 0
0.390625 0.109375 0
0.40625 0.109375 0
0.40625 0.125 0
0.40625 0.09375 0
0.4375 0.125 0
0.40625 0.109375 0
0.421875 0.109375 0
0.421875 0.125 0
0.4375 0.15625 0
0.4375 0.1875 0
0.40625 0.15625 0
0.4375 0.171875 0
0.421875 0.171875 0
0.421875 0.15625 0
0.4375 0.15625 0
0.40625 0.15625 0
0.4375 0.125 0
0.421875 0.15625 0
0.421875 0.140625 0
0.4375 0.140625 0
0.4375 0.15625 0
0.46875 0.15625 0
0.4375 0.1875 0
0.453125 0.15625 0
0.453125 0.171875 0
0.4375 0.171875 0
0.4375 0.15625 0
0.4375 0.125 0
0.46875 0.15625 0
0.4375 0.140625 0
0.453125 0.140625 0
0.453125 0.15625 0
0.40625 0.25 0
0.375 0.25 0
0.40625 0.21875 0
0.390625 0.25 0
0.390625 0.234375 0
0.40625 0.234375 0
0.40625 0.25 0
0.40625 0.21875 0
0.4375 0.25 0
0.40625 0.234375 0
0.421875 0.234375 0
0.421875 0.25 0
0.40625 0.25 0
0.40625 0.28125 0
0.375 0.25 0
0.40625 0.265625 0
0.390625 0.265625 0
0.390625 0.25 0
0.40625 0.25 0
0.4375 0.25 0
0.40625 0.28125 0
0.421875 0.25 0
0.421875 0.265625 0
0.40625 0.265625 0
0.4375 0.21875 0
0.40625 0.21875 0
0.4375 0.1875 0
0.421875 0.21875 0
0.421875 0.203125 0
0.4375 0.203125 0
0.4375 0.21875 0
0.4375 0.25 0
0.40625 0.21875 0
0.4375 0.234375 0
0.421875 0.234375 0
0.421875 0.21875 0
0.4375 0.21875 0
0.4375 0.1875 0
0.46875 0.21875 0
0.4375 0.203125 0
0.453125 0.203125 0
0.453125 0.21875 0
0.4375 0.21875 0
0.46875 0.21875 0
0.4375 0.25 0
0.453125 0.21875 0
0.453125 0.234375 0
0.4375 0.234375 0
0.34375 0 0
0.375 0 0
0.34375 0.03125 0
0.359375 0 0
0.359375 0.015625 0
0.34375 0.015625 0
0.34375 0 0
0.34375 0.03125 0
0.3125 0 0
0.34375 0.015625 0
0.328125 0.015625 0
0.328125 0 0
0.375 0.03125 0
0.34375 0.03125 0
0.375 0 0
0.359375 0.03125 0
0.359375 0.015625 0
0.375 0.015625 0
0.375 0.03125 0
0.375 0.0625 0
0.34375 0.03125 0
0.375 0.046875 0
0.359375 0.046875 0
0.359375 0.03125 0
0.375 0.03125 0
0.375 0 0
0.40625 0.03125 0
0.375 0.015625 0
0.390625 0.015625 0
0.390625 0.03125 0
0.375 0.03125 0
0.40625 0.03125 0
0.375 0.0625 0
0.390625 0.03125 0
0.390625 0.046875 0
0.375 0.046875 0
0.40625 0.0625 0
0.4375 0.0625 0
0.40625 0.09375 0
0.421875 0.0625 0
0.421875 0.078125 0
0.40625 0.078125 0
0.40625 0.0625 0
0.40625 0.09375 0
0.375 0.0625 0
0.40625 0.078125 0
0.390625 0.078125 0
0.390625 0.0625 0
0.40625 0.0625 0
0.40625 0.03125 0
0.4375 0.0625 0
0.40625 0.046875 0
0.421875 0.046875 0
0.421875 0.0625 0
0.40625 0.0625 0
0.375 0.0625 0
0.40625 0.03125 0
0.390625 0.0625 0
0.390625 0.046875 0
0.40625 0.046875 0
0.4375 0.09375 0
0.40625 0.09375 0
0.4375 0.0625 0
0.421875 0.09375 0
0.421875 0.078125 0
0.4375 0.078125 0
0.4375 0.09375 0
0.4375 0.125 0
0.40625 0.09375 0
0.4375 0.109375 0
0.421875 0.109375 0
0.421875 0.09375 0
0.4375 0.09375 0
0.4375 0.0625 0
0.46875 0.09375 0
0.4375 0.078125 0
0.453125 0.078125 0
0.453125 0.09375 0
0.4375 0.09375 0
0.46875 0.09375 0
0.4375 0.125 0
0.453125 0.09375 0
0.453125 0.109375 0
0.4375 0.109375 0
0.40625 0 0
0.40625 0.03125 0
0.375 0 0
0.40625 0.015625 0
0.390625 0.015625 0
0.390625 0 0
0.40625 0 0
0.4375 0 0
0.40625 0.03125 0
0.421875 0 0
0.421875 0.015625 0
0.40625 0.015625 0
0.4375 0.03125 0
0.4375 0.0625 0
0.40625 0.03125 0
0.4375 0.046875 0
0.421875 0.046875 0
0.421875 0.03125 0
0.4375 0.03125 0
0.40625 0.03125 0
0.4375 0 0
0.421875 0.03125 0
0.421875 0.015625 0
0.4375 0.015625 0
0.4375 0.03125 0
0.46875 0.03125 0
0.4375 0.0625 0
0.453125 0.03125 0
0.453125 0.046875 0
0.4375 0.046875 0
0.4375 0.03125 0
0.4375 0 0
0.46875 0.03125 0
0.4375 0.015625 0
0.453125 0.015625 0
0.453125 0.03125 0
0 0.46875 0
0.03125 0.46875 0
0 0.5 0
0.015625 0.46875 0
0.015625 0.484375 0
0 0.484375 0
0 0.46875 0
0 0.4375 0
0.03125 0.46875 0
0 0.453125 0
0.015625 0.453125 0
0.015625 0.46875 0
0.03125 0.5 0
0 0.5 0
0.03125 0.46875 0
0.015625 0.5 0
0.015625 0.484375 0
0.03125 0.484375 0
0.03125 0.5 0
0.03125 0.46875 0
0.0625 0.5 0
0.03125 0.484375 0
0.046875 0.484375 0
0.046875 0.5 0
0.03125 0.5 0
0.03125 0.53125 0
0 0.5 0
0.03125 0.515625 0
0.015625 0.515625 0
0.015625 0.5 0
0.03125 0.5 0
0.0625 0.5 0
0.03125 0.53125 0
0.046875 0.5 0
0.046875 0.515625 0
0.03125 0.515625 0
0.0625 0.46875 0
0.03125 0.46875 0
0.0625 0.4375 0
0.046875 0.46875 0
0.046875 0.453125 0
0.0625 0.453125 0
0.0625 0.46875 0
0.0625 0.5 0
0.03125 0.46875 0
0.0625 0.484375 0
0.046875 0.484375 0
0.046875 0.46875 0
0.0625 0.46875 0
0.0625 0.4375 0
0.09375 0.46875 0
0.0625 0.453125 0
0.078125 0.453125 0
0.078125 0.46875 0
0.0625 0.46875 0
0.09375 0.46875 0
0.0625 0.5 0
0.078125 0.46875 0
0.078125 0.484375 0
0.0625 0.484375 0
0.09375 0.5 0
0.09375 0.46875 0
0.125 0.5 0
0.09375 0.484375 0
0.109375 0.484375 0
0.109375 0.5 0
0.09375 0.5 0
0.0625 0.5 0
0.09375 0.46875 0
0.078125 0.5 0
0.078125 0.484375 0
0.09375 0.484375 0
0.09375 0.5 0
0.125 0.5 0
0.09375 0.53125 0
0.109375 0.5 0
0.109375 0.515625 0
0.09375 0.515625 0
0.09375 0.5 0
0.09375 0.53125 0
0.0625 0.5 0
0.09375 0.515625 0
0.078125 0.515625 0
0.078125 0.5 0
0.125 0.46875 0
0.125 0.5 0
0.09375 0.46875 0
0.125 0.484375 0
0.109375 0.484375 0
0.109375 0.46875 0
0.125 0.46875 0
0.09375 0.46875 0
0.125 0.4375 0
0.109375 0.46875 0
0.109375 0.453125 0
0.125 0.453125 0
0.125 0.46875 0
0.15625 0.46875 0
0.125 0.5 0
0.140625 0.46875 0
0.140625 0.484375 0
0.125 0.484375 0
0.125 0.46875 0
0.125 0.4375 0
0.15625 0.46875 0
0.125 0.453125 0
0.140625 0.453125 0
0.140625 0.46875 0
0.0625 0.53125 0
0.0625 0.5625 0
0.03125 0.53125 0
0.0625 0.546875 0
0.046875 0.546875 0
0.046875 0.53125 0
0.0625 0.53125 0
0.03125 0.53125 0
0.0625 0.5 0
0.046875 0.53125 0
0.046875 0.515625 0
0.0625 0.515625 0
0.0625 0.53125 0
0.09375 0.53125 0
0.0625 0.5625 0
0.078125 0.53125 0
0.078125 0.546875 0
0.0625 0.546875 0
0.0625 0.53125 0
0.0625 0.5 0
0.09375 0.53125 0
0.0625 0.515625 0
0.078125 0.515625 0
0.078125 0.53125 0
0 0.53125 0
0 0.5 0
0.03125 0.53125 0
0 0.515625 0
0.015625 0.515625 0
0.015625 0.53125 0
0 0.53125 0
0.03125 0.53125 0
0 0.5625 0
0.015625 0.53125 0
0.015625 0.546875 0
0 0.546875 0
0.03125 0.5625 0
0.03125 0.53125 0
0.0625 0.5625 0
0.03125 0.546875 0
0.046875 0.546875 0
0.046875 0.5625 0
0.03125 0.5625 0
0 0.5625 0
0.03125 0.53125 0
0.015625 0.5625 0
0.015625 0.546875 0
0.03125 0.546875 0
0.03125 0.5625 0
0.0625 0.5625 0
0.03125 0.59375 0
0.046875 0.5625 0
0.046875 0.578125 0
0.03125 0.578125 0
0.03125 0.5625 0
0.03125 0.59375 0
0 0.5625 0
0.03125 0.578125 0
0.015625 0.578125 0
0.015625 0.5625 0
0.125 0.53125 0
0.09375 0.53125 0
0.125 0.5 0
0.109375 0.53125 0
0.109375 0.515625 0
0.125 0.515625 0
0.125 0.53125 0
0.125 0.5625 0
0.09375 0.53125 0
0.125 0.546875 0
0.109375 0.546875 0
0.109375 0.53125 0
0.125 0.53125 0
0.125 0.5 0
0.15625 0.53125 0
0.125 0.515625 0
0.140625 0.515625 0
0.140625 0.53125 0
0.125 0.53125 0
0.15625 0.53125 0
0.125 0.5625 0
0.140625 0.53125 0
0.140625 0.546875 0
0.125 0.546875 0
0.09375 0.5625 0
0.0625 0.5625 0
0.09375 0.53125 0
0.078125 0.5625 0
0.078125 0.546875 0
0.09375 0.546875 0
0.09375 0.5625 0
0.09375 0.53125 0
0.125 0.5625 0
0.09375 0.546875 0
0.109375 0.546875 0
0.109375 0.5625 0
0.09375 0.5625 0
0.09375 0.59375 0
0.0625 0.5625 0
0.09375 0.578125 0
0.078125 0.578125 0
0.078125 0.5625 0
0.09375 0.5625 0
0.125 0.5625 0
0.09375 0.59375 0
0.109375 0.5625 0
0.109375 0.578125 0
0.09375 0.578125 0
0.15625 0.5 0
0.125 0.5 0
0.15625 0.46875 0
0.140625 0.5 0
0.140625 0.484375 0
0.15625 0.484375 0
0.15625 0.5 0
0.15625 0.46875 0
0.1875 0.5 0
0.15625 0.484375 0
0.171875 0.484375 0
0.171875 0.5 0
0.15625 0.5 0
0.15625 0.53125 0
0.125 0.5 0
0.15625 0.515625 0
0.140625 0.515625 0
0.140625 0.5 0
0.15625 0.5 0
0.1875 0.5 0
0.15625 0.53125 0
0.171875 0.5 0
0.171875 0.515625 0
0.15625 0.515625 0
0.1875 0.46875 0
0.15625 0.46875 0
0.1875 0.4375 0
0.171875 0.46875 0
0.171875 0.453125 0
0.1875 0.453125 0
0.1875 0.46875 0
0.1875 0.5 0
0.15625 0.46875 0
0.1875 0.484375 0
0.171875 0.484375 0
0.171875 0.46875 0
0.1875 0.46875 0
0.1875 0.4375 0
0.21875 0.46875 0
0.1875 0.453125 0
0.203125 0.453125 0
0.203125 0.46875 0
0.1875 0.46875 0
0.21875 0.46875 0
0.1875 0.5 0
0.203125 0.46875 0
0.203125 0.484375 0
0.1875 0.484375 0
0.21875 0.5 0
0.21875 0.46875 0
0.25 0.5 0
0.21875 0.484375 0
0.234375 0.484375 0
0.234375 0.5 0
0.21875 0.5 0
0.1875 0.5 0
0.21875 0.46875 0
0.203125 0.5 0
0.203125 0.484375 0
0.21875 0.484375 0
0.21875 0.5 0
0.25 0.5 0
0.21875 0.53125 0
0.234375 0.5 0
0.234375 0.515625 0
0.21875 0.515625 0
0.21875 0.5 0
0.21875 0.53125 0
0.1875 0.5 0
0.21875 0.515625 0
0.203125 0.515625 0
0.203125 0.5 0
0.25 0.46875 0
0.25 0.5 0
0.21875 0.46875 0
0.25 0.484375 0
0.234375 0.484375 0
0.234375 0.46875 0
0.25 0.46875 0
0.21875 0.46875 0
0.25 0.4375 0
0.234375 0.46875 0
0.234375 0.453125 0
0.25 0.453125 0
0.25 0.46875 0
0.28125 0.46875 0
0.25 0.5 0
0.265625 0.46875 0
0.265625 0.484375 0
0.25 0.484375 0
0.25 0.46875 0
0.25 0.4375 0
0.28125 0.46875 0
0.25 0.453125 0
0.265625 0.453125 0
0.265625 0.46875 0
0.1875 0.53125 0
0.21875 0.53125 0
0.1875 0.5625 0
0.203125 0.53125 0
0.203125 0.546875 0
0.1875 0.546875 0
0.1875 0.53125 0
0.1875 0.5 0
0.21875 0.53125 0
0.1875 0.515625 0
0.203125 0.515625 0
0.203125 0.53125 0
0.1875 0.53125 0
0.1875 0.5625 0
0.15625 0.53125 0
0.1875 0.546875 0
0.171875 0.546875 0
0.171875 0.53125 0
0.1875 0.53125 0
0.15625 0.53125 0
0.1875 0.5 0
0.171875 0.53125 0
0.171875 0.515625 0
0.1875 0.515625 0
0.25 0.53125 0
0.21875 0.53125 0
0.25 0.5 0
0.234375 0.53125 0
0.234375 0.515625 0
0.25 0.515625 0
0.25 0.53125 0
0.25 0.5625 0
0.21875 0.53125 0
0.25 0.546875 0
0.234375 0.546875 0
0.234375 0.53125 0
0.25 0.53125 0
0.25 0.5 0
0.28125 0.53125 0
0.25 0.515625 0
0.265625 0.515625 0
0.265625 0.53125 0
0.25 0.53125 0
0.28125 0.53125 0
0.25 0.5625 0
0.265625 0.53125 0
0.265625 0.546875 0
0.25 0.546875 0
0.21875 0.5625 0
0.1875 0.5625 0
0.21875 0.53125 0
0.203125 0.5625 0
0.203125 0.546875 0
0.21875 0.546875 0
0.21875 0.5625 0
0.21875 0.53125 0
0.25 0.5625 0
0.21875 0.546875 0
0.234375 0.546875 0
0.234375 0.5625 0
0.21875 0.5625 0
0.21875 0.59375 0
0.1875 0.5625 0
0.21875 0.578125 0
0.203125 0.578125 0
0.203125 0.5625 0
0.21875 0.5625 0
0.25 0.5625 0
0.21875 0.59375 0
0.234375 0.5625 0
0.234375 0.578125 0
0.21875 0.578125 0
0.15625 0.5625 0
0.15625 0.53125 0
0.1875 0.5625 0
0.15625 0.546875 0
0.171875 0.546875 0
0.171875 0.5625 0
0.15625 0.5625 0
0.125 0.5625 0
0.15625 0.53125 0
0.140625 0.5625 0
0.140625 0.546875 0
0.15625 0.546875 0
0.15625 0.5625 0
0.1875 0.5625 0
0.15625 0.59375 0
0.171875 0.5625 0
0.171875 0.578125 0
0.15625 0.578125 0
0.15625 0.5625 0
0.15625 0.59375 0
0.125 0.5625 0
0.15625 0.578125 0
0.140625 0.578125 0
0.140625 0.5625 0
0.28125 0.4375 0
0.3125 0.4375 0
0.28125 0.46875 0
0.296875 0.4375 0
0.296875 0.453125 0
0.28125 0.453125 0
0.28125 0.4375 0
0.28125 0.46875 0
0.25 0.4375 0
0.28125 0.453125 0
0.265625 0.453125 0
0.265625 0.4375 0
0.28125 0.4375 0
0.28125 0.40625 0
0.3125 0.4375 0
0.28125 0.421875 0
0.296875 0.421875 0
0.296875 0.4375 0
0.28125 0.4375 0
0.25 0.4375 0
0.28125 0.40625 0
0.265625 0.4375 0
0.265625 0.421875 0
0.28125 0.421875 0
0.28125 0.5 0
0.25 0.5 0
0.28125 0.46875 0
0.265625 0.5 0
0.265625 0.484375 0
0.28125 0.484375 0
0.28125 0.5 0
0.28125 0.46875 0
0.3125 0.5 0
0.28125 0.484375 0
0.296875 0.484375 0
0.296875 0.5 0
0.28125 0.5 0
0.28125 0.53125 0
0.25 0.5 0
0.28125 0.515625 0
0.265625 0.515625 0
0.265625 0.5 0
0.28125 0.5 0
0.3125 0.5 0
0.28125 0.53125 0
0.296875 0.5 0
0.296875 0.515625 0
0.28125 0.515625 0
0.3125 0.46875 0
0.28125 0.46875 0
0.3125 0.4375 0
0.296875 0.46875 0
0.296875 0.453125 0
0.3125 0.453125 0
0.3125 0.46875 0
0.3125 0.5 0
0.28125 0.46875 0
0.3125 0.484375 0
0.296875 0.484375 0
0.296875 0.46875 0
0.3125 0.46875 0
0.3125 0.4375 0
0.34375 0.46875 0
0.3125 0.453125 0
0.328125 0.453125 0
0.328125 0.46875 0
0.3125 0.46875 0
0.34375 0.46875 0
0.3125 0.5 0
0.328125 0.46875 0
0.328125 0.484375 0
0.3125 0.484375 0
0.3125 0.40625 0
0.3125 0.4375 0
0.28125 0.40625 0
0.3125 0.421875 0
0.296875 0.421875 0
0.296875 0.40625 0
0.3125 0.40625 0
0.28125 0.40625 0
0.3125 0.375 0
0.296875 0.40625 0
0.296875 0.390625 0
0.3125 0.390625 0
0.3125 0.40625 0
0.34375 0.40625 0
0.3125 0.4375 0
0.328125 0.40625 0
0.328125 0.421875 0
0.3125 0.421875 0
0.3125 0.40625 0
0.3125 0.375 0
0.34375 0.40625 0
0.3125 0.390625 0
0.328125 0.390625 0
0.328125 0.40625 0
0.125 0.59375 0
0.125 0.625 0
0.09375 0.59375 0
0.125 0.609375 0
0.109375 0.609375 0
0.109375 0.59375 0
0.125 0.59375 0
0.09375 0.59375 0
0.125 0.5625 0
0.109375 0.59375 0
0.109375 0.578125 0
0.125 0.578125 0
0.125 0.59375 0
0.15625 0.59375 0
0.125 0.625 0
0.140625 0.59375 0
0.140625 0.609375 0
0.125 0.609375 0
0.125 0.59375 0
0.125 0.5625 0
0.15625 0.59375 0
0.125 0.578125 0
0.140625 0.578125 0
0.140625 0.59375 0
0.09375 0.625 0
0.09375 0.59375 0
0.125 0.625 0
0.09375 0.609375 0
0.109375 0.609375 0
0.109375 0.625 0
0.09375 0.625 0
0.0625 0.625 0
0.09375 0.59375 0
0.078125 0.625 0
0.078125 0.609375 0
0.09375 0.609375 0
0.09375 0.625 0
0.125 0.625 0
0.09375 0.65625 0
0.109375 0.625 0
0.109375 0.640625 0
0.09375 0.640625 0
0.09375 0.625 0
0.09375 0.65625 0
0.0625 0.625 0
0.09375 0.640625 0
0.078125 0.640625 0
0.078125 0.625 0
0.0625 0.59375 0
0.0625 0.5625 0
0.09375 0.59375 0
0.0625 0.578125 0
0.078125 0.578125 0
0.078125 0.59375 0
0.0625 0.59375 0
0.09375 0.59375 0
0.0625 0.625 0
0.078125 0.59375 0
0.078125 0.609375 0
0.0625 0.609375 0
0.0625 0.59375 0
0.03125 0.59375 0
0.0625 0.5625 0
0.046875 0.59375 0
0.046875 0.578125 0
0.0625 0.578125 0
0.0625 0.59375 0
0.0625 0.625 0
0.03125 0.59375 0
0.0625 0.609375 0
0.046875 0.609375 0
0.046875 0.59375 0
0.15625 0.625 0
0.125 0.625 0
0.15625 0.59375 0
0.140625 0.625 0
0.140625 0.609375 0
0.15625 0.609375 0
0.15625 0.625 0
0.15625 0.59375 0
0.1875 0.625 0
0.15625 0.609375 0
0.171875 0.609375 0
0.171875 0.625 0
0.15625 0.625 0
0.15625 0.65625 0
0.125 0.625 0
0.15625 0.640625 0
0.140625 0.640625 0
0.140625 0.625 0
0.15625 0.625 0
0.1875 0.625 0
0.15625 0.65625 0
0.171875 0.625 0
0.171875 0.640625 0
0.15625 0.640625 0
0.1875 0.59375 0
0.15625 0.59375 0
0.1875 0.5625 0
0.171875 0.59375 0
0.171875 0.578125 0
0.1875 0.578125 0
0.1875 0.59375 0
0.1875 0.625 0
0.15625 0.59375 0
0.1875 0.609375 0
0.171875 0.609375 0
0.171875 0.59375 0
0.1875 0.59375 0
0.1875 0.5625 0
0.21875 0.59375 0
0.1875 0.578125 0
0.203125 0.578125 0
0.203125 0.59375 0
0.1875 0.59375 0
0.21875 0.59375 0
0.1875 0.625 0
0.203125 0.59375 0
0.203125 0.609375 0
0.1875 0.609375 0
0 0.59375 0
0.03125 0.59375 0
0 0.625 0
0.015625 0.59375 0
0.015625 0.609375 0
0 0.609375 0
0 0.59375 0
0 0.5625 0
0.03125 0.59375 0
0 0.578125 0
0.015625 0.578125 0
0.015625 0.59375 0
0.03125 0.625 0
0 0.625 0
0.03125 0.59375 0
0.015625 0.625 0
0.015625 0.609375 0
0.03125 0.609375 0
0.03125 0.625 0
0.03125 0.59375 0
0.0625 0.625 0
0.03125 0.609375 0
0.046875 0.609375 0
0.046875 0.625 0
0.03125 0.625 0
0.03125 0.65625 0
0 0.625 0
0.03125 0.640625 0
0.015625 0.640625 0
0.015625 0.625 0
0.03125 0.625 0
0.0625 0.625 0
0.03125 0.65625 0
0.046875 0.625 0
0.046875 0.640625 0
0.03125 0.640625 0
0.0625 0.65625 0
0.09375 0.65625 0
0.0625 0.6875 0
0.078125 0.65625 0
0.078125 0.671875 0
0.0625 0.671875 0
0.0625 0.65625 0
0.0625 0.625 0
0.09375 0.65625 0
0.0625 0.640625 0
0.078125 0.640625 0
0.078125 0.65625 0
0.0625 0.65625 0
0.0625 0.6875 0
0.03125 0.65625 0
0.0625 0.671875 0
0.046875 0.671875 0
0.046875 0.65625 0
0.0625 0.65625 0
0.03125 0.65625 0
0.0625 0.625 0
0.046875 0.65625 0
0.046875 0.640625 0
0.0625 0.640625 0
0.125 0.65625 0
0.09375 0.65625 0
0.125 0.625 0
0.109375 0.65625 0
0.109375 0.640625 0
0.125 0.640625 0
0.125 0.65625 0
0.125 0.6875 0
0.09375 0.65625 0
0.125 0.671875 0
0.109375 0.671875 0
0.109375 0.65625 0
0.125 0.65625 0
0.125 0.625 0
0.15625 0.65625 0
0.125 0.640625 0
0.140625 0.640625 0
0.140625 0.65625 0
0.125 0.65625 0
0.15625 0.65625 0
0.125 0.6875 0
0.140625 0.65625 0
0.140625 0.671875 0
0.125 0.671875 0
0.09375 0.6875 0
0.0625 0.6875 0
0.09375 0.65625 0
0.078125 0.6875 0
0.078125 0.671875 0
0.09375 0.671875 0
0.09375 0.6875 0
0.09375 0.65625 0
0.125 0.6875 0
0.09375 0.671875 0
0.109375 0.671875 0
0.109375 0.6875 0
0.09375 0.6875 0
0.09375 0.71875 0
0.0625 0.6875 0
0.09375 0.703125 0
0.078125 0.703125 0
0.078125 0.6875 0
0.09375 0.6875 0
0.125 0.6875 0
0.09375 0.71875 0
0.109375 0.6875 0
0.109375 0.703125 0
0.09375 0.703125 0
0 0.65625 0
0 0.625 0
0.03125 0.65625 0
0 0.640625 0
0.015625 0.640625 0
0.015625 0.65625 0
0 0.65625 0
0.03125 0.65625 0
0 0.6875 0
0.015625 0.65625 0
0.015625 0.671875 0
0 0.671875 0
0.03125 0.6875 0
0.03125 0.65625 0
0.0625 0.6875 0
0.03125 0.671875 0
0.046875 0.671875 0
0.046875 0.6875 0
0.03125 0.6875 0
0 0.6875 0
0.03125 0.65625 0
0.015625 0.6875 0
0.015625 0.671875 0
0.03125 0.671875 0
0.03125 0.6875 0
0.0625 0.6875 0
0.03125 0.71875 0
0.046875 0.6875 0
0.046875 0.703125 0
0.03125 0.703125 0
0.03125 0.6875 0
0.03125 0.71875 0
0 0.6875 0
0.03125 0.703125 0
0.015625 0.703125 0
0.015625 0.6875 0
0.25 0.59375 0
0.25 0.625 0
0.21875 0.59375 0
0.25 0.609375 0
0.234375 0.609375 0
0.234375 0.59375 0
0.25 0.59375 0
0.21875 0.59375 0
0.25 0.5625 0
0.234375 0.59375 0
0.234375 0.578125 0
0.25 0.578125 0
0.25 0.59375 0
0.28125 0.59375 0
0.25 0.625 0
0.265625 0.59375 0
0.265625 0.609375 0
0.25 0.609375 0
0.25 0.59375 0
0.25 0.5625 0
0.28125 0.59375 0
0.25 0.578125 0
0.265625 0.578125 0
0.265625 0.59375 0
0.21875 0.625 0
0.21875 0.59375 0
0.25 0.625 0
0.21875 0.609375 0
0.234375 0.609375 0
0.234375 0.625 0
0.21875 0.625 0
0.1875 0.625 0
0.21875 0.59375 0
0.203125 0.625 0
0.203125 0.609375 0
0.21875 0.609375 0
0.21875 0.625 0
0.25 0.625 0
0.21875 0.65625 0
0.234375 0.625 0
0.234375 0.640625 0
0.21875 0.640625 0
0.21875 0.625 0
0.21875 0.65625 0
0.1875 0.625 0
0.21875 0.640625 0
0.203125 0.640625 0
0.203125 0.625 0
0.28125 0.5625 0
0.28125 0.53125 0
0.3125 0.5625 0
0.28125 0.546875 0
0.296875 0.546875 0
0.296875 0.5625 0
0.28125 0.5625 0
0.25 0.5625 0
0.28125 0.53125 0
0.265625 0.5625 0
0.265625 0.546875 0
0.28125 0.546875 0
0.28125 0.5625 0
0.3125 0.5625 0
0.28125 0.59375 0
0.296875 0.5625 0
0.296875 0.578125 0
0.28125 0.578125 0
0.28125 0.5625 0
0.28125 0.59375 0
0.25 0.5625 0
0.28125 0.578125 0
0.265625 0.578125 0
0.265625 0.5625 0
0.3125 0.53125 0
0.3125 0.5625 0
0.28125 0.53125 0
0.3125 0.546875 0
0.296875 0.546875 0
0.296875 0.53125 0
0.3125 0.53125 0
0.28125 0.53125 0
0.3125 0.5 0
0.296875 0.53125 0
0.296875 0.515625 0
0.3125 0.515625 0
0.3125 0.53125 0
0.34375 0.53125 0
0.3125 0.5625 0
0.328125 0.53125 0
0.328125 0.546875 0
0.3125 0.546875 0
0.3125 0.53125 0
0.3125 0.5 0
0.34375 0.53125 0
0.3125 0.515625 0
0.328125 0.515625 0
0.328125 0.53125 0
0.28125 0.625 0
0.25 0.625 0
0.28125 0.59375 0
0.265625 0.625 0
0.265625 0.609375 0
0.28125 0.609375 0
0.28125 0.625 0
0.28125 0.59375 0
0.3125 0.625 0
0.28125 0.609375 0
0.296875 0.609375 0
0.296875 0.625 0
0.28125 0.625 0
0.28125 0.65625 0
0.25 0.625 0
0.28125 0.640625 0
0.265625 0.640625 0
0.265625 0.625 0
0.28125 0.625 0
0.3125 0.625 0
0.28125 0.65625 0
0.296875 0.625 0
0.296875 0.640625 0
0.28125 0.640625 0
0.3125 0.59375 0
0.28125 0.59375 0
0.3125 0.5625 0
0.296875 0.59375 0
0.296875 0.578125 0
0.3125 0.578125 0
0.3125 0.59375 0
0.3125 0.625 0
0.28125 0.59375 0
0.3125 0.609375 0
0.296875 0.609375 0
0.296875 0.59375 0
0.3125 0.59375 0
0.3125 0.5625 0
0.34375 0.59375 0
0.3125 0.578125 0
0.328125 0.578125 0
0.328125 0.59375 0
0.3125 0.59375 0
0.34375 0.59375 0
0.3125 0.625 0
0.328125 0.59375 0
0.328125 0.609375 0
0.3125 0.609375 0
0.1875 0.65625 0
0.1875 0.6875 0
0.15625 0.65625 0
0.1875 0.671875 0
0.171875 0.671875 0
0.171875 0.65625 0
0.1875 0.65625 0
0.15625 0.65625 0
0.1875 0.625 0
0.171875 0.65625 0
0.171875 0.640625 0
0.1875 0.640625 0
0.1875 0.65625 0
0.21875 0.65625 0
0.1875 0.6875 0
0.203125 0.65625 0
0.203125 0.671875 0
0.1875 0.671875 0
0.1875 0.65625 0
0.1875 0.625 0
0.21875 0.65625 0
0.1875 0.640625 0
0.203125 0.640625 0
0.203125 0.65625 0
0.15625 0.6875 0
0.15625 0.65625 0
0.1875 0.6875 0
0.15625 0.671875 0
0.171875 0.671875 0
0.171875 0.6875 0
0.15625 0.6875 0
0.125 0.6875 0
0.15625 0.65625 0
0.140625 0.6875 0
0.140625 0.671875 0
0.15625 0.671875 0
0.15625 0.6875 0
0.1875 0.6875 0
0.15625 0.71875 0
0.171875 0.6875 0
0.171875 0.703125 0
0.15625 0.703125 0
0.15625 0.6875 0
0.15625 0.71875 0
0.125 0.6875 0
0.15625 0.703125 0
0.140625 0.703125 0
0.140625 0.6875 0
0.25 0.65625 0
0.21875 0.65625 0
0.25 0.625 0
0.234375 0.65625 0
0.234375 0.640625 0
0.25 0.640625 0
0.25 0.65625 0
0.25 0.6875 0
0.21875 0.65625 0
0.25 0.671875 0
0.234375 0.671875 0
0.234375 0.65625 0
0.25 0.65625 0
0.25 0.625 0
0.28125 0.65625 0
0.25 0.640625 0
0.265625 0.640625 0
0.265625 0.65625 0
0.25 0.65625 0
0.28125 0.65625 0
0.25 0.6875 0
0.265625 0.65625 0
0.265625 0.671875 0
0.25 0.671875 0
0.21875 0.6875 0
0.1875 0.6875 0
0.21875 0.65625 0
0.203125 0.6875 0
0.203125 0.671875 0
0.21875 0.671875 0
0.21875 0.6875 0
0.21875 0.65625 0
0.25 0.6875 0
0.21875 0.671875 0
0.234375 0.671875 0
0.234375 0.6875 0
0.21875 0.6875 0
0.21875 0.71875 0
0.1875 0.6875 0
0.21875 0.703125 0
0.203125 0.703125 0
0.203125 0.6875 0
0.21875 0.6875 0
0.25 0.6875 0
0.21875 0.71875 0
0.234375 0.6875 0
0.234375 0.703125 0
0.21875 0.703125 0
0.34375 0.375 0
0.34375 0.34375 0
0.375 0.375 0
0.34375 0.359375 0
0.359375 0.359375 0
0.359375 0.375 0
0.34375 0.375 0
0.3125 0.375 0
0.34375 0.34375 0
0.328125 0.375 0
0.328125 0.359375 0
0.34375 0.359375 0
0.34375 0.375 0
0.375 0.375 0
0.34375 0.40625 0
0.359375 0.375 0
0.359375 0.390625 0
0.34375 0.390625 0
0.34375 0.375 0
0.34375 0.40625 0
0.3125 0.375 0
0.34375 0.390625 0
0.328125 0.390625 0
0.328125 0.375 0
0.375 0.34375 0
0.375 0.375 0
0.34375 0.34375 0
0.375 0.359375 0
0.359375 0.359375 0
0.359375 0.34375 0
0.375 0.34375 0
0.34375 0.34375 0
0.375 0.3125 0
0.359375 0.34375 0
0.359375 0.328125 0
0.375 0.328125 0
0.375 0.34375 0
0.40625 0.34375 0
0.375 0.375 0
0.390625 0.34375 0
0.390625 0.359375 0
0.375 0.359375 0
0.375 0.34375 0
0.375 0.3125 0
0.40625 0.34375 0
0.375 0.328125 0
0.390625 0.328125 0
0.390625 0.34375 0
0.375 0.40625 0
0.34375 0.40625 0
0.375 0.375 0
0.359375 0.40625 0
0.359375 0.390625 0
0.375 0.390625 0
0.375 0.40625 0
0.375 0.4375 0
0.34375 0.40625 0
0.375 0.421875 0
0.359375 0.421875 0
0.359375 0.40625 0
0.375 0.40625 0
0.375 0.375 0
0.40625 0.40625 0
0.375 0.390625 0
0.390625 0.390625 0
0.390625 0.40625 0
0.375 0.40625 0
0.40625 0.40625 0
0.375 0.4375 0
0.390625 0.40625 0
0.390625 0.421875 0
0.375 0.421875 0
0.34375 0.4375 0
0.3125 0.4375 0
0.34375 0.40625 0
0.328125 0.4375 0
0.328125 0.421875 0
0.34375 0.421875 0
0.34375 0.4375 0
0.34375 0.40625 0
0.375 0.4375 0
0.34375 0.421875 0
0.359375 0.421875 0
0.359375 0.4375 0
0.34375 0.4375 0
0.34375 0.46875 0
0.3125 0.4375 0
0.34375 0.453125 0
0.328125 0.453125 0
0.328125 0.4375 0
0.34375 0.4375 0
0.375 0.4375 0
0.34375 0.46875 0
0.359375 0.4375 0
0.359375 0.453125 0
0.34375 0.453125 0
0.40625 0.3125 0
0.4375 0.3125 0
0.40625 0.34375 0
0.421875 0.3125 0
0.421875 0.328125 0
0.40625 0.328125 0
0.40625 0.3125 0
0.40625 0.34375 0
0.375 0.3125 0
0.40625 0.328125 0
0.390625 0.328125 0
0.390625 0.3125 0
0.40625 0.3125 0
0.40625 0.28125 0
0.4375 0.3125 0
0.40625 0.296875 0
0.421875 0.296875 0
0.421875 0.3125 0
0.40625 0.3125 0
0.375 0.3125 0
0.40625 0.28125 0
0.390625 0.3125 0
0.390625 0.296875 0
0.40625 0.296875 0
0.40625 0.375 0
0.375 0.375 0
0.40625 0.34375 0
0.390625 0.375 0
0.390625 0.359375 0
0.40625 0.359375 0
0.40625 0.375 0
0.40625 0.34375 0
0.4375 0.375 0
0.40625 0.359375 0
0.421875 0.359375 0
0.421875 0.375 0
0.40625 0.375 0
0.40625 0.40625 0
0.375 0.375 0
0.40625 0.390625 0
0.390625 0.390625 0
0.390625 0.375 0
0.40625 0.375 0
0.4375 0.375 0
0.40625 0.40625 0
0.421875 0.375 0
0.421875 0.390625 0
0.40625 0.390625 0
0.4375 0.34375 0
0.40625 0.34375 0
0.4375 0.3125 0
0.421875 0.34375 0
0.421875 0.328125 0
0.4375 0.328125 0
0.4375 0.34375 0
0.4375 0.375 0
0.40625 0.34375 0
0.4375 0.359375 0
0.421875 0.359375 0
0.421875 0.34375 0
0.4375 0.34375 0
0.4375 0.3125 0
0.46875 0.34375 0
0.4375 0.328125 0
0.453125 0.328125 0
0.453125 0.34375 0
0.4375 0.34375 0
0.46875 0.34375 0
0.4375 0.375 0
0.453125 0.34375 0
0.453125 0.359375 0
0.4375 0.359375 0
0.4375 0.28125 0
0.4375 0.3125 0
0.40625 0.28125 0
0.4375 0.296875 0
0.421875 0.296875 0
0.421875 0.28125 0
0.4375 0.28125 0
0.40625 0.28125 0
0.4375 0.25 0
0.421875 0.28125 0
0.421875 0.265625 0
0.4375 0.265625 0
0.4375 0.28125 0
0.46875 0.28125 0
0.4375 0.3125 0
0.453125 0.28125 0
0.453125 0.296875 0
0.4375 0.296875 0
0.4375 0.28125 0
0.4375 0.25 0
0.46875 0.28125 0
0.4375 0.265625 0
0.453125 0.265625 0
0.453125 0.28125 0
0.34375 0.5 0
0.34375 0.46875 0
0.375 0.5 0
0.34375 0.484375 0
0.359375 0.484375 0
0.359375 0.5 0
0.34375 0.5 0
0.3125 0.5 0
0.34375 0.46875 0
0.328125 0.5 0
0.328125 0.484375 0
0.34375 0.484375 0
0.34375 0.5 0
0.375 0.5 0
0.34375 0.53125 0
0.359375 0.5 0
0.359375 0.515625 0
0.34375 0.515625 0
0.34375 0.5 0
0.34375 0.53125 0
0.3125 0.5 0
0.34375 0.515625 0
0.328125 0.515625 0
0.328125 0.5 0
0.375 0.46875 0
0.375 0.5 0
0.34375 0.46875 0
0.375 0.484375 0
0.359375 0.484375 0
0.359375 0.46875 0
0.375 0.46875 0
0.34375 0.46875 0
0.375 0.4375 0
0.359375 0.46875 0
0.359375 0.453125 0
0.375 0.453125 0
0.375 0.46875 0
0.40625 0.46875 0
0.375 0.5 0
0.390625 0.46875 0
0.390625 0.484375 0
0.375 0.484375 0
0.375 0.46875 0
0.375 0.4375 0
0.40625 0.46875 0
0.375 0.453125 0
0.390625 0.453125 0
0.390625 0.46875 0
0.375 0.53125 0
0.34375 0.53125 0
0.375 0.5 0
0.359375 0.53125 0
0.359375 0.515625 0
0.375 0.515625 0
0.375 0.53125 0
0.375 0.5625 0
0.34375 0.53125 0
0.375 0.546875 0
0.359375 0.546875 0
0.359375 0.53125 0
0.375 0.53125 0
0.375 0.5 0
0.40625 0.53125 0
0.375 0.515625 0
0.390625 0.515625 0
0.390625 0.53125 0
0.375 0.53125 0
0.40625 0.53125 0
0.375 0.5625 0
0.390625 0.53125 0
0.390625 0.546875 0
0.375 0.546875 0
0.34375 0.5625 0
0.3125 0.5625 0
0.34375 0.53125 0
0.328125 0.5625 0
0.328125 0.546875 0
0.34375 0.546875 0
0.34375 0.5625 0
0.34375 0.53125 0
0.375 0.5625 0
0.34375 0.546875 0
0.359375 0.546875 0
0.359375 0.5625 0
0.34375 0.5625 0
0.34375 0.59375 0
0.3125 0.5625 0
0.34375 0.578125 0
0.328125 0.578125 0
0.328125 0.5625 0
0.34375 0.5625 0
0.375 0.5625 0
0.34375 0.59375 0
0.359375 0.5625 0
0.359375 0.578125 0
0.34375 0.578125 0
0.40625 0.4375 0
0.40625 0.40625 0
0.4375 0.4375 0
0.40625 0.421875 0
0.421875 0.421875 0
0.421875 0.4375 0
0.40625 0.4375 0
0.375 0.4375 0
0.40625 0.40625 0
0.390625 0.4375 0
0.390625 0.421875 0
0.40625 0.421875 0
0.40625 0.4375 0
0.4375 0.4375 0
0.40625 0.46875 0
0.421875 0.4375 0
0.421875 0.453125 0
0.40625 0.453125 0
0.40625 0.4375 0
0.40625 0.46875 0
0.375 0.4375 0
0.40625 0.453125 0
0.390625 0.453125 0
0.390625 0.4375 0
0.4375 0.40625 0
0.4375 0.4375 0
0.40625 0.40625 0
0.4375 0.421875 0
0.421875 0.421875 0
0.421875 0.40625 0
0.4375 0.40625 0
0.40625 0.40625 0
0.4375 0.375 0
0.421875 0.40625 0
0.421875 0.390625 0
0.4375 0.390625 0
0.4375 0.40625 0
0.46875 0.40625 0
0.4375 0.4375 0
0.453125 0.40625 0
0.453125 0.421875 0
0.4375 0.421875 0
0.4375 0.40625 0
0.4375 0.375 0
0.46875 0.40625 0
0.4375 0.390625 0
0.453125 0.390625 0
0.453125 0.40625 0
0.40625 0.5 0
0.375 0.5 0
0.40625 0.46875 0
0.390625 0.5 0
0.390625 0.484375 0
0.40625 0.484375 0
0.40625 0.5 0
0.40625 0.46875 0
0.4375 0.5 0
0.40625 0.484375 0
0.421875 0.484375 0
0.421875 0.5 0
0.40625 0.5 0
0.40625 0.53125 0
0.375 0.5 0
0.40625 0.515625 0
0.390625 0.515625 0
0.390625 0.5 0
0.40625 0.5 0
0.4375 0.5 0
0.40625 0.53125 0
0.421875 0.5 0
0.421875 0.515625 0
0.40625 0.515625 0
0.4375 0.46875 0
0.40625 0.46875 0
0.4375 0.4375 0
0.421875 0.46875 0
0.421875 0.453125 0
0.4375 0.453125 0
0.4375 0.46875 0
0.4375 0.5 0
0.40625 0.46875 0
0.4375 0.484375 0
0.421875 0.484375 0
0.421875 0.46875 0
0.4375 0.46875 0
0.4375 0.4375 0
0.46875 0.46875 0
0.4375 0.453125 0
0.453125 0.453125 0
0.453125 0.46875 0
0.4375 0.46875 0
0.46875 0.46875 0
0.4375 0.5 0
0.453125 0.46875 0
0.453125 0.484375 0
0.4375 0.484375 0
0.46875 0.5 0
0.46875 0.46875 0
0.5 0.5 0
0.46875 0.484375 0
0.484375 0.484375 0
0.484375 0.5 0
0.46875 0.5 0
0.4375 0.5 0
0.46875 0.46875 0
0.453125 0.5 0
0.453125 0.484375 0
0.46875 0.484375 0
0.46875 0.5 0
0.5 0.5 0
0.46875 0.53125 0
0.484375 0.5 0
0.484375 0.515625 0
0.46875 0.515625 0
0.46875 0.5 0
0.46875 0.53125 0
0.4375 0.5 0
0.46875 0.515625 0
0.453125 0.515625 0
0.453125 0.5 0
0.5 0.46875 0
0.5 0.5 0
0.46875 0.46875 0
0.5 0.484375 0
0.484375 0.484375 0
0.484375 0.46875 0
0.5 0.46875 0
0.46875 0.46875 0
0.5 0.4375 0
0.484375 0.46875 0
0.484375 0.453125 0
0.5 0.453125 0
0.5 0.46875 0
0.53125 0.46875 0
0.5 0.5 0
0.515625 0.46875 0
0.515625 0.484375 0
0.5 0.484375 0
0.5 0.46875 0
0.5 0.4375 0
0.53125 0.46875 0
0.5 0.453125 0
0.515625 0.453125 0
0.515625 0.46875 0
0.46875 0.4375 0
0.46875 0.46875 0
0.4375 0.4375 0
0.46875 0.453125 0
0.453125 0.453125 0
0.453125 0.4375 0
0.46875 0.4375 0
0.5 0.4375 0
0.46875 0.46875 0
0.484375 0.4375 0
0.484375 0.453125 0
0.46875 0.453125 0
0.46875 0.4375 0
0.4375 0.4375 0
0.46875 0.40625 0
0.453125 0.4375 0
0.453125 0.421875 0
0.46875 0.421875 0
0.46875 0.4375 0
0.46875 0.40625 0
0.5 0.4375 0
0.46875 0.421875 0
0.484375 0.421875 0
0.484375 0.4375 0
0.4375 0.53125 0
0.46875 0.53125 0
0.4375 0.5625 0
0.453125 0.53125 0
0.453125 0.546875 0
0.4375 0.546875 0
0.4375 0.53125 0
0.4375 0.5 0
0.46875 0.53125 0
0.4375 0.515625 0
0.453125 0.515625 0
0.453125 0.53125 0
0.4375 0.53125 0
0.4375 0.5625 0
0.40625 0.53125 0
0.4375 0.546875 0
0.421875 0.546875 0
0.421875 0.53125 0
0.4375 0.53125 0
0.40625 0.53125 0
0.4375 0.5 0
0.421875 0.53125 0
0.421875 0.515625 0
0.4375 0.515625 0
0.5 0.53125 0
0.46875 0.53125 0
0.5 0.5 0
0.484375 0.53125 0
0.484375 0.515625 0
0.5 0.515625 0
0.5 0.53125 0
0.5 0.5625 0
0.46875 0.53125 0
0.5 0.546875 0
0.484375 0.546875 0
0.484375 0.53125 0
0.5 0.53125 0
0.5 0.5 0
0.53125 0.53125 0
0.5 0.515625 0
0.515625 0.515625 0
0.515625 0.53125 0
0.5 0.53125 0
0.53125 0.53125 0
0.5 0.5625 0
0.515625 0.53125 0
0.515625 0.546875 0
0.5 0.546875 0
0.46875 0.5625 0
0.4375 0.5625 0
0.46875 0.53125 0
0.453125 0.5625 0
0.453125 0.546875 0
0.46875 0.546875 0
0.46875 0.5625 0
0.46875 0.53125 0
0.5 0.5625 0
0.46875 0.546875 0
0.484375 0.546875 0
0.484375 0.5625 0
0.46875 0.5625 0
0.46875 0.59375 0
0.4375 0.5625 0
0.46875 0.578125 0
0.453125 0.578125 0
0.453125 0.5625 0
0.46875 0.5625 0
0.5 0.5625 0
0.46875 0.59375 0
0.484375 0.5625 0
0.484375 0.578125 0
0.46875 0.578125 0
0.40625 0.5625 0
0.40625 0.53125 0
0.4375 0.5625 0
0.40625 0.546875 0
0.421875 0.546875 0
0.421875 0.5625 0
0.40625 0.5625 0
0.375 0.5625 0
0.40625 0.53125 0
0.390625 0.5625 0
0.390625 0.546875 0
0.40625 0.546875 0
0.40625 0.5625 0
0.4375 0.5625 0
0.40625 0.59375 0
0.421875 0.5625 0
0.421875 0.578125 0
0.40625 0.578125 0
0.40625 0.5625 0
0.40625 0.59375 0
0.375 0.5625 0
0.40625 0.578125 0
0.390625 0.578125 0
0.390625 0.5625 0
0.5 0.40625 0
0.46875 0.40625 0
0.5 0.375 0
0.484375 0.40625 0
0.484375 0.390625 0
0.5 0.390625 0
0.5 0.40625 0
0.5 0.4375 0
0.46875 0.40625 0
0.5 0.421875 0
0.484375 0.421875 0
0.484375 0.40625 0
0.5 0.40625 0
0.5 0.375 0
0.53125 0.40625 0
0.5 0.390625 0
0.515625 0.390625 0
0.515625 0.40625 0
0.5 0.40625 0
0.53125 0.40625 0
0.5 0.4375 0
0.515625 0.40625 0
0.515625 0.421875 0
0.5 0.421875 0
0.46875 0.375 0
0.5 0.375 0
0.46875 0.40625 0
0.484375 0.375 0
0.484375 0.390625 0
0.46875 0.390625 0
0.46875 0.375 0
0.46875 0.40625 0
0.4375 0.375 0
0.46875 0.390625 0
0.453125 0.390625 0
0.453125 0.375 0
0.46875 0.375 0
0.46875 0.34375 0
0.5 0.375 0
0.46875 0.359375 0
0.484375 0.359375 0
0.484375 0.375 0
0.46875 0.375 0
0.4375 0.375 0
0.46875 0.34375 0
0.453125 0.375 0
0.453125 0.359375 0
0.46875 0.359375 0
0.53125 0.4375 0
0.5625 0.4375 0
0.53125 0.46875 0
0.546875 0.4375 0
0.546875 0.453125 0
0.53125 0.453125 0
0.53125 0.4375 0
0.53125 0.46875 0
0.5 0.4375 0
0.53125 0.453125 0
0.515625 0.453125 0
0.515625 0.4375 0
0.53125 0.4375 0
0.53125 0.40625 0
0.5625 0.4375 0
0.53125 0.421875 0
0.546875 0.421875 0
0.546875 0.4375 0
0.53125 0.4375 0
0.5 0.4375 0
0.53125 0.40625 0
0.515625 0.4375 0
0.515625 0.421875 0
0.53125 0.421875 0
0.53125 0.5 0
0.5 0.5 0
0.53125 0.46875 0
0.515625 0.5 0
0.515625 0.484375 0
0.53125 0.484375 0
0.53125 0.5 0
0.53125 0.46875 0
0.5625 0.5 0
0.53125 0.484375 0
0.546875 0.484375 0
0.546875 0.5 0
0.53125 0.5 0
0.53125 0.53125 0
0.5 0.5 0
0.53125 0.515625 0
0.515625 0.515625 0
0.515625 0.5 0
0.53125 0.5 0
0.5625 0.5 0
0.53125 0.53125 0
0.546875 0.5 0
0.546875 0.515625 0
0.53125 0.515625 0
0.5625 0.46875 0
0.53125 0.46875 0
0.5625 0.4375 0
0.546875 0.46875 0
0.546875 0.453125 0
0.5625 0.453125 0
0.5625 0.46875 0
0.5625 0.5 0
0.53125 0.46875 0
0.5625 0.484375 0
0.546875 0.484375 0
0.546875 0.46875 0
0.5625 0.46875 0
0.5625 0.4375 0
0.59375 0.46875 0
0.5625 0.453125 0
0.578125 0.453125 0
0.578125 0.46875 0
0.5625 0.46875 0
0.59375 0.46875 0
0.5625 0.5 0
0.578125 0.46875 0
0.578125 0.484375 0
0.5625 0.484375 0
0.53125 0.375 0
0.53125 0.40625 0
0.5 0.375 0
0.53125 0.390625 0
0.515625 0.390625 0
0.515625 0.375 0
0.53125 0.375 0
0.5625 0.375 0
0.53125 0.40625 0
0.546875 0.375 0
0.546875 0.390625 0
0.53125 0.390625 0
0.53125 0.375 0
0.5 0.375 0
0.53125 0.34375 0
0.515625 0.375 0
0.515625 0.359375 0
0.53125 0.359375 0
0.53125 0.375 0
0.53125 0.34375 0
0.5625 0.375 0
0.53125 0.359375 0
0.546875 0.359375 0
0.546875 0.375 0
0.5625 0.40625 0
0.5625 0.4375 0
0.53125 0.40625 0
0.5625 0.421875 0
0.546875 0.421875 0
0.546875 0.40625 0
0.5625 0.40625 0
0.53125 0.40625 0
0.5625 0.375 0
0.546875 0.40625 0
0.546875 0.390625 0
0.5625 0.390625 0
0.5625 0.40625 0
0.59375 0.40625 0
0.5625 0.4375 0
0.578125 0.40625 0
0.578125 0.421875 0
0.5625 0.421875 0
0.5625 0.40625 0
0.5625 0.375 0
0.59375 0.40625 0
0.5625 0.390625 0
0.578125 0.390625 0
0.578125 0.40625 0
0.5 0.34375 0
0.5 0.375 0
0.46875 0.34375 0
0.5 0.359375 0
0.484375 0.359375 0
0.484375 0.34375 0
0.5 0.34375 0
0.46875 0.34375 0
0.5 0.3125 0
0.484375 0.34375 0
0.484375 0.328125 0
0.5 0.328125 0
0.5 0.34375 0
0.53125 0.34375 0
0.5 0.375 0
0.515625 0.34375 0
0.515625 0.359375 0
0.5 0.359375 0
0.5 0.34375 0
0.5 0.3125 0
0.53125 0.34375 0
0.5 0.328125 0
0.515625 0.328125 0
0.515625 0.34375 0
0.46875 0.3125 0
0.46875 0.34375 0
0.4375 0.3125 0
0.46875 0.328125 0
0.453125 0.328125 0
0.453125 0.3125 0
0.46875 0.3125 0
0.5 0.3125 0
0.46875 0.34375 0
0.484375 0.3125 0
0.484375 0.328125 0
0.46875 0.328125 0
0.46875 0.3125 0
0.4375 0.3125 0
0.46875 0.28125 0
0.453125 0.3125 0
0.453125 0.296875 0
0.46875 0.296875 0
0.46875 0.3125 0
0.46875 0.28125 0
0.5 0.3125 0
0.46875 0.296875 0
0.484375 0.296875 0
0.484375 0.3125 0
0.375 0.59375 0
0.40625 0.59375 0
0.375 0.625 0
0.390625 0.59375 0
0.390625 0.609375 0
0.375 0.609375 0
0.375 0.59375 0
0.375 0.5625 0
0.40625 0.59375 0
0.375 0.578125 0
0.390625 0.578125 0
0.390625 0.59375 0
0.375 0.59375 0
0.375 0.625 0
0.34375 0.59375 0
0.375 0.609375 0
0.359375 0.609375 0
0.359375 0.59375 0
0.375 0.59375 0
0.34375 0.59375 0
0.375 0.5625 0
0.359375 0.59375 0
0.359375 0.578125 0
0.375 0.578125 0
0.40625 0.625 0
0.375 0.625 0
0.40625 0.59375 0
0.390625 0.625 0
0.390625 0.609375 0
0.40625 0.609375 0
0.40625 0.625 0
0.40625 0.59375 0
0.4375 0.625 0
0.40625 0.609375 0
0.421875 0.609375 0
0.421875 0.625 0
0.40625 0.625 0
0.40625 0.65625 0
0.375 0.625 0
0.40625 0.640625 0
0.390625 0.640625 0
0.390625 0.625 0
0.40625 0.625 0
0.4375 0.625 0
0.40625 0.65625 0
0.421875 0.625 0
0.421875 0.640625 0
0.40625 0.640625 0
0.4375 0.59375 0
0.40625 0.59375 0
0.4375 0.5625 0
0.421875 0.59375 0
0.421875 0.578125 0
0.4375 0.578125 0
0.4375 0.59375 0
0.4375 0.625 0
0.40625 0.59375 0
0.4375 0.609375 0
0.421875 0.609375 0
0.421875 0.59375 0
0.4375 0.59375 0
0.4375 0.5625 0
0.46875 0.59375 0
0.4375 0.578125 0
0.453125 0.578125 0
0.453125 0.59375 0
0.4375 0.59375 0
0.46875 0.59375 0
0.4375 0.625 0
0.453125 0.59375 0
0.453125 0.609375 0
0.4375 0.609375 0
0.34375 0.625 0
0.34375 0.59375 0
0.375 0.625 0
0.34375 0.609375 0
0.359375 0.609375 0
0.359375 0.625 0
0.34375 0.625 0
0.3125 0.625 0
0.34375 0.59375 0
0.328125 0.625 0
0.328125 0.609375 0
0.34375 0.609375 0
0.34375 0.625 0
0.375 0.625 0
0.34375 0.65625 0
0.359375 0.625 0
0.359375 0.640625 0
0.34375 0.640625 0
0.34375 0.625 0
0.34375 0.65625 0
0.3125 0.625 0
0.34375 0.640625 0
0.328125 0.640625 0
0.328125 0.625 0
0.5 0.59375 0
0.5 0.625 0
0.46875 0.59375 0
0.5 0.609375 0
0.484375 0.609375 0
0.484375 0.59375 0
0.5 0.59375 0
0.46875 0.59375 0
0.5 0.5625 0
0.484375 0.59375 0
0.484375 0.578125 0
0.5 0.578125 0
0.5 0.59375 0
0.53125 0.59375 0
0.5 0.625 0
0.515625 0.59375 0
0.515625 0.609375 0
0.5 0.609375 0
0.5 0.59375 0
0.5 0.5625 0
0.53125 0.59375 0
0.5 0.578125 0
0.515625 0.578125 0
0.515625 0.59375 0
0.46875 0.625 0
0.46875 0.59375 0
0.5 0.625 0
0.46875 0.609375 0
0.484375 0.609375 0
0.484375 0.625 0
0.46875 0.625 0
0.4375 0.625 0
0.46875 0.59375 0
0.453125 0.625 0
0.453125 0.609375 0
0.46875 0.609375 0
0.46875 0.625 0
0.5 0.625 0
0.46875 0.65625 0
0.484375 0.625 0
0.484375 0.640625 0
0.46875 0.640625 0
0.46875 0.625 0
0.46875 0.65625 0
0.4375 0.625 0
0.46875 0.640625 0
0.453125 0.640625 0
0.453125 0.625 0
0.53125 0.5625 0
0.53125 0.53125 0
0.5625 0.5625 0
0.53125 0.546875 0
0.546875 0.546875 0
0.546875 0.5625 0
0.53125 0.5625 0
0.5 0.5625 0
0.53125 0.53125 0
0.515625 0.5625 0
0.515625 0.546875 0
0.53125 0.546875 0
0.53125 0.5625 0
0.5625 0.5625 0
0.53125 0.59375 0
0.546875 0.5625 0
0.546875 0.578125 0
0.53125 0.578125 0
0.53125 0.5625 0
0.53125 0.59375 0
0.5 0.5625 0
0.53125 0.578125 0
0.515625 0.578125 0
0.515625 0.5625 0
0.5625 0.53125 0
0.5625 0.5625 0
0.53125 0.53125 0
0.5625 0.546875 0
0.546875 0.546875 0
0.546875 0.53125 0
0.5625 0.53125 0
0.53125 0.53125 0
0.5625 0.5 0
0.546875 0.53125 0
0.546875 0.515625 0
0.5625 0.515625 0
0.5625 0.53125 0
0.59375 0.53125 0
0.5625 0.5625 0
0.578125 0.53125 0
0.578125 0.546875 0
0.5625 0.546875 0
0.5625 0.53125 0
0.5625 0.5 0
0.59375 0.53125 0
0.5625 0.515625 0
0.578125 0.515625 0
0.578125 0.53125 0
0.53125 0.625 0
0.5 0.625 0
0.53125 0.59375 0
0.515625 0.625 0
0.515625 0.609375 0
0.53125 0.609375 0
0.53125 0.625 0
0.53125 0.59375 0
0.5625 0.625 0
0.53125 0.609375 0
0.546875 0.609375 0
0.546875 0.625 0
0.53125 0.625 0
0.53125 0.65625 0
0.5 0.625 0
0.53125 0.640625 0
0.515625 0.640625 0
0.515625 0.625 0
0.53125 0.625 0
0.5625 0.625 0
0.53125 0.65625 0
0.546875 0.625 0
0.546875 0.640625 0
0.53125 0.640625 0
0.5625 0.59375 0
0.53125 0.59375 0
0.5625 0.5625 0
0.546875 0.59375 0
0.546875 0.578125 0
0.5625 0.578125 0
0.5625 0.59375 0
0.5625 0.625 0
0.53125 0.59375 0
0.5625 0.609375 0
0.546875 0.609375 0
0.546875 0.59375 0
0.5625 0.59375 0
0.5625 0.5625 0
0.59375 0.59375 0
0.5625 0.578125 0
0.578125 0.578125 0
0.578125 0.59375 0
0.5625 0.59375 0
0.59375 0.59375 0
0.5625 0.625 0
0.578125 0.59375 0
0.578125 0.609375 0
0.5625 0.609375 0
0.4375 0.65625 0
0.4375 0.6875 0
0.40625 0.65625 0
0.4375 0.671875 0
0.421875 0.671875 0
0.421875 0.65625 0
0.4375 0.65625 0
0.40625 0.65625 0
0.4375 0.625 0
0.421875 0.65625 0
0.421875 0.640625 0
0.4375 0.640625 0
0.4375 0.65625 0
0.46875 0.65625 0
0.4375 0.6875 0
0.453125 0.65625 0
0.453125 0.671875 0
0.4375 0.671875 0
0.4375 0.65625 0
0.4375 0.625 0
0.46875 0.65625 0
0.4375 0.640625 0
0.453125 0.640625 0
0.453125 0.65625 0
0.375 0.65625 0
0.375 0.625 0
0.40625 0.65625 0
0.375 0.640625 0
0.390625 0.640625 0
0.390625 0.65625 0
0.375 0.65625 0
0.40625 0.65625 0
0.375 0.6875 0
0.390625 0.65625 0
0.390625 0.671875 0
0.375 0.671875 0
0.375 0.65625 0
0.34375 0.65625 0
0.375 0.625 0
0.359375 0.65625 0
0.359375 0.640625 0
0.375 0.640625 0
0.375 0.65625 0
0.375 0.6875 0
0.34375 0.65625 0
0.375 0.671875 0
0.359375 0.671875 0
0.359375 0.65625 0
0.40625 0.6875 0
0.40625 0.65625 0
0.4375 0.6875 0
0.40625 0.671875 0
0.421875 0.671875 0
0.421875 0.6875 0
0.40625 0.6875 0
0.375 0.6875 0
0.40625 0.65625 0
0.390625 0.6875 0
0.390625 0.671875 0
0.40625 0.671875 0
0.40625 0.6875 0
0.4375 0.6875 0
0.40625 0.71875 0
0.421875 0.6875 0
0.421875 0.703125 0
0.40625 0.703125 0
0.40625 0.6875 0
0.40625 0.71875 0
0.375 0.6875 0
0.40625 0.703125 0
0.390625 0.703125 0
0.390625 0.6875 0
0.5 0.65625 0
0.46875 0.65625 0
0.5 0.625 0
0.484375 0.65625 0
0.484375 0.640625 0
0.5 0.640625 0
0.5 0.65625 0
0.5 0.6875 0
0.46875 0.65625 0
0.5 0.671875 0
0.484375 0.671875 0
0.484375 0.65625 0
0.5 0.65625 0
0.5 0.625 0
0.53125 0.65625 0
0.5 0.640625 0
0.515625 0.640625 0
0.515625 0.65625 0
0.5 0.65625 0
0.53125 0.65625 0
0.5 0.6875 0
0.515625 0.65625 0
0.515625 0.671875 0
0.5 0.671875 0
0.46875 0.6875 0
0.4375 0.6875 0
0.46875 0.65625 0
0.453125 0.6875 0
0.453125 0.671875 0
0.46875 0.671875 0
0.46875 0.6875 0
0.46875 0.65625 0
0.5 0.6875 0
0.46875 0.671875 0
0.484375 0.671875 0
0.484375 0.6875 0
0.46875 0.6875 0
0.46875 0.71875 0
0.4375 0.6875 0
0.46875 0.703125 0
0.453125 0.703125 0
0.453125 0.6875 0
0.46875 0.6875 0
0.5 0.6875 0
0.46875 0.71875 0
0.484375 0.6875 0
0.484375 0.703125 0
0.46875 0.703125 0
0.3125 0.65625 0
0.34375 0.65625 0
0.3125 0.6875 0
0.328125 0.65625 0
0.328125 0.671875 0
0.3125 0.671875 0
0.3125 0.65625 0
0.3125 0.625 0
0.34375 0.65625 0
0.3125 0.640625 0
0.328125 0.640625 0
0.328125 0.65625 0
0.3125 0.65625 0
0.3125 0.6875 0
0.28125 0.65625 0
0.3125 0.671875 0
0.296875 0.671875 0
0.296875 0.65625 0
0.3125 0.65625 0
0.28125 0.65625 0
0.3125 0.625 0
0.296875 0.65625 0
0.296875 0.640625 0
0.3125 0.640625 0
0.34375 0.6875 0
0.3125 0.6875 0
0.34375 0.65625 0
0.328125 0.6875 0
0.328125 0.671875 0
0.34375 0.671875 0
0.34375 0.6875 0
0.34375 0.65625 0
0.375 0.6875 0
0.34375 0.671875 0
0.359375 0.671875 0
0.359375 0.6875 0
0.34375 0.6875 0
0.34375 0.71875 0
0.3125 0.6875 0
0.34375 0.703125 0
0.328125 0.703125 0
0.328125 0.6875 0
0.34375 0.6875 0
0.375 0.6875 0
0.34375 0.71875 0
0.359375 0.6875 0
0.359375 0.703125 0
0.34375 0.703125 0
0.28125 0.6875 0
0.28125 0.65625 0
0.3125 0.6875 0
0.28125 0.671875 0
0.296875 0.671875 0
0.296875 0.6875 0
0.28125 0.6875 0
0.25 0.6875 0
0.28125 0.65625 0
0.265625 0.6875 0
0.265625 0.671875 0
0.28125 0.671875 0
0.28125 0.6875 0
0.3125 0.6875 0
0.28125 0.71875 0
0.296875 0.6875 0
0.296875 0.703125 0
0.28125 0.703125 0
0.28125 0.6875 0
0.28125 0.71875 0
0.25 0.6875 0
0.28125 0.703125 0
0.265625 0.703125 0
0.265625 0.6875 0
0.5 0.28125 0
0.46875 0.28125 0
0.5 0.25 0
0.484375 0.28125 0
0.484375 0.265625 0
0.5 0.265625 0
0.5 0.28125 0
0.5 0.3125 0
0.46875 0.28125 0
0.5 0.296875 0
0.484375 0.296875 0
0.484375 0.28125 0
0.5 0.28125 0
0.5 0.25 0
0.53125 0.28125 0
0.5 0.265625 0
0.515625 0.265625 0
0.515625 0.28125 0
0.5 0.28125 0
0.53125 0.28125 0
0.5 0.3125 0
0.515625 0.28125 0
0.515625 0.296875 0
0.5 0.296875 0
0.46875 0.25 0
0.5 0.25 0
0.46875 0.28125 0
0.484375 0.25 0
0.484375 0.265625 0
0.46875 0.265625 0
0.46875 0.25 0
0.46875 0.28125 0
0.4375 0.25 0
0.46875 0.265625 0
0.453125 0.265625 0
0.453125 0.25 0
0.46875 0.25 0
0.46875 0.21875 0
0.5 0.25 0
0.46875 0.234375 0
0.484375 0.234375 0
0.484375 0.25 0
0.46875 0.25 0
0.4375 0.25 0
0.46875 0.21875 0
0.453125 0.25 0
0.453125 0.234375 0
0.46875 0.234375 0
0.53125 0.3125 0
0.53125 0.28125 0
0.5625 0.3125 0
0.53125 0.296875 0
0.546875 0.296875 0
0.546875 0.3125 0
0.53125 0.3125 0
0.5 0.3125 0
0.53125 0.28125 0
0.515625 0.3125 0
0.515625 0.296875 0
0.53125 0.296875 0
0.53125 0.3125 0
0.5625 0.3125 0
0.53125 0.34375 0
0.546875 0.3125 0
0.546875 0.328125 0
0.53125 0.328125 0
0.53125 0.3125 0
0.53125 0.34375 0
0.5 0.3125 0
0.53125 0.328125 0
0.515625 0.328125 0
0.515625 0.3125 0
0.53125 0.25 0
0.53125 0.28125 0
0.5 0.25 0
0.53125 0.265625 0
0.515625 0.265625 0
0.515625 0.25 0
0.53125 0.25 0
0.5625 0.25 0
0.53125 0.28125 0
0.546875 0.25 0
0.546875 0.265625 0
0.53125 0.265625 0
0.53125 0.25 0
0.5 0.25 0
0.53125 0.21875 0
0.515625 0.25 0
0.515625 0.234375 0
0.53125 0.234375 0
0.53125 0.25 0
0.53125 0.21875 0
0.5625 0.25 0
0.53125 0.234375 0
0.546875 0.234375 0
0.546875 0.25 0
0.5625 0.28125 0
0.5625 0.3125 0
0.53125 0.28125 0
0.5625 0.296875 0
0.546875 0.296875 0
0.546875 0.28125 0
0.5625 0.28125 0
0.53125 0.28125 0
0.5625 0.25 0
0.546875 0.28125 0
0.546875 0.265625 0
0.5625 0.265625 0
0.5625 0.28125 0
0.59375 0.28125 0
0.5625 0.3125 0
0.578125 0.28125 0
0.578125 0.296875 0
0.5625 0.296875 0
0.5625 0.28125 0
0.5625 0.25 0
0.59375 0.28125 0
0.5625 0.265625 0
0.578125 0.265625 0
0.578125 0.28125 0
0.5625 0.34375 0
0.53125 0.34375 0
0.5625 0.3125 0
0.546875 0.34375 0
0.546875 0.328125 0
0.5625 0.328125 0
0.5625 0.34375 0
0.5625 0.375 0
0.53125 0.34375 0
0.5625 0.359375 0
0.546875 0.359375 0
0.546875 0.34375 0
0.5625 0.34375 0
0.5625 0.3125 0
0.59375 0.34375 0
0.5625 0.328125 0
0.578125 0.328125 0
0.578125 0.34375 0
0.5625 0.34375 0
0.59375 0.34375 0
0.5625 0.375 0
0.578125 0.34375 0
0.578125 0.359375 0
0.5625 0.359375 0
0.5 0.21875 0
0.5 0.25 0
0.46875 0.21875 0
0.5 0.234375 0
0.484375 0.234375 0
0.484375 0.21875 0
0.5 0.21875 0
0.46875 0.21875 0
0.5 0.1875 0
0.484375 0.21875 0
0.484375 0.203125 0
0.5 0.203125 0
0.5 0.21875 0
0.53125 0.21875 0
0.5 0.25 0
0.515625 0.21875 0
0.515625 0.234375 0
0.5 0.234375 0
0.5 0.21875 0
0.5 0.1875 0
0.53125 0.21875 0
0.5 0.203125 0
0.515625 0.203125 0
0.515625 0.21875 0
0.46875 0.1875 0
0.46875 0.21875 0
0.4375 0.1875 0
0.46875 0.203125 0
0.453125 0.203125 0
0.453125 0.1875 0
0.46875 0.1875 0
0.5 0.1875 0
0.46875 0.21875 0
0.484375 0.1875 0
0.484375 0.203125 0
0.46875 0.203125 0
0.46875 0.1875 0
0.4375 0.1875 0
0.46875 0.15625 0
0.453125 0.1875 0
0.453125 0.171875 0
0.46875 0.171875 0
0.46875 0.1875 0
0.46875 0.15625 0
0.5 0.1875 0
0.46875 0.171875 0
0.484375 0.171875 0
0.484375 0.1875 0
0.59375 0.375 0
0.625 0.375 0
0.59375 0.40625 0
0.609375 0.375 0
0.609375 0.390625 0
0.59375 0.390625 0
0.59375 0.375 0
0.59375 0.40625 0
0.5625 0.375 0
0.59375 0.390625 0
0.578125 0.390625 0
0.578125 0.375 0
0.59375 0.375 0
0.59375 0.34375 0
0.625 0.375 0
0.59375 0.359375 0
0.609375 0.359375 0
0.609375 0.375 0
0.59375 0.375 0
0.5625 0.375 0
0.59375 0.34375 0
0.578125 0.375 0
0.578125 0.359375 0
0.59375 0.359375 0
0.625 0.40625 0
0.59375 0.40625 0
0.625 0.375 0
0.609375 0.40625 0
0.609375 0.390625 0
0.625 0.390625 0
0.625 0.40625 0
0.625 0.4375 0
0.59375 0.40625 0
0.625 0.421875 0
0.609375 0.421875 0
0.609375 0.40625 0
0.625 0.40625 0
0.625 0.375 0
0.65625 0.40625 0
0.625 0.390625 0
0.640625 0.390625 0
0.640625 0.40625 0
0.625 0.40625 0
0.65625 0.40625 0
0.625 0.4375 0
0.640625 0.40625 0
0.640625 0.421875 0
0.625 0.421875 0
0.59375 0.4375 0
0.5625 0.4375 0
0.59375 0.40625 0
0.578125 0.4375 0
0.578125 0.421875 0
0.59375 0.421875 0
0.59375 0.4375 0
0.59375 0.40625 0
0.625 0.4375 0
0.59375 0.421875 0
0.609375 0.421875 0
0.609375 0.4375 0
0.59375 0.4375 0
0.59375 0.46875 0
0.5625 0.4375 0
0.59375 0.453125 0
0.578125 0.453125 0
0.578125 0.4375 0
0.59375 0.4375 0
0.625 0.4375 0
0.59375 0.46875 0
0.609375 0.4375 0
0.609375 0.453125 0
0.59375 0.453125 0
0.625 0.34375 0
0.625 0.375 0
0.59375 0.34375 0
0.625 0.359375 0
0.609375 0.359375 0
0.609375 0.34375 0
0.625 0.34375 0
0.59375 0.34375 0
0.625 0.3125 0
0.609375 0.34375 0
0.609375 0.328125 0
0.625 0.328125 0
0.625 0.34375 0
0.65625 0.34375 0
0.625 0.375 0
0.640625 0.34375 0
0.640625 0.359375 0
0.625 0.359375 0
0.625 0.34375 0
0.625 0.3125 0
0.65625 0.34375 0
0.625 0.328125 0
0.640625 0.328125 0
0.640625 0.34375 0
0.59375 0.3125 0
0.59375 0.34375 0
0.5625 0.3125 0
0.59375 0.328125 0
0.578125 0.328125 0
0.578125 0.3125 0
0.59375 0.3125 0
0.625 0.3125 0
0.59375 0.34375 0
0.609375 0.3125 0
0.609375 0.328125 0
0.59375 0.328125 0
0.59375 0.3125 0
0.5625 0.3125 0
0.59375 0.28125 0
0.578125 0.3125 0
0.578125 0.296875 0
0.59375 0.296875 0
0.59375 0.3125 0
0.59375 0.28125 0
0.625 0.3125 0
0.59375 0.296875 0
0.609375 0.296875 0
0.609375 0.3125 0
0.59375 0.5 0
0.59375 0.46875 0
0.625 0.5 0
0.59375 0.484375 0
0.609375 0.484375 0
0.609375 0.5 0
0.59375 0.5 0
0.5625 0.5 0
0.59375 0.46875 0
0.578125 0.5 0
0.578125 0.484375 0
0.59375 0.484375 0
0.59375 0.5 0
0.625 0.5 0
0.59375 0.53125 0
0.609375 0.5 0
0.609375 0.515625 0
0.59375 0.515625 0
0.59375 0.5 0
0.59375 0.53125 0
0.5625 0.5 0
0.59375 0.515625 0
0.578125 0.515625 0
0.578125 0.5 0
0.625 0.46875 0
0.625 0.5 0
0.59375 0.46875 0
0.625 0.484375 0
0.609375 0.484375 0
0.609375 0.46875 0
0.625 0.46875 0
0.59375 0.46875 0
0.625 0.4375 0
0.609375 0.46875 0
0.609375 0.453125 0
0.625 0.453125 0
0.625 0.46875 0
0.65625 0.46875 0
0.625 0.5 0
0.640625 0.46875 0
0.640625 0.484375 0
0.625 0.484375 0
0.625 0.46875 0
0.625 0.4375 0
0.65625 0.46875 0
0.625 0.453125 0
0.640625 0.453125 0
0.640625 0.46875 0
0.625 0.53125 0
0.59375 0.53125 0
0.625 0.5 0
0.609375 0.53125 0
0.609375 0.515625 0
0.625 0.515625 0
0.625 0.53125 0
0.625 0.5625 0
0.59375 0.53125 0
0.625 0.546875 0
0.609375 0.546875 0
0.609375 0.53125 0
0.625 0.53125 0
0.625 0.5 0
0.65625 0.53125 0
0.625 0.515625 0
0.640625 0.515625 0
0.640625 0.53125 0
0.625 0.53125 0
0.65625 0.53125 0
0.625 0.5625 0
0.640625 0.53125 0
0.640625 0.546875 0
0.625 0.546875 0
0.59375 0.5625 0
0.5625 0.5625 0
0.59375 0.53125 0
0.578125 0.5625 0
0.578125 0.546875 0
0.59375 0.546875 0
0.59375 0.5625 0
0.59375 0.53125 0
0.625 0.5625 0
0.59375 0.546875 0
0.609375 0.546875 0
0.609375 0.5625 0
0.59375 0.5625 0
0.59375 0.59375 0
0.5625 0.5625 0
0.59375 0.578125 0
0.578125 0.578125 0
0.578125 0.5625 0
0.59375 0.5625 0
0.625 0.5625 0
0.59375 0.59375 0
0.609375 0.5625 0
0.609375 0.578125 0
0.59375 0.578125 0
0.65625 0.4375 0
0.65625 0.40625 0
0.6875 0.4375 0
0.65625 0.421875 0
0.671875 0.421875 0
0.671875 0.4375 0
0.65625 0.4375 0
0.625 0.4375 0
0.65625 0.40625 0
0.640625 0.4375 0
0.640625 0.421875 0
0.65625 0.421875 0
0.65625 0.4375 0
0.6875 0.4375 0
0.65625 0.46875 0
0.671875 0.4375 0
0.671875 0.453125 0
0.65625 0.453125 0
0.65625 0.4375 0
0.65625 0.46875 0
0.625 0.4375 0
0.65625 0.453125 0
0.640625 0.453125 0
0.640625 0.4375 0
0.65625 0.375 0
0.65625 0.40625 0
0.625 0.375 0
0.65625 0.390625 0
0.640625 0.390625 0
0.640625 0.375 0
0.65625 0.375 0
0.6875 0.375 0
0.65625 0.40625 0
0.671875 0.375 0
0.671875 0.390625 0
0.65625 0.390625 0
0.65625 0.375 0
0.625 0.375 0
0.65625 0.34375 0
0.640625 0.375 0
0.640625 0.359375 0
0.65625 0.359375 0
0.65625 0.375 0
0.65625 0.34375 0
0.6875 0.375 0
0.65625 0.359375 0
0.671875 0.359375 0
0.671875 0.375 0
0.6875 0.40625 0
0.6875 0.4375 0
0.65625 0.40625 0
0.6875 0.421875 0
0.671875 0.421875 0
0.671875 0.40625 0
0.6875 0.40625 0
0.65625 0.40625 0
0.6875 0.375 0
0.671875 0.40625 0
0.671875 0.390625 0
0.6875 0.390625 0
0.6875 0.40625 0
0.71875 0.40625 0
0.6875 0.4375 0
0.703125 0.40625 0
0.703125 0.421875 0
0.6875 0.421875 0
0.6875 0.40625 0
0.6875 0.375 0
0.71875 0.40625 0
0.6875 0.390625 0
0.703125 0.390625 0
0.703125 0.40625 0
0.65625 0.5 0
0.625 0.5 0
0.65625 0.46875 0
0.640625 0.5 0
0.640625 0.484375 0
0.65625 0.484375 0
0.65625 0.5 0
0.65625 0.46875 0
0.6875 0.5 0
0.65625 0.484375 0
0.671875 0.484375 0
0.671875 0.5 0
0.65625 0.5 0
0.65625 0.53125 0
0.625 0.5 0
0.65625 0.515625 0
0.640625 0.515625 0
0.640625 0.5 0
0.65625 0.5 0
0.6875 0.5 0
0.65625 0.53125 0
0.671875 0.5 0
0.671875 0.515625 0
0.65625 0.515625 0
0.6875 0.46875 0
0.65625 0.46875 0
0.6875 0.4375 0
0.671875 0.46875 0
0.671875 0.453125 0
0.6875 0.453125 0
0.6875 0.46875 0
0.6875 0.5 0
0.65625 0.46875 0
0.6875 0.484375 0
0.671875 0.484375 0
0.671875 0.46875 0
0.6875 0.46875 0
0.6875 0.4375 0
0.71875 0.46875 0
0.6875 0.453125 0
0.703125 0.453125 0
0.703125 0.46875 0
0.6875 0.46875 0
0.71875 0.46875 0
0.6875 0.5 0
0.703125 0.46875 0
0.703125 0.484375 0
0.6875 0.484375 0
0.59375 0.25 0
0.625 0.25 0
0.59375 0.28125 0
0.609375 0.25 0
0.609375 0.265625 0
0.59375 0.265625 0
0.59375 0.25 0
0.59375 0.28125 0
0.5625 0.25 0
0.59375 0.265625 0
0.578125 0.265625 0
0.578125 0.25 0
0.59375 0.25 0
0.59375 0.21875 0
0.625 0.25 0
0.59375 0.234375 0
0.609375 0.234375 0
0.609375 0.25 0
0.59375 0.25 0
0.5625 0.25 0
0.59375 0.21875 0
0.578125 0.25 0
0.578125 0.234375 0
0.59375 0.234375 0
0.625 0.28125 0
0.59375 0.28125 0
0.625 0.25 0
0.609375 0.28125 0
0.609375 0.265625 0
0.625 0.265625 0
0.625 0.28125 0
0.625 0.3125 0
0.59375 0.28125 0
0.625 0.296875 0
0.609375 0.296875 0
0.609375 0.28125 0
0.625 0.28125 0
0.625 0.25 0
0.65625 0.28125 0
0.625 0.265625 0
0.640625 0.265625 0
0.640625 0.28125 0
0.625 0.28125 0
0.65625 0.28125 0
0.625 0.3125 0
0.640625 0.28125 0
0.640625 0.296875 0
0.625 0.296875 0
0.5625 0.21875 0
0.53125 0.21875 0
0.5625 0.1875 0
0.546875 0.21875 0
0.546875 0.203125 0
0.5625 0.203125 0
0.5625 0.21875 0
0.5625 0.25 0
0.53125 0.21875 0
0.5625 0.234375 0
0.546875 0.234375 0
0.546875 0.21875 0
0.5625 0.21875 0
0.5625 0.1875 0
0.59375 0.21875 0
0.5625 0.203125 0
0.578125 0.203125 0
0.578125 0.21875 0
0.5625 0.21875 0
0.59375 0.21875 0
0.5625 0.25 0
0.578125 0.21875 0
0.578125 0.234375 0
0.5625 0.234375 0
0.53125 0.1875 0
0.5625 0.1875 0
0.53125 0.21875 0
0.546875 0.1875 0
0.546875 0.203125 0
0.53125 0.203125 0
0.53125 0.1875 0
0.53125 0.21875 0
0.5 0.1875 0
0.53125 0.203125 0
0.515625 0.203125 0
0.515625 0.1875 0
0.53125 0.1875 0
0.53125 0.15625 0
0.5625 0.1875 0
0.53125 0.171875 0
0.546875 0.171875 0
0.546875 0.1875 0
0.53125 0.1875 0
0.5 0.1875 0
0.53125 0.15625 0
0.515625 0.1875 0
0.515625 0.171875 0
0.53125 0.171875 0
0.625 0.21875 0
0.625 0.25 0
0.59375 0.21875 0
0.625 0.234375 0
0.609375 0.234375 0
0.609375 0.21875 0
0.625 0.21875 0
0.59375 0.21875 0
0.625 0.1875 0
0.609375 0.21875 0
0.609375 0.203125 0
0.625 0.203125 0
0.625 0.21875 0
0.65625 0.21875 0
0.625 0.25 0
0.640625 0.21875 0
0.640625 0.234375 0
0.625 0.234375 0
0.625 0.21875 0
0.625 0.1875 0
0.65625 0.21875 0
0.625 0.203125 0
0.640625 0.203125 0
0.640625 0.21875 0
0.59375 0.1875 0
0.59375 0.21875 0
0.5625 0.1875 0
0.59375 0.203125 0
0.578125 0.203125 0
0.578125 0.1875 0
0.59375 0.1875 0
0.625 0.1875 0
0.59375 0.21875 0
0.609375 0.1875 0
0.609375 0.203125 0
0.59375 0.203125 0
0.59375 0.1875 0
0.5625 0.1875 0
0.59375 0.15625 0
0.578125 0.1875 0
0.578125 0.171875 0
0.59375 0.171875 0
0.59375 0.1875 0
0.59375 0.15625 0
0.625 0.1875 0
0.59375 0.171875 0
0.609375 0.171875 0
0.609375 0.1875 0
0.65625 0.3125 0
0.6875 0.3125 0
0.65625 0.34375 0
0.671875 0.3125 0
0.671875 0.328125 0
0.65625 0.328125 0
0.65625 0.3125 0
0.65625 0.34375 0
0.625 0.3125 0
0.65625 0.328125 0
0.640625 0.328125 0
0.640625 0.3125 0
0.65625 0.3125 0
0.65625 0.28125 0
0.6875 0.3125 0
0.65625 0.296875 0
0.671875 0.296875 0
0.671875 0.3125 0
0.65625 0.3125 0
0.625 0.3125 0
0.65625 0.28125 0
0.640625 0.3125 0
0.640625 0.296875 0
0.65625 0.296875 0
0.6875 0.34375 0
0.65625 0.34375 0
0.6875 0.3125 0
0.671875 0.34375 0
0.671875 0.328125 0
0.6875 0.328125 0
0.6875 0.34375 0
0.6875 0.375 0
0.65625 0.34375 0
0.6875 0.359375 0
0.671875 0.359375 0
0.671875 0.34375 0
0.6875 0.34375 0
0.6875 0.3125 0
0.71875 0.34375 0
0.6875 0.328125 0
0.703125 0.328125 0
0.703125 0.34375 0
0.6875 0.34375 0
0.71875 0.34375 0
0.6875 0.375 0
0.703125 0.34375 0
0.703125 0.359375 0
0.6875 0.359375 0
0.65625 0.25 0
0.65625 0.28125 0
0.625 0.25 0
0.65625 0.265625 0
0.640625 0.265625 0
0.640625 0.25 0
0.65625 0.25 0
0.6875 0.25 0
0.65625 0.28125 0
0.671875 0.25 0
0.671875 0.265625 0
0.65625 0.265625 0
0.65625 0.25 0
0.625 0.25 0
0.65625 0.21875 0
0.640625 0.25 0
0.640625 0.234375 0
0.65625 0.234375 0
0.65625 0.25 0
0.65625 0.21875 0
0.6875 0.25 0
0.65625 0.234375 0
0.671875 0.234375 0
0.671875 0.25 0
0.6875 0.28125 0
0.6875 0.3125 0
0.65625 0.28125 0
0.6875 0.296875 0
0.671875 0.296875 0
0.671875 0.28125 0
0.6875 0.28125 0
0.65625 0.28125 0
0.6875 0.25 0
0.671875 0.28125 0
0.671875 0.265625 0
0.6875 0.265625 0
0.6875 0.28125 0
0.71875 0.28125 0
0.6875 0.3125 0
0.703125 0.28125 0
0.703125 0.296875 0
0.6875 0.296875 0
0.6875 0.28125 0
0.6875 0.25 0
0.71875 0.28125 0
0.6875 0.265625 0
0.703125 0.265625 0
0.703125 0.28125 0
0.5 0.15625 0
0.46875 0.15625 0
0.5 0.125 0
0.484375 0.15625 0
0.484375 0.140625 0
0.5 0.140625 0
0.5 0.15625 0
0.5 0.1875 0
0.46875 0.15625 0
0.5 0.171875 0
0.484375 0.171875 0
0.484375 0.15625 0
0.5 0.15625 0
0.5 0.125 0
0.53125 0.15625 0
0.5 0.140625 0
0.515625 0.140625 0
0.515625 0.15625 0
0.5 0.15625 0
0.53125 0.15625 0
0.5 0.1875 0
0.515625 0.15625 0
0.515625 0.171875 0
0.5 0.171875 0
0.46875 0.125 0
0.5 0.125 0
0.46875 0.15625 0
0.484375 0.125 0
0.484375 0.140625 0
0.46875 0.140625 0
0.46875 0.125 0
0.46875 0.15625 0
0.4375 0.125 0
0.46875 0.140625 0
0.453125 0.140625 0
0.453125 0.125 0
0.46875 0.125 0
0.46875 0.09375 0
0.5 0.125 0
0.46875 0.109375 0
0.484375 0.109375 0
0.484375 0.125 0
0.46875 0.125 0
0.4375 0.125 0
0.46875 0.09375 0
0.453125 0.125 0
0.453125 0.109375 0
0.46875 0.109375 0
0.53125 0.125 0
0.53125 0.15625 0
0.5 0.125 0
0.53125 0.140625 0
0.515625 0.140625 0
0.515625 0.125 0
0.53125 0.125 0
0.5625 0.125 0
0.53125 0.15625 0
0.546875 0.125 0
0.546875 0.140625 0
0.53125 0.140625 0
0.53125 0.125 0
0.5 0.125 0
0.53125 0.09375 0
0.515625 0.125 0
0.515625 0.109375 0
0.53125 0.109375 0
0.53125 0.125 0
0.53125 0.09375 0
0.5625 0.125 0
0.53125 0.109375 0
0.546875 0.109375 0
0.546875 0.125 0
0.5625 0.15625 0
0.5625 0.1875 0
0.53125 0.15625 0
0.5625 0.171875 0
0.546875 0.171875 0
0.546875 0.15625 0
0.5625 0.15625 0
0.53125 0.15625 0
0.5625 0.125 0
0.546875 0.15625 0
0.546875 0.140625 0
0.5625 0.140625 0
0.5625 0.15625 0
0.59375 0.15625 0
0.5625 0.1875 0
0.578125 0.15625 0
0.578125 0.171875 0
0.5625 0.171875 0
0.5625 0.15625 0
0.5625 0.125 0
0.59375 0.15625 0
0.5625 0.140625 0
0.578125 0.140625 0
0.578125 0.15625 0
0.5 0.09375 0
0.5 0.125 0
0.46875 0.09375 0
0.5 0.109375 0
0.484375 0.109375 0
0.484375 0.09375 0
0.5 0.09375 0
0.46875 0.09375 0
0.5 0.0625 0
0.484375 0.09375 0
0.484375 0.078125 0
0.5 0.078125 0
0.5 0.09375 0
0.53125 0.09375 0
0.5 0.125 0
0.515625 0.09375 0
0.515625 0.109375 0
0.5 0.109375 0
0.5 0.09375 0
0.5 0.0625 0
0.53125 0.09375 0
0.5 0.078125 0
0.515625 0.078125 0
0.515625 0.09375 0
0.46875 0.0625 0
0.46875 0.09375 0
0.4375 0.0625 0
0.46875 0.078125 0
0.453125 0.078125 0
0.453125 0.0625 0
0.46875 0.0625 0
0.5 0.0625 0
0.46875 0.09375 0
0.484375 0.0625 0
0.484375 0.078125 0
0.46875 0.078125 0
0.46875 0.0625 0
0.4375 0.0625 0
0.46875 0.03125 0
0.453125 0.0625 0
0.453125 0.046875 0
0.46875 0.046875 0
0.46875 0.0625 0
0.46875 0.03125 0
0.5 0.0625 0
0.46875 0.046875 0
0.484375 0.046875 0
0.484375 0.0625 0
0.25 0.71875 0
0.28125 0.71875 0
0.25 0.75 0
0.265625 0.71875 0
0.265625 0.734375 0
0.25 0.734375 0
0.25 0.71875 0
0.25 0.6875 0
0.28125 0.71875 0
0.25 0.703125 0
0.265625 0.703125 0
0.265625 0.71875 0
0.25 0.71875 0
0.25 0.75 0
0.21875 0.71875 0
0.25 0.734375 0
0.234375 0.734375 0
0.234375 0.71875 0
0.25 0.71875 0
0.21875 0.71875 0
0.25 0.6875 0
0.234375 0.71875 0
0.234375 0.703125 0
0.25 0.703125 0
0.28125 0.75 0
0.25 0.75 0
0.28125 0.71875 0
0.265625 0.75 0
0.265625 0.734375 0
0.28125 0.734375 0
0.28125 0.75 0
0.28125 0.71875 0
0.3125 0.75 0
0.28125 0.734375 0
0.296875 0.734375 0
0.296875 0.75 0
0.28125 0.75 0
0.28125 0.78125 0
0.25 0.75 0
0.28125 0.765625 0
0.265625 0.765625 0
0.265625 0.75 0
0.28125 0.75 0
0.3125 0.75 0
0.28125 0.78125 0
0.296875 0.75 0
0.296875 0.765625 0
0.28125 0.765625 0
0.3125 0.71875 0
0.28125 0.71875 0
0.3125 0.6875 0
0.296875 0.71875 0
0.296875 0.703125 0
0.3125 0.703125 0
0.3125 0.71875 0
0.3125 0.75 0
0.28125 0.71875 0
0.3125 0.734375 0
0.296875 0.734375 0
0.296875 0.71875 0
0.3125 0.71875 0
0.3125 0.6875 0
0.34375 0.71875 0
0.3125 0.703125 0
0.328125 0.703125 0
0.328125 0.71875 0
0.3125 0.71875 0
0.34375 0.71875 0
0.3125 0.75 0
0.328125 0.71875 0
0.328125 0.734375 0
0.3125 0.734375 0
0.21875 0.75 0
0.21875 0.71875 0
0.25 0.75 0
0.21875 0.734375 0
0.234375 0.734375 0
0.234375 0.75 0
0.21875 0.75 0
0.1875 0.75 0
0.21875 0.71875 0
0.203125 0.75 0
0.203125 0.734375 0
0.21875 0.734375 0
0.21875 0.75 0
0.25 0.75 0
0.21875 0.78125 0
0.234375 0.75 0
0.234375 0.765625 0
0.21875 0.765625 0
0.21875 0.75 0
0.21875 0.78125 0
0.1875 0.75 0
0.21875 0.765625 0
0.203125 0.765625 0
0.203125 0.75 0
0.1875 0.71875 0
0.1875 0.6875 0
0.21875 0.71875 0
0.1875 0.703125 0
0.203125 0.703125 0
0.203125 0.71875 0
0.1875 0.71875 0
0.21875 0.71875 0
0.1875 0.75 0
0.203125 0.71875 0
0.203125 0.734375 0
0.1875 0.734375 0
0.1875 0.71875 0
0.15625 0.71875 0
0.1875 0.6875 0
0.171875 0.71875 0
0.171875 0.703125 0
0.1875 0.703125 0
0.1875 0.71875 0
0.1875 0.75 0
0.15625 0.71875 0
0.1875 0.734375 0
0.171875 0.734375 0
0.171875 0.71875 0
0.34375 0.75 0
0.34375 0.71875 0
0.375 0.75 0
0.34375 0.734375 0
0.359375 0.734375 0
0.359375 0.75 0
0.34375 0.75 0
0.3125 0.75 0
0.34375 0.71875 0
0.328125 0.75 0
0.328125 0.734375 0
0.34375 0.734375 0
0.34375 0.75 0
0.375 0.75 0
0.34375 0.78125 0
0.359375 0.75 0
0.359375 0.765625 0
0.34375 0.765625 0
0.34375 0.75 0
0.34375 0.78125 0
0.3125 0.75 0
0.34375 0.765625 0
0.328125 0.765625 0
0.328125 0.75 0
0.375 0.71875 0
0.375 0.75 0
0.34375 0.71875 0
0.375 0.734375 0
0.359375 0.734375 0
0.359375 0.71875 0
0.375 0.71875 0
0.34375 0.71875 0
0.375 0.6875 0
0.359375 0.71875 0
0.359375 0.703125 0
0.375 0.703125 0
0.375 0.71875 0
0.40625 0.71875 0
0.375 0.75 0
0.390625 0.71875 0
0.390625 0.734375 0
0.375 0.734375 0
0.375 0.71875 0
0.375 0.6875 0
0.40625 0.71875 0
0.375 0.703125 0
0.390625 0.703125 0
0.390625 0.71875 0
0.3125 0.78125 0
0.3125 0.8125 0
0.28125 0.78125 0
0.3125 0.796875 0
0.296875 0.796875 0
0.296875 0.78125 0
0.3125 0.78125 0
0.28125 0.78125 0
0.3125 0.75 0
0.296875 0.78125 0
0.296875 0.765625 0
0.3125 0.765625 0
0.3125 0.78125 0
0.34375 0.78125 0
0.3125 0.8125 0
0.328125 0.78125 0
0.328125 0.796875 0
0.3125 0.796875 0
0.3125 0.78125 0
0.3125 0.75 0
0.34375 0.78125 0
0.3125 0.765625 0
0.328125 0.765625 0
0.328125 0.78125 0
0.25 0.78125 0
0.25 0.75 0
0.28125 0.78125 0
0.25 0.765625 0
0.265625 0.765625 0
0.265625 0.78125 0
0.25 0.78125 0
0.28125 0.78125 0
0.25 0.8125 0
0.265625 0.78125 0
0.265625 0.796875 0
0.25 0.796875 0
0.25 0.78125 0
0.21875 0.78125 0
0.25 0.75 0
0.234375 0.78125 0
0.234375 0.765625 0
0.25 0.765625 0
0.25 0.78125 0
0.25 0.8125 0
0.21875 0.78125 0
0.25 0.796875 0
0.234375 0.796875 0
0.234375 0.78125 0
0.28125 0.8125 0
0.28125 0.78125 0
0.3125 0.8125 0
0.28125 0.796875 0
0.296875 0.796875 0
0.296875 0.8125 0
0.28125 0.8125 0
0.25 0.8125 0
0.28125 0.78125 0
0.265625 0.8125 0
0.265625 0.796875 0
0.28125 0.796875 0
0.28125 0.8125 0
0.3125 0.8125 0
0.28125 0.84375 0
0.296875 0.8125 0
0.296875 0.828125 0
0.28125 0.828125 0
0.28125 0.8125 0
0.28125 0.84375 0
0.25 0.8125 0
0.28125 0.828125 0
0.265625 0.828125 0
0.265625 0.8125 0
0.375 0.78125 0
0.34375 0.78125 0
0.375 0.75 0
0.359375 0.78125 0
0.359375 0.765625 0
0.375 0.765625 0
0.375 0.78125 0
0.375 0.8125 0
0.34375 0.78125 0
0.375 0.796875 0
0.359375 0.796875 0
0.359375 0.78125 0
0.375 0.78125 0
0.375 0.75 0
0.40625 0.78125 0
0.375 0.765625 0
0.390625 0.765625 0
0.390625 0.78125 0
0.375 0.78125 0
0.40625 0.78125 0
0.375 0.8125 0
0.390625 0.78125 0
0.390625 0.796875 0
0.375 0.796875 0
0.34375 0.8125 0
0.3125 0.8125 0
0.34375 0.78125 0
0.328125 0.8125 0
0.328125 0.796875 0
0.34375 0.796875 0
0.34375 0.8125 0
0.34375 0.78125 0
0.375 0.8125 0
0.34375 0.796875 0
0.359375 0.796875 0
0.359375 0.8125 0
0.34375 0.8125 0
0.34375 0.84375 0
0.3125 0.8125 0
0.34375 0.828125 0
0.328125 0.828125 0
0.328125 0.8125 0
0.34375 0.8125 0
0.375 0.8125 0
0.34375 0.84375 0
0.359375 0.8125 0
0.359375 0.828125 0
0.34375 0.828125 0
0.40625 0.75 0
0.375 0.75 0
0.40625 0.71875 0
0.390625 0.75 0
0.390625 0.734375 0
0.40625 0.734375 0
0.40625 0.75 0
0.40625 0.71875 0
0.4375 0.75 0
0.40625 0.734375 0
0.421875 0.734375 0
0.421875 0.75 0
0.40625 0.75 0
0.40625 0.78125 0
0.375 0.75 0
0.40625 0.765625 0
0.390625 0.765625 0
0.390625 0.75 0
0.40625 0.75 0
0.4375 0.75 0
0.40625 0.78125 0
0.421875 0.75 0
0.421875 0.765625 0
0.40625 0.765625 0
0.4375 0.71875 0
0.40625 0.71875 0
0.4375 0.6875 0
0.421875 0.71875 0
0.421875 0.703125 0
0.4375 0.703125 0
0.4375 0.71875 0
0.4375 0.75 0
0.40625 0.71875 0
0.4375 0.734375 0
0.421875 0.734375 0
0.421875 0.71875 0
0.4375 0.71875 0
0.4375 0.6875 0
0.46875 0.71875 0
0.4375 0.703125 0
0.453125 0.703125 0
0.453125 0.71875 0
0.4375 0.71875 0
0.46875 0.71875 0
0.4375 0.75 0
0.453125 0.71875 0
0.453125 0.734375 0
0.4375 0.734375 0
0.15625 0.75 0
0.125 0.75 0
0.15625 0.71875 0
0.140625 0.75 0
0.140625 0.734375 0
0.15625 0.734375 0
0.15625 0.75 0
0.15625 0.71875 0
0.1875 0.75 0
0.15625 0.734375 0
0.171875 0.734375 0
0.171875 0.75 0
0.15625 0.75 0
0.15625 0.78125 0
0.125 0.75 0
0.15625 0.765625 0
0.140625 0.765625 0
0.140625 0.75 0
0.15625 0.75 0
0.1875 0.75 0
0.15625 0.78125 0
0.171875 0.75 0
0.171875 0.765625 0
0.15625 0.765625 0
0.125 0.71875 0
0.15625 0.71875 0
0.125 0.75 0
0.140625 0.71875 0
0.140625 0.734375 0
0.125 0.734375 0
0.125 0.71875 0
0.125 0.6875 0
0.15625 0.71875 0
0.125 0.703125 0
0.140625 0.703125 0
0.140625 0.71875 0
0.125 0.71875 0
0.125 0.75 0
0.09375 0.71875 0
0.125 0.734375 0
0.109375 0.734375 0
0.109375 0.71875 0
0.125 0.71875 0
0.09375 0.71875 0
0.125 0.6875 0
0.109375 0.71875 0
0.109375 0.703125 0
0.125 0.703125 0
0.1875 0.78125 0
0.21875 0.78125 0
0.1875 0.8125 0
0.203125 0.78125 0
0.203125 0.796875 0
0.1875 0.796875 0
0.1875 0.78125 0
0.1875 0.75 0
0.21875 0.78125 0
0.1875 0.765625 0
0.203125 0.765625 0
0.203125 0.78125 0
0.1875 0.78125 0
0.1875 0.8125 0
0.15625 0.78125 0
0.1875 0.796875 0
0.171875 0.796875 0
0.171875 0.78125 0
0.1875 0.78125 0
0.15625 0.78125 0
0.1875 0.75 0
0.171875 0.78125 0
0.171875 0.765625 0
0.1875 0.765625 0
0.21875 0.8125 0
0.1875 0.8125 0
0.21875 0.78125 0
0.203125 0.8125 0
0.203125 0.796875 0
0.21875 0.796875 0
0.21875 0.8125 0
0.21875 0.78125 0
0.25 0.8125 0
0.21875 0.796875 0
0.234375 0.796875 0
0.234375 0.8125 0
0.21875 0.8125 0
0.21875 0.84375 0
0.1875 0.8125 0
0.21875 0.828125 0
0.203125 0.828125 0
0.203125 0.8125 0
0.21875 0.8125 0
0.25 0.8125 0
0.21875 0.84375 0
0.234375 0.8125 0
0.234375 0.828125 0
0.21875 0.828125 0
0.125 0.78125 0
0.125 0.75 0
0.15625 0.78125 0
0.125 0.765625 0
0.140625 0.765625 0
0.140625 0.78125 0
0.125 0.78125 0
0.15625 0.78125 0
0.125 0.8125 0
0.140625 0.78125 0
0.140625 0.796875 0
0.125 0.796875 0
0.125 0.78125 0
0.09375 0.78125 0
0.125 0.75 0
0.109375 0.78125 0
0.109375 0.765625 0
0.125 0.765625 0
0.125 0.78125 0
0.125 0.8125 0
0.09375 0.78125 0
0.125 0.796875 0
0.109375 0.796875 0
0.109375 0.78125 0
0.15625 0.8125 0
0.15625 0.78125 0
0.1875 0.8125 0
0.15625 0.796875 0
0.171875 0.796875 0
0.171875 0.8125 0
0.15625 0.8125 0
0.125 0.8125 0
0.15625 0.78125 0
0.140625 0.8125 0
0.140625 0.796875 0
0.15625 0.796875 0
0.15625 0.8125 0
0.1875 0.8125 0
0.15625 0.84375 0
0.171875 0.8125 0
0.171875 0.828125 0
0.15625 0.828125 0
0.15625 0.8125 0
0.15625 0.84375 0
0.125 0.8125 0
0.15625 0.828125 0
0.140625 0.828125 0
0.140625 0.8125 0
0.09375 0.75 0
0.09375 0.71875 0
0.125 0.75 0
0.09375 0.734375 0
0.109375 0.734375 0
0.109375 0.75 0
0.09375 0.75 0
0.0625 0.75 0
0.09375 0.71875 0
0.078125 0.75 0
0.078125 0.734375 0
0.09375 0.734375 0
0.09375 0.75 0
0.125 0.75 0
0.09375 0.78125 0
0.109375 0.75 0
0.109375 0.765625 0
0.09375 0.765625 0
0.09375 0.75 0
0.09375 0.78125 0
0.0625 0.75 0
0.09375 0.765625 0
0.078125 0.765625 0
0.078125 0.75 0
0.0625 0.71875 0
0.0625 0.6875 0
0.09375 0.71875 0
0.0625 0.703125 0
0.078125 0.703125 0
0.078125 0.71875 0
0.0625 0.71875 0
0.09375 0.71875 0
0.0625 0.75 0
0.078125 0.71875 0
0.078125 0.734375 0
0.0625 0.734375 0
0.0625 0.71875 0
0.03125 0.71875 0
0.0625 0.6875 0
0.046875 0.71875 0
0.046875 0.703125 0
0.0625 0.703125 0
0.0625 0.71875 0
0.0625 0.75 0
0.03125 0.71875 0
0.0625 0.734375 0
0.046875 0.734375 0
0.046875 0.71875 0
0.5 0.71875 0
0.5 0.75 0
0.46875 0.71875 0
0.5 0.734375 0
0.484375 0.734375 0
0.484375 0.71875 0
0.5 0.71875 0
0.46875 0.71875 0
0.5 0.6875 0
0.484375 0.71875 0
0.484375 0.703125 0
0.5 0.703125 0
0.5 0.71875 0
0.53125 0.71875 0
0.5 0.75 0
0.515625 0.71875 0
0.515625 0.734375 0
0.5 0.734375 0
0.5 0.71875 0
0.5 0.6875 0
0.53125 0.71875 0
0.5 0.703125 0
0.515625 0.703125 0
0.515625 0.71875 0
0.46875 0.75 0
0.46875 0.71875 0
0.5 0.75 0
0.46875 0.734375 0
0.484375 0.734375 0
0.484375 0.75 0
0.46875 0.75 0
0.4375 0.75 0
0.46875 0.71875 0
0.453125 0.75 0
0.453125 0.734375 0
0.46875 0.734375 0
0.46875 0.75 0
0.5 0.75 0
0.46875 0.78125 0
0.484375 0.75 0
0.484375 0.765625 0
0.46875 0.765625 0
0.46875 0.75 0
0.46875 0.78125 0
0.4375 0.75 0
0.46875 0.765625 0
0.453125 0.765625 0
0.453125 0.75 0
0.53125 0.6875 0
0.5625 0.6875 0
0.53125 0.71875 0
0.546875 0.6875 0
0.546875 0.703125 0
0.53125 0.703125 0
0.53125 0.6875 0
0.53125 0.71875 0
0.5 0.6875 0
0.53125 0.703125 0
0.515625 0.703125 0
0.515625 0.6875 0
0.53125 0.6875 0
0.53125 0.65625 0
0.5625 0.6875 0
0.53125 0.671875 0
0.546875 0.671875 0
0.546875 0.6875 0
0.53125 0.6875 0
0.5 0.6875 0
0.53125 0.65625 0
0.515625 0.6875 0
0.515625 0.671875 0
0.53125 0.671875 0
0.53125 0.75 0
0.5 0.75 0
0.53125 0.71875 0
0.515625 0.75 0
0.515625 0.734375 0
0.53125 0.734375 0
0.53125 0.75 0
0.53125 0.71875 0
0.5625 0.75 0
0.53125 0.734375 0
0.546875 0.734375 0
0.546875 0.75 0
0.53125 0.75 0
0.53125 0.78125 0
0.5 0.75 0
0.53125 0.765625 0
0.515625 0.765625 0
0.515625 0.75 0
0.53125 0.75 0
0.5625 0.75 0
0.53125 0.78125 0
0.546875 0.75 0
0.546875 0.765625 0
0.53125 0.765625 0
0.5625 0.71875 0
0.53125 0.71875 0
0.5625 0.6875 0
0.546875 0.71875 0
0.546875 0.703125 0
0.5625 0.703125 0
0.5625 0.71875 0
0.5625 0.75 0
0.53125 0.71875 0
0.5625 0.734375 0
0.546875 0.734375 0
0.546875 0.71875 0
0.5625 0.71875 0
0.5625 0.6875 0
0.59375 0.71875 0
0.5625 0.703125 0
0.578125 0.703125 0
0.578125 0.71875 0
0.5625 0.71875 0
0.59375 0.71875 0
0.5625 0.75 0
0.578125 0.71875 0
0.578125 0.734375 0
0.5625 0.734375 0
0.5625 0.65625 0
0.5625 0.6875 0
0.53125 0.65625 0
0.5625 0.671875 0
0.546875 0.671875 0
0.546875 0.65625 0
0.5625 0.65625 0
0.53125 0.65625 0
0.5625 0.625 0
0.546875 0.65625 0
0.546875 0.640625 0
0.5625 0.640625 0
0.5625 0.65625 0
0.59375 0.65625 0
0.5625 0.6875 0
0.578125 0.65625 0
0.578125 0.671875 0
0.5625 0.671875 0
0.5625 0.65625 0
0.5625 0.625 0
0.59375 0.65625 0
0.5625 0.640625 0
0.578125 0.640625 0
0.578125 0.65625 0
0.4375 0.78125 0
0.46875 0.78125 0
0.4375 0.8125 0
0.453125 0.78125 0
0.453125 0.796875 0
0.4375 0.796875 0
0.4375 0.78125 0
0.4375 0.75 0
0.46875 0.78125 0
0.4375 0.765625 0
0.453125 0.765625 0
0.453125 0.78125 0
0.4375 0.78125 0
0.4375 0.8125 0
0.40625 0.78125 0
0.4375 0.796875 0
0.421875 0.796875 0
0.421875 0.78125 0
0.4375 0.78125 0
0.40625 0.78125 0
0.4375 0.75 0
0.421875 0.78125 0
0.421875 0.765625 0
0.4375 0.765625 0
0.5 0.78125 0
0.46875 0.78125 0
0.5 0.75 0
0.484375 0.78125 0
0.484375 0.765625 0
0.5 0.765625 0
0.5 0.78125 0
0.5 0.8125 0
0.46875 0.78125 0
0.5 0.796875 0
0.484375 0.796875 0
0.484375 0.78125 0
0.5 0.78125 0
0.5 0.75 0
0.53125 0.78125 0
0.5 0.765625 0
0.515625 0.765625 0
0.515625 0.78125 0
0.5 0.78125 0
0.53125 0.78125 0
0.5 0.8125 0
0.515625 0.78125 0
0.515625 0.796875 0
0.5 0.796875 0
0.46875 0.8125 0
0.4375 0.8125 0
0.46875 0.78125 0
0.453125 0.8125 0
0.453125 0.796875 0
0.46875 0.796875 0
0.46875 0.8125 0
0.46875 0.78125 0
0.5 0.8125 0
0.46875 0.796875 0
0.484375 0.796875 0
0.484375 0.8125 0
0.46875 0.8125 0
0.46875 0.84375 0
0.4375 0.8125 0
0.46875 0.828125 0
0.453125 0.828125 0
0.453125 0.8125 0
0.46875 0.8125 0
0.5 0.8125 0
0.46875 0.84375 0
0.484375 0.8125 0
0.484375 0.828125 0
0.46875 0.828125 0
0.40625 0.8125 0
0.40625 0.78125 0
0.4375 0.8125 0
0.40625 0.796875 0
0.421875 0.796875 0
0.421875 0.8125 0
0.40625 0.8125 0
0.375 0.8125 0
0.40625 0.78125 0
0.390625 0.8125 0
0.390625 0.796875 0
0.40625 0.796875 0
0.40625 0.8125 0
0.4375 0.8125 0
0.40625 0.84375 0
0.421875 0.8125 0
0.421875 0.828125 0
0.40625 0.828125 0
0.40625 0.8125 0
0.40625 0.84375 0
0.375 0.8125 0
0.40625 0.828125 0
0.390625 0.828125 0
0.390625 0.8125 0
0.59375 0.625 0
0.59375 0.59375 0
0.625 0.625 0
0.59375 0.609375 0
0.609375 0.609375 0
0.609375 0.625 0
0.59375 0.625 0
0.5625 0.625 0
0.59375 0.59375 0
0.578125 0.625 0
0.578125 0.609375 0
0.59375 0.609375 0
0.59375 0.625 0
0.625 0.625 0
0.59375 0.65625 0
0.609375 0.625 0
0.609375 0.640625 0
0.59375 0.640625 0
0.59375 0.625 0
0.59375 0.65625 0
0.5625 0.625 0
0.59375 0.640625 0
0.578125 0.640625 0
0.578125 0.625 0
0.625 0.59375 0
0.625 0.625 0
0.59375 0.59375 0
0.625 0.609375 0
0.609375 0.609375 0
0.609375 0.59375 0
0.625 0.59375 0
0.59375 0.59375 0
0.625 0.5625 0
0.609375 0.59375 0
0.609375 0.578125 0
0.625 0.578125 0
0.625 0.59375 0
0.65625 0.59375 0
0.625 0.625 0
0.640625 0.59375 0
0.640625 0.609375 0
0.625 0.609375 0
0.625 0.59375 0
0.625 0.5625 0
0.65625 0.59375 0
0.625 0.578125 0
0.640625 0.578125 0
0.640625 0.59375 0
0.625 0.65625 0
0.59375 0.65625 0
0.625 0.625 0
0.609375 0.65625 0
0.609375 0.640625 0
0.625 0.640625 0
0.625 0.65625 0
0.625 0.6875 0
0.59375 0.65625 0
0.625 0.671875 0
0.609375 0.671875 0
0.609375 0.65625 0
0.625 0.65625 0
0.625 0.625 0
0.65625 0.65625 0
0.625 0.640625 0
0.640625 0.640625 0
0.640625 0.65625 0
0.625 0.65625 0
0.65625 0.65625 0
0.625 0.6875 0
0.640625 0.65625 0
0.640625 0.671875 0
0.625 0.671875 0
0.59375 0.6875 0
0.5625 0.6875 0
0.59375 0.65625 0
0.578125 0.6875 0
0.578125 0.671875 0
0.59375 0.671875 0
0.59375 0.6875 0
0.59375 0.65625 0
0.625 0.6875 0
0.59375 0.671875 0
0.609375 0.671875 0
0.609375 0.6875 0
0.59375 0.6875 0
0.59375 0.71875 0
0.5625 0.6875 0
0.59375 0.703125 0
0.578125 0.703125 0
0.578125 0.6875 0
0.59375 0.6875 0
0.625 0.6875 0
0.59375 0.71875 0
0.609375 0.6875 0
0.609375 0.703125 0
0.59375 0.703125 0
0.65625 0.5625 0
0.6875 0.5625 0
0.65625 0.59375 0
0.671875 0.5625 0
0.671875 0.578125 0
0.65625 0.578125 0
0.65625 0.5625 0
0.65625 0.59375 0
0.625 0.5625 0
0.65625 0.578125 0
0.640625 0.578125 0
0.640625 0.5625 0
0.65625 0.5625 0
0.65625 0.53125 0
0.6875 0.5625 0
0.65625 0.546875 0
0.671875 0.546875 0
0.671875 0.5625 0
0.65625 0.5625 0
0.625 0.5625 0
0.65625 0.53125 0
0.640625 0.5625 0
0.640625 0.546875 0
0.65625 0.546875 0
0.65625 0.625 0
0.625 0.625 0
0.65625 0.59375 0
0.640625 0.625 0
0.640625 0.609375 0
0.65625 0.609375 0
0.65625 0.625 0
0.65625 0.59375 0
0.6875 0.625 0
0.65625 0.609375 0
0.671875 0.609375 0
0.671875 0.625 0
0.65625 0.625 0
0.65625 0.65625 0
0.625 0.625 0
0.65625 0.640625 0
0.640625 0.640625 0
0.640625 0.625 0
0.65625 0.625 0
0.6875 0.625 0
0.65625 0.65625 0
0.671875 0.625 0
0.671875 0.640625 0
0.65625 0.640625 0
0.6875 0.59375 0
0.65625 0.59375 0
0.6875 0.5625 0
0.671875 0.59375 0
0.671875 0.578125 0
0.6875 0.578125 0
0.6875 0.59375 0
0.6875 0.625 0
0.65625 0.59375 0
0.6875 0.609375 0
0.671875 0.609375 0
0.671875 0.59375 0
0.6875 0.59375 0
0.6875 0.5625 0
0.71875 0.59375 0
0.6875 0.578125 0
0.703125 0.578125 0
0.703125 0.59375 0
0.6875 0.59375 0
0.71875 0.59375 0
0.6875 0.625 0
0.703125 0.59375 0
0.703125 0.609375 0
0.6875 0.609375 0
0.6875 0.53125 0
0.6875 0.5625 0
0.65625 0.53125 0
0.6875 0.546875 0
0.671875 0.546875 0
0.671875 0.53125 0
0.6875 0.53125 0
0.65625 0.53125 0
0.6875 0.5 0
0.671875 0.53125 0
0.671875 0.515625 0
0.6875 0.515625 0
0.6875 0.53125 0
0.71875 0.53125 0
0.6875 0.5625 0
0.703125 0.53125 0
0.703125 0.546875 0
0.6875 0.546875 0
0.6875 0.53125 0
0.6875 0.5 0
0.71875 0.53125 0
0.6875 0.515625 0
0.703125 0.515625 0
0.703125 0.53125 0
0.59375 0.75 0
0.59375 0.71875 0
0.625 0.75 0
0.59375 0.734375 0
0.609375 0.734375 0
0.609375 0.75 0
0.59375 0.75 0
0.5625 0.75 0
0.59375 0.71875 0
0.578125 0.75 0
0.578125 0.734375 0
0.59375 0.734375 0
0.59375 0.75 0
0.625 0.75 0
0.59375 0.78125 0
0.609375 0.75 0
0.609375 0.765625 0
0.59375 0.765625 0
0.59375 0.75 0
0.59375 0.78125 0
0.5625 0.75 0
0.59375 0.765625 0
0.578125 0.765625 0
0.578125 0.75 0
0.625 0.71875 0
0.625 0.75 0
0.59375 0.71875 0
0.625 0.734375 0
0.609375 0.734375 0
0.609375 0.71875 0
0.625 0.71875 0
0.59375 0.71875 0
0.625 0.6875 0
0.609375 0.71875 0
0.609375 0.703125 0
0.625 0.703125 0
0.625 0.71875 0
0.65625 0.71875 0
0.625 0.75 0
0.640625 0.71875 0
0.640625 0.734375 0
0.625 0.734375 0
0.625 0.71875 0
0.625 0.6875 0
0.65625 0.71875 0
0.625 0.703125 0
0.640625 0.703125 0
0.640625 0.71875 0
0.5625 0.78125 0
0.5625 0.8125 0
0.53125 0.78125 0
0.5625 0.796875 0
0.546875 0.796875 0
0.546875 0.78125 0
0.5625 0.78125 0
0.53125 0.78125 0
0.5625 0.75 0
0.546875 0.78125 0
0.546875 0.765625 0
0.5625 0.765625 0
0.5625 0.78125 0
0.59375 0.78125 0
0.5625 0.8125 0
0.578125 0.78125 0
0.578125 0.796875 0
0.5625 0.796875 0
0.5625 0.78125 0
0.5625 0.75 0
0.59375 0.78125 0
0.5625 0.765625 0
0.578125 0.765625 0
0.578125 0.78125 0
0.53125 0.8125 0
0.53125 0.78125 0
0.5625 0.8125 0
0.53125 0.796875 0
0.546875 0.796875 0
0.546875 0.8125 0
0.53125 0.8125 0
0.5 0.8125 0
0.53125 0.78125 0
0.515625 0.8125 0
0.515625 0.796875 0
0.53125 0.796875 0
0.53125 0.8125 0
0.5625 0.8125 0
0.53125 0.84375 0
0.546875 0.8125 0
0.546875 0.828125 0
0.53125 0.828125 0
0.53125 0.8125 0
0.53125 0.84375 0
0.5 0.8125 0
0.53125 0.828125 0
0.515625 0.828125 0
0.515625 0.8125 0
0.625 0.78125 0
0.59375 0.78125 0
0.625 0.75 0
0.609375 0.78125 0
0.609375 0.765625 0
0.625 0.765625 0
0.625 0.78125 0
0.625 0.8125 0
0.59375 0.78125 0
0.625 0.796875 0
0.609375 0.796875 0
0.609375 0.78125 0
0.625 0.78125 0
0.625 0.75 0
0.65625 0.78125 0
0.625 0.765625 0
0.640625 0.765625 0
0.640625 0.78125 0
0.625 0.78125 0
0.65625 0.78125 0
0.625 0.8125 0
0.640625 0.78125 0
0.640625 0.796875 0
0.625 0.796875 0
0.59375 0.8125 0
0.5625 0.8125 0
0.59375 0.78125 0
0.578125 0.8125 0
0.578125 0.796875 0
0.59375 0.796875 0
0.59375 0.8125 0
0.59375 0.78125 0
0.625 0.8125 0
0.59375 0.796875 0
0.609375 0.796875 0
0.609375 0.8125 0
0.59375 0.8125 0
0.59375 0.84375 0
0.5625 0.8125 0
0.59375 0.828125 0
0.578125 0.828125 0
0.578125 0.8125 0
0.59375 0.8125 0
0.625 0.8125 0
0.59375 0.84375 0
0.609375 0.8125 0
0.609375 0.828125 0
0.59375 0.828125 0
0.65625 0.6875 0
0.65625 0.65625 0
0.6875 0.6875 0
0.65625 0.671875 0
0.671875 0.671875 0
0.671875 0.6875 0
0.65625 0.6875 0
0.625 0.6875 0
0.65625 0.65625 0
0.640625 0.6875 0
0.640625 0.671875 0
0.65625 0.671875 0
0.65625 0.6875 0
0.6875 0.6875 0
0.65625 0.71875 0
0.671875 0.6875 0
0.671875 0.703125 0
0.65625 0.703125 0
0.65625 0.6875 0
0.65625 0.71875 0
0.625 0.6875 0
0.65625 0.703125 0
0.640625 0.703125 0
0.640625 0.6875 0
0.6875 0.65625 0
0.6875 0.6875 0
0.65625 0.65625 0
0.6875 0.671875 0
0.671875 0.671875 0
0.671875 0.65625 0
0.6875 0.65625 0
0.65625 0.65625 0
0.6875 0.625 0
0.671875 0.65625 0
0.671875 0.640625 0
0.6875 0.640625 0
0.6875 0.65625 0
0.71875 0.65625 0
0.6875 0.6875 0
0.703125 0.65625 0
0.703125 0.671875 0
0.6875 0.671875 0
0.6875 0.65625 0
0.6875 0.625 0
0.71875 0.65625 0
0.6875 0.640625 0
0.703125 0.640625 0
0.703125 0.65625 0
0.65625 0.75 0
0.625 0.75 0
0.65625 0.71875 0
0.640625 0.75 0
0.640625 0.734375 0
0.65625 0.734375 0
0.65625 0.75 0
0.65625 0.71875 0
0.6875 0.75 0
0.65625 0.734375 0
0.671875 0.734375 0
0.671875 0.75 0
0.65625 0.75 0
0.65625 0.78125 0
0.625 0.75 0
0.65625 0.765625 0
0.640625 0.765625 0
0.640625 0.75 0
0.65625 0.75 0
0.6875 0.75 0
0.65625 0.78125 0
0.671875 0.75 0
0.671875 0.765625 0
0.65625 0.765625 0
0.6875 0.71875 0
0.65625 0.71875 0
0.6875 0.6875 0
0.671875 0.71875 0
0.671875 0.703125 0
0.6875 0.703125 0
0.6875 0.71875 0
0.6875 0.75 0
0.65625 0.71875 0
0.6875 0.734375 0
0.671875 0.734375 0
0.671875 0.71875 0
0.6875 0.71875 0
0.6875 0.6875 0
0.71875 0.71875 0
0.6875 0.703125 0
0.703125 0.703125 0
0.703125 0.71875 0
0.6875 0.71875 0
0.71875 0.71875 0
0.6875 0.75 0
0.703125 0.71875 0
0.703125 0.734375 0
0.6875 0.734375 0
0.375 0.84375 0
0.375 0.875 0
0.34375 0.84375 0
0.375 0.859375 0
0.359375 0.859375 0
0.359375 0.84375 0
0.375 0.84375 0
0.34375 0.84375 0
0.375 0.8125 0
0.359375 0.84375 0
0.359375 0.828125 0
0.375 0.828125 0
0.375 0.84375 0
0.40625 0.84375 0
0.375 0.875 0
0.390625 0.84375 0
0.390625 0.859375 0
0.375 0.859375 0
0.375 0.84375 0
0.375 0.8125 0
0.40625 0.84375 0
0.375 0.828125 0
0.390625 0.828125 0
0.390625 0.84375 0
0.34375 0.875 0
0.34375 0.84375 0
0.375 0.875 0
0.34375 0.859375 0
0.359375 0.859375 0
0.359375 0.875 0
0.34375 0.875 0
0.3125 0.875 0
0.34375 0.84375 0
0.328125 0.875 0
0.328125 0.859375 0
0.34375 0.859375 0
0.34375 0.875 0
0.375 0.875 0
0.34375 0.90625 0
0.359375 0.875 0
0.359375 0.890625 0
0.34375 0.890625 0
0.34375 0.875 0
0.34375 0.90625 0
0.3125 0.875 0
0.34375 0.890625 0
0.328125 0.890625 0
0.328125 0.875 0
0.3125 0.84375 0
0.3125 0.8125 0
0.34375 0.84375 0
0.3125 0.828125 0
0.328125 0.828125 0
0.328125 0.84375 0
0.3125 0.84375 0
0.34375 0.84375 0
0.3125 0.875 0
0.328125 0.84375 0
0.328125 0.859375 0
0.3125 0.859375 0
0.3125 0.84375 0
0.28125 0.84375 0
0.3125 0.8125 0
0.296875 0.84375 0
0.296875 0.828125 0
0.3125 0.828125 0
0.3125 0.84375 0
0.3125 0.875 0
0.28125 0.84375 0
0.3125 0.859375 0
0.296875 0.859375 0
0.296875 0.84375 0
0.40625 0.875 0
0.375 0.875 0
0.40625 0.84375 0
0.390625 0.875 0
0.390625 0.859375 0
0.40625 0.859375 0
0.40625 0.875 0
0.40625 0.84375 0
0.4375 0.875 0
0.40625 0.859375 0
0.421875 0.859375 0
0.421875 0.875 0
0.40625 0.875 0
0.40625 0.90625 0
0.375 0.875 0
0.40625 0.890625 0
0.390625 0.890625 0
0.390625 0.875 0
0.40625 0.875 0
0.4375 0.875 0
0.40625 0.90625 0
0.421875 0.875 0
0.421875 0.890625 0
0.40625 0.890625 0
0.4375 0.84375 0
0.40625 0.84375 0
0.4375 0.8125 0
0.421875 0.84375 0
0.421875 0.828125 0
0.4375 0.828125 0
0.4375 0.84375 0
0.4375 0.875 0
0.40625 0.84375 0
0.4375 0.859375 0
0.421875 0.859375 0
0.421875 0.84375 0
0.4375 0.84375 0
0.4375 0.8125 0
0.46875 0.84375 0
0.4375 0.828125 0
0.453125 0.828125 0
0.453125 0.84375 0
0.4375 0.84375 0
0.46875 0.84375 0
0.4375 0.875 0
0.453125 0.84375 0
0.453125 0.859375 0
0.4375 0.859375 0
0.25 0.84375 0
0.28125 0.84375 0
0.25 0.875 0
0.265625 0.84375 0
0.265625 0.859375 0
0.25 0.859375 0
0.25 0.84375 0
0.25 0.8125 0
0.28125 0.84375 0
0.25 0.828125 0
0.265625 0.828125 0
0.265625 0.84375 0
0.25 0.84375 0
0.25 0.875 0
0.21875 0.84375 0
0.25 0.859375 0
0.234375 0.859375 0
0.234375 0.84375 0
0.25 0.84375 0
0.21875 0.84375 0
0.25 0.8125 0
0.234375 0.84375 0
0.234375 0.828125 0
0.25 0.828125 0
0.28125 0.875 0
0.25 0.875 0
0.28125 0.84375 0
0.265625 0.875 0
0.265625 0.859375 0
0.28125 0.859375 0
0.28125 0.875 0
0.28125 0.84375 0
0.3125 0.875 0
0.28125 0.859375 0
0.296875 0.859375 0
0.296875 0.875 0
0.28125 0.875 0
0.28125 0.90625 0
0.25 0.875 0
0.28125 0.890625 0
0.265625 0.890625 0
0.265625 0.875 0
0.28125 0.875 0
0.3125 0.875 0
0.28125 0.90625 0
0.296875 0.875 0
0.296875 0.890625 0
0.28125 0.890625 0
0.21875 0.875 0
0.21875 0.84375 0
0.25 0.875 0
0.21875 0.859375 0
0.234375 0.859375 0
0.234375 0.875 0
0.21875 0.875 0
0.1875 0.875 0
0.21875 0.84375 0
0.203125 0.875 0
0.203125 0.859375 0
0.21875 0.859375 0
0.21875 0.875 0
0.25 0.875 0
0.21875 0.90625 0
0.234375 0.875 0
0.234375 0.890625 0
0.21875 0.890625 0
0.21875 0.875 0
0.21875 0.90625 0
0.1875 0.875 0
0.21875 0.890625 0
0.203125 0.890625 0
0.203125 0.875 0
0.1875 0.84375 0
0.1875 0.8125 0
0.21875 0.84375 0
0.1875 0.828125 0
0.203125 0.828125 0
0.203125 0.84375 0
0.1875 0.84375 0
0.21875 0.84375 0
0.1875 0.875 0
0.203125 0.84375 0
0.203125 0.859375 0
0.1875 0.859375 0
0.1875 0.84375 0
0.15625 0.84375 0
0.1875 0.8125 0
0.171875 0.84375 0
0.171875 0.828125 0
0.1875 0.828125 0
0.1875 0.84375 0
0.1875 0.875 0
0.15625 0.84375 0
0.1875 0.859375 0
0.171875 0.859375 0
0.171875 0.84375 0
0.3125 0.90625 0
0.34375 0.90625 0
0.3125 0.9375 0
0.328125 0.90625 0
0.328125 0.921875 0
0.3125 0.921875 0
0.3125 0.90625 0
0.3125 0.875 0
0.34375 0.90625 0
0.3125 0.890625 0
0.328125 0.890625 0
0.328125 0.90625 0
0.3125 0.90625 0
0.3125 0.9375 0
0.28125 0.90625 0
0.3125 0.921875 0
0.296875 0.921875 0
0.296875 0.90625 0
0.3125 0.90625 0
0.28125 0.90625 0
0.3125 0.875 0
0.296875 0.90625 0
0.296875 0.890625 0
0.3125 0.890625 0
0.375 0.90625 0
0.34375 0.90625 0
0.375 0.875 0
0.359375 0.90625 0
0.359375 0.890625 0
0.375 0.890625 0
0.375 0.90625 0
0.375 0.9375 0
0.34375 0.90625 0
0.375 0.921875 0
0.359375 0.921875 0
0.359375 0.90625 0
0.375 0.90625 0
0.375 0.875 0
0.40625 0.90625 0
0.375 0.890625 0
0.390625 0.890625 0
0.390625 0.90625 0
0.375 0.90625 0
0.40625 0.90625 0
0.375 0.9375 0
0.390625 0.90625 0
0.390625 0.921875 0
0.375 0.921875 0
0.34375 0.9375 0
0.3125 0.9375 0
0.34375 0.90625 0
0.328125 0.9375 0
0.328125 0.921875 0
0.34375 0.921875 0
0.34375 0.9375 0
0.34375 0.90625 0
0.375 0.9375 0
0.34375 0.921875 0
0.359375 0.921875 0
0.359375 0.9375 0
0.34375 0.9375 0
0.34375 0.96875 0
0.3125 0.9375 0
0.34375 0.953125 0
0.328125 0.953125 0
0.328125 0.9375 0
0.34375 0.9375 0
0.375 0.9375 0
0.34375 0.96875 0
0.359375 0.9375 0
0.359375 0.953125 0
0.34375 0.953125 0
0.25 0.90625 0
0.25 0.875 0
0.28125 0.90625 0
0.25 0.890625 0
0.265625 0.890625 0
0.265625 0.90625 0
0.25 0.90625 0
0.28125 0.90625 0
0.25 0.9375 0
0.265625 0.90625 0
0.265625 0.921875 0
0.25 0.921875 0
0.25 0.90625 0
0.21875 0.90625 0
0.25 0.875 0
0.234375 0.90625 0
0.234375 0.890625 0
0.25 0.890625 0
0.25 0.90625 0
0.25 0.9375 0
0.21875 0.90625 0
0.25 0.921875 0
0.234375 0.921875 0
0.234375 0.90625 0
0.28125 0.9375 0
0.28125 0.90625 0
0.3125 0.9375 0
0.28125 0.921875 0
0.296875 0.921875 0
0.296875 0.9375 0
0.28125 0.9375 0
0.25 0.9375 0
0.28125 0.90625 0
0.265625 0.9375 0
0.265625 0.921875 0
0.28125 0.921875 0
0.28125 0.9375 0
0.3125 0.9375 0
0.28125 0.96875 0
0.296875 0.9375 0
0.296875 0.953125 0
0.28125 0.953125 0
0.28125 0.9375 0
0.28125 0.96875 0
0.25 0.9375 0
0.28125 0.953125 0
0.265625 0.953125 0
0.265625 0.9375 0
0.5 0.84375 0
0.5 0.875 0
0.46875 0.84375 0
0.5 0.859375 0
0.484375 0.859375 0
0.484375 0.84375 0
0.5 0.84375 0
0.46875 0.84375 0
0.5 0.8125 0
0.484375 0.84375 0
0.484375 0.828125 0
0.5 0.828125 0
0.5 0.84375 0
0.53125 0.84375 0
0.5 0.875 0
0.515625 0.84375 0
0.515625 0.859375 0
0.5 0.859375 0
0.5 0.84375 0
0.5 0.8125 0
0.53125 0.84375 0
0.5 0.828125 0
0.515625 0.828125 0
0.515625 0.84375 0
0.46875 0.875 0
0.46875 0.84375 0
0.5 0.875 0
0.46875 0.859375 0
0.484375 0.859375 0
0.484375 0.875 0
0.46875 0.875 0
0.4375 0.875 0
0.46875 0.84375 0
0.453125 0.875 0
0.453125 0.859375 0
0.46875 0.859375 0
0.46875 0.875 0
0.5 0.875 0
0.46875 0.90625 0
0.484375 0.875 0
0.484375 0.890625 0
0.46875 0.890625 0
0.46875 0.875 0
0.46875 0.90625 0
0.4375 0.875 0
0.46875 0.890625 0
0.453125 0.890625 0
0.453125 0.875 0
0.53125 0.875 0
0.5 0.875 0
0.53125 0.84375 0
0.515625 0.875 0
0.515625 0.859375 0
0.53125 0.859375 0
0.53125 0.875 0
0.53125 0.84375 0
0.5625 0.875 0
0.53125 0.859375 0
0.546875 0.859375 0
0.546875 0.875 0
0.53125 0.875 0
0.53125 0.90625 0
0.5 0.875 0
0.53125 0.890625 0
0.515625 0.890625 0
0.515625 0.875 0
0.53125 0.875 0
0.5625 0.875 0
0.53125 0.90625 0
0.546875 0.875 0
0.546875 0.890625 0
0.53125 0.890625 0
0.5625 0.84375 0
0.53125 0.84375 0
0.5625 0.8125 0
0.546875 0.84375 0
0.546875 0.828125 0
0.5625 0.828125 0
0.5625 0.84375 0
0.5625 0.875 0
0.53125 0.84375 0
0.5625 0.859375 0
0.546875 0.859375 0
0.546875 0.84375 0
0.5625 0.84375 0
0.5625 0.8125 0
0.59375 0.84375 0
0.5625 0.828125 0
0.578125 0.828125 0
0.578125 0.84375 0
0.5625 0.84375 0
0.59375 0.84375 0
0.5625 0.875 0
0.578125 0.84375 0
0.578125 0.859375 0
0.5625 0.859375 0
0.4375 0.90625 0
0.4375 0.9375 0
0.40625 0.90625 0
0.4375 0.921875 0
0.421875 0.921875 0
0.421875 0.90625 0
0.4375 0.90625 0
0.40625 0.90625 0
0.4375 0.875 0
0.421875 0.90625 0
0.421875 0.890625 0
0.4375 0.890625 0
0.4375 0.90625 0
0.46875 0.90625 0
0.4375 0.9375 0
0.453125 0.90625 0
0.453125 0.921875 0
0.4375 0.921875 0
0.4375 0.90625 0
0.4375 0.875 0
0.46875 0.90625 0
0.4375 0.890625 0
0.453125 0.890625 0
0.453125 0.90625 0
0.40625 0.9375 0
0.40625 0.90625 0
0.4375 0.9375 0
0.40625 0.921875 0
0.421875 0.921875 0
0.421875 0.9375 0
0.40625 0.9375 0
0.375 0.9375 0
0.40625 0.90625 0
0.390625 0.9375 0
0.390625 0.921875 0
0.40625 0.921875 0
0.40625 0.9375 0
0.4375 0.9375 0
0.40625 0.96875 0
0.421875 0.9375 0
0.421875 0.953125 0
0.40625 0.953125 0
0.40625 0.9375 0
0.40625 0.96875 0
0.375 0.9375 0
0.40625 0.953125 0
0.390625 0.953125 0
0.390625 0.9375 0
0.5 0.90625 0
0.46875 0.90625 0
0.5 0.875 0
0.484375 0.90625 0
0.484375 0.890625 0
0.5 0.890625 0
0.5 0.90625 0
0.5 0.9375 0
0.46875 0.90625 0
0.5 0.921875 0
0.484375 0.921875 0
0.484375 0.90625 0
0.5 0.90625 0
0.5 0.875 0
0.53125 0.90625 0
0.5 0.890625 0
0.515625 0.890625 0
0.515625 0.90625 0
0.5 0.90625 0
0.53125 0.90625 0
0.5 0.9375 0
0.515625 0.90625 0
0.515625 0.921875 0
0.5 0.921875 0
0.46875 0.9375 0
0.4375 0.9375 0
0.46875 0.90625 0
0.453125 0.9375 0
0.453125 0.921875 0
0.46875 0.921875 0
0.46875 0.9375 0
0.46875 0.90625 0
0.5 0.9375 0
0.46875 0.921875 0
0.484375 0.921875 0
0.484375 0.9375 0
0.46875 0.9375 0
0.46875 0.96875 0
0.4375 0.9375 0
0.46875 0.953125 0
0.453125 0.953125 0
0.453125 0.9375 0
0.46875 0.9375 0
0.5 0.9375 0
0.46875 0.96875 0
0.484375 0.9375 0
0.484375 0.953125 0
0.46875 0.953125 0
0 0.71875 0
0.03125 0.71875 0
0 0.75 0
0.015625 0.71875 0
0.015625 0.734375 0
0 0.734375 0
0 0.71875 0
0 0.6875 0
0.03125 0.71875 0
0 0.703125 0
0.015625 0.703125 0
0.015625 0.71875 0
0.03125 0.75 0
0 0.75 0
0.03125 0.71875 0
0.015625 0.75 0
0.015625 0.734375 0
0.03125 0.734375 0
0.03125 0.75 0
0.03125 0.71875 0
0.0625 0.75 0
0.03125 0.734375 0
0.046875 0.734375 0
0.046875 0.75 0
0.03125 0.75 0
0.03125 0.78125 0
0 0.75 0
0.03125 0.765625 0
0.015625 0.765625 0
0.015625 0.75 0
0.03125 0.75 0
0.0625 0.75 0
0.03125 0.78125 0
0.046875 0.75 0
0.046875 0.765625 0
0.03125 0.765625 0
0.0625 0.78125 0
0.0625 0.8125 0
0.03125 0.78125 0
0.0625 0.796875 0
0.046875 0.796875 0
0.046875 0.78125 0
0.0625 0.78125 0
0.03125 0.78125 0
0.0625 0.75 0
0.046875 0.78125 0
0.046875 0.765625 0
0.0625 0.765625 0
0.0625 0.78125 0
0.09375 0.78125 0
0.0625 0.8125 0
0.078125 0.78125 0
0.078125 0.796875 0
0.0625 0.796875 0
0.0625 0.78125 0
0.0625 0.75 0
0.09375 0.78125 0
0.0625 0.765625 0
0.078125 0.765625 0
0.078125 0.78125 0
0 0.78125 0
0 0.75 0
0.03125 0.78125 0
0 0.765625 0
0.015625 0.765625 0
0.015625 0.78125 0
0 0.78125 0
0.03125 0.78125 0
0 0.8125 0
0.015625 0.78125 0
0.015625 0.796875 0
0 0.796875 0
0.03125 0.8125 0
0.03125 0.78125 0
0.0625 0.8125 0
0.03125 0.796875 0
0.046875 0.796875 0
0.046875 0.8125 0
0.03125 0.8125 0
0 0.8125 0
0.03125 0.78125 0
0.015625 0.8125 0
0.015625 0.796875 0
0.03125 0.796875 0
0.03125 0.8125 0
0.0625 0.8125 0
0.03125 0.84375 0
0.046875 0.8125 0
0.046875 0.828125 0
0.03125 0.828125 0
0.03125 0.8125 0
0.03125 0.84375 0
0 0.8125 0
0.03125 0.828125 0
0.015625 0.828125 0
0.015625 0.8125 0
0.09375 0.8125 0
0.0625 0.8125 0
0.09375 0.78125 0
0.078125 0.8125 0
0.078125 0.796875 0
0.09375 0.796875 0
0.09375 0.8125 0
0.09375 0.78125 0
0.125 0.8125 0
0.09375 0.796875 0
0.109375 0.796875 0
0.109375 0.8125 0
0.09375 0.8125 0
0.09375 0.84375 0
0.0625 0.8125 0
0.09375 0.828125 0
0.078125 0.828125 0
0.078125 0.8125 0
0.09375 0.8125 0
0.125 0.8125 0
0.09375 0.84375 0
0.109375 0.8125 0
0.109375 0.828125 0
0.09375 0.828125 0
0.125 0.84375 0
0.15625 0.84375 0
0.125 0.875 0
0.140625 0.84375 0
0.140625 0.859375 0
0.125 0.859375 0
0.125 0.84375 0
0.125 0.8125 0
0.15625 0.84375 0
0.125 0.828125 0
0.140625 0.828125 0
0.140625 0.84375 0
0.125 0.84375 0
0.125 0.875 0
0.09375 0.84375 0
0.125 0.859375 0
0.109375 0.859375 0
0.109375 0.84375 0
0.125 0.84375 0
0.09375 0.84375 0
0.125 0.8125 0
0.109375 0.84375 0
0.109375 0.828125 0
0.125 0.828125 0
0.15625 0.875 0
0.125 0.875 0
0.15625 0.84375 0
0.140625 0.875 0
0.140625 0.859375 0
0.15625 0.859375 0
0.15625 0.875 0
0.15625 0.84375 0
0.1875 0.875 0
0.15625 0.859375 0
0.171875 0.859375 0
0.171875 0.875 0
0.15625 0.875 0
0.15625 0.90625 0
0.125 0.875 0
0.15625 0.890625 0
0.140625 0.890625 0
0.140625 0.875 0
0.15625 0.875 0
0.1875 0.875 0
0.15625 0.90625 0
0.171875 0.875 0
0.171875 0.890625 0
0.15625 0.890625 0
0.09375 0.875 0
0.09375 0.84375 0
0.125 0.875 0
0.09375 0.859375 0
0.109375 0.859375 0
0.109375 0.875 0
0.09375 0.875 0
0.0625 0.875 0
0.09375 0.84375 0
0.078125 0.875 0
0.078125 0.859375 0
0.09375 0.859375 0
0.09375 0.875 0
0.125 0.875 0
0.09375 0.90625 0
0.109375 0.875 0
0.109375 0.890625 0
0.09375 0.890625 0
0.09375 0.875 0
0.09375 0.90625 0
0.0625 0.875 0
0.09375 0.890625 0
0.078125 0.890625 0
0.078125 0.875 0
0.0625 0.84375 0
0.0625 0.8125 0
0.09375 0.84375 0
0.0625 0.828125 0
0.078125 0.828125 0
0.078125 0.84375 0
0.0625 0.84375 0
0.09375 0.84375 0
0.0625 0.875 0
0.078125 0.84375 0
0.078125 0.859375 0
0.0625 0.859375 0
0.0625 0.84375 0
0.03125 0.84375 0
0.0625 0.8125 0
0.046875 0.84375 0
0.046875 0.828125 0
0.0625 0.828125 0
0.0625 0.84375 0
0.0625 0.875 0
0.03125 0.84375 0
0.0625 0.859375 0
0.046875 0.859375 0
0.046875 0.84375 0
0.1875 0.90625 0
0.1875 0.9375 0
0.15625 0.90625 0
0.1875 0.921875 0
0.171875 0.921875 0
0.171875 0.90625 0
0.1875 0.90625 0
0.15625 0.90625 0
0.1875 0.875 0
0.171875 0.90625 0
0.171875 0.890625 0
0.1875 0.890625 0
0.1875 0.90625 0
0.21875 0.90625 0
0.1875 0.9375 0
0.203125 0.90625 0
0.203125 0.921875 0
0.1875 0.921875 0
0.1875 0.90625 0
0.1875 0.875 0
0.21875 0.90625 0
0.1875 0.890625 0
0.203125 0.890625 0
0.203125 0.90625 0
0.125 0.90625 0
0.125 0.875 0
0.15625 0.90625 0
0.125 0.890625 0
0.140625 0.890625 0
0.140625 0.90625 0
0.125 0.90625 0
0.15625 0.90625 0
0.125 0.9375 0
0.140625 0.90625 0
0.140625 0.921875 0
0.125 0.921875 0
0.125 0.90625 0
0.09375 0.90625 0
0.125 0.875 0
0.109375 0.90625 0
0.109375 0.890625 0
0.125 0.890625 0
0.125 0.90625 0
0.125 0.9375 0
0.09375 0.90625 0
0.125 0.921875 0
0.109375 0.921875 0
0.109375 0.90625 0
0.15625 0.9375 0
0.15625 0.90625 0
0.1875 0.9375 0
0.15625 0.921875 0
0.171875 0.921875 0
0.171875 0.9375 0
0.15625 0.9375 0
0.125 0.9375 0
0.15625 0.90625 0
0.140625 0.9375 0
0.140625 0.921875 0
0.15625 0.921875 0
0.15625 0.9375 0
0.1875 0.9375 0
0.15625 0.96875 0
0.171875 0.9375 0
0.171875 0.953125 0
0.15625 0.953125 0
0.15625 0.9375 0
0.15625 0.96875 0
0.125 0.9375 0
0.15625 0.953125 0
0.140625 0.953125 0
0.140625 0.9375 0
0.21875 0.9375 0
0.1875 0.9375 0
0.21875 0.90625 0
0.203125 0.9375 0
0.203125 0.921875 0
0.21875 0.921875 0
0.21875 0.9375 0
0.21875 0.90625 0
0.25 0.9375 0
0.21875 0.921875 0
0.234375 0.921875 0
0.234375 0.9375 0
0.21875 0.9375 0
0.21875 0.96875 0
0.1875 0.9375 0
0.21875 0.953125 0
0.203125 0.953125 0
0.203125 0.9375 0
0.21875 0.9375 0
0.25 0.9375 0
0.21875 0.96875 0
0.234375 0.9375 0
0.234375 0.953125 0
0.21875 0.953125 0
0 0.84375 0
0.03125 0.84375 0
0 0.875 0
0.015625 0.84375 0
0.015625 0.859375 0
0 0.859375 0
0 0.84375 0
0 0.8125 0
0.03125 0.84375 0
0 0.828125 0
0.015625 0.828125 0
0.015625 0.84375 0
0.03125 0.875 0
0 0.875 0
0.03125 0.84375 0
0.015625 0.875 0
0.015625 0.859375 0
0.03125 0.859375 0
0.03125 0.875 0
0.03125 0.84375 0
0.0625 0.875 0
0.03125 0.859375 0
0.046875 0.859375 0
0.046875 0.875 0
0.03125 0.875 0
0.03125 0.90625 0
0 0.875 0
0.03125 0.890625 0
0.015625 0.890625 0
0.015625 0.875 0
0.03125 0.875 0
0.0625 0.875 0
0.03125 0.90625 0
0.046875 0.875 0
0.046875 0.890625 0
0.03125 0.890625 0
0.0625 0.90625 0
0.09375 0.90625 0
0.0625 0.9375 0
0.078125 0.90625 0
0.078125 0.921875 0
0.0625 0.921875 0
0.0625 0.90625 0
0.0625 0.875 0
0.09375 0.90625 0
0.0625 0.890625 0
0.078125 0.890625 0
0.078125 0.90625 0
0.0625 0.90625 0
0.0625 0.9375 0
0.03125 0.90625 0
0.0625 0.921875 0
0.046875 0.921875 0
0.046875 0.90625 0
0.0625 0.90625 0
0.03125 0.90625 0
0.0625 0.875 0
0.046875 0.90625 0
0.046875 0.890625 0
0.0625 0.890625 0
0.09375 0.9375 0
0.0625 0.9375 0
0.09375 0.90625 0
0.078125 0.9375 0
0.078125 0.921875 0
0.09375 0.921875 0
0.09375 0.9375 0
0.09375 0.90625 0
0.125 0.9375 0
0.09375 0.921875 0
0.109375 0.921875 0
0.109375 0.9375 0
0.09375 0.9375 0
0.09375 0.96875 0
0.0625 0.9375 0
0.09375 0.953125 0
0.078125 0.953125 0
0.078125 0.9375 0
0.09375 0.9375 0
0.125 0.9375 0
0.09375 0.96875 0
0.109375 0.9375 0
0.109375 0.953125 0
0.09375 0.953125 0
0 0.90625 0
0 0.875 0
0.03125 0.90625 0
0 0.890625 0
0.015625 0.890625 0
0.015625 0.90625 0
0 0.90625 0
0.03125 0.90625 0
0 0.9375 0
0.015625 0.90625 0
0.015625 0.921875 0
0 0.921875 0
0.03125 0.9375 0
0.03125 0.90625 0
0.0625 0.9375 0
0.03125 0.921875 0
0.046875 0.921875 0
0.046875 0.9375 0
0.03125 0.9375 0
0 0.9375 0
0.03125 0.90625 0
0.015625 0.9375 0
0.015625 0.921875 0
0.03125 0.921875 0
0.03125 0.9375 0
0.0625 0.9375 0
0.03125 0.96875 0
0.046875 0.9375 0
0.046875 0.953125 0
0.03125 0.953125 0
0.03125 0.9375 0
0.03125 0.96875 0
0 0.9375 0
0.03125 0.953125 0
0.015625 0.953125 0
0.015625 0.9375 0
0.46875 0 0
0.5 0 0
0.46875 0.03125 0
0.484375 0 0
0.484375 0.015625 0
0.46875 0.015625 0
0.46875 0 0
0.46875 0.03125 0
0.4375 0 0
0.46875 0.015625 0
0.453125 0.015625 0
0.453125 0 0
0.5 0.03125 0
0.46875 0.03125 0
0.5 0 0
0.484375 0.03125 0
0.484375 0.015625 0
0.5 0.015625 0
0.5 0.03125 0
0.5 0.0625 0
0.46875 0.03125 0
0.5 0.046875 0
0.484375 0.046875 0
0.484375 0.03125 0
0.5 0.03125 0
0.5 0 0
0.53125 0.03125 0
0.5 0.015625 0
0.515625 0.015625 0
0.515625 0.03125 0
0.5 0.03125 0
0.53125 0.03125 0
0.5 0.0625 0
0.515625 0.03125 0
0.515625 0.046875 0
0.5 0.046875 0
0.53125 0.0625 0
0.53125 0.03125 0
0.5625 0.0625 0
0.53125 0.046875 0
0.546875 0.046875 0
0.546875 0.0625 0
0.53125 0.0625 0
0.5 0.0625 0
0.53125 0.03125 0
0.515625 0.0625 0
0.515625 0.046875 0
0.53125 0.046875 0
0.53125 0.0625 0
0.5625 0.0625 0
0.53125 0.09375 0
0.546875 0.0625 0
0.546875 0.078125 0
0.53125 0.078125 0
0.53125 0.0625 0
0.53125 0.09375 0
0.5 0.0625 0
0.53125 0.078125 0
0.515625 0.078125 0
0.515625 0.0625 0
0.53125 0 0
0.53125 0.03125 0
0.5 0 0
0.53125 0.015625 0
0.515625 0.015625 0
0.515625 0 0
0.53125 0 0
0.5625 0 0
0.53125 0.03125 0
0.546875 0 0
0.546875 0.015625 0
0.53125 0.015625 0
0.5625 0.03125 0
0.5625 0.0625 0
0.53125 0.03125 0
0.5625 0.046875 0
0.546875 0.046875 0
0.546875 0.03125 0
0.5625 0.03125 0
0.53125 0.03125 0
0.5625 0 0
0.546875 0.03125 0
0.546875 0.015625 0
0.5625 0.015625 0
0.5625 0.03125 0
0.59375 0.03125 0
0.5625 0.0625 0
0.578125 0.03125 0
0.578125 0.046875 0
0.5625 0.046875 0
0.5625 0.03125 0
0.5625 0 0
0.59375 0.03125 0
0.5625 0.015625 0
0.578125 0.015625 0
0.578125 0.03125 0
0.5625 0.09375 0
0.53125 0.09375 0
0.5625 0.0625 0
0.546875 0.09375 0
0.546875 0.078125 0
0.5625 0.078125 0
0.5625 0.09375 0
0.5625 0.125 0
0.53125 0.09375 0
0.5625 0.109375 0
0.546875 0.109375 0
0.546875 0.09375 0
0.5625 0.09375 0
0.5625 0.0625 0
0.59375 0.09375 0
0.5625 0.078125 0
0.578125 0.078125 0
0.578125 0.09375 0
0.5625 0.09375 0
0.59375 0.09375 0
0.5625 0.125 0
0.578125 0.09375 0
0.578125 0.109375 0
0.5625 0.109375 0
0.59375 0.125 0
0.59375 0.09375 0
0.625 0.125 0
0.59375 0.109375 0
0.609375 0.109375 0
0.609375 0.125 0
0.59375 0.125 0
0.5625 0.125 0
0.59375 0.09375 0
0.578125 0.125 0
0.578125 0.109375 0
0.59375 0.109375 0
0.59375 0.125 0
0.625 0.125 0
0.59375 0.15625 0
0.609375 0.125 0
0.609375 0.140625 0
0.59375 0.140625 0
0.59375 0.125 0
0.59375 0.15625 0
0.5625 0.125 0
0.59375 0.140625 0
0.578125 0.140625 0
0.578125 0.125 0
0.625 0.09375 0
0.625 0.125 0
0.59375 0.09375 0
0.625 0.109375 0
0.609375 0.109375 0
0.609375 0.09375 0
0.625 0.09375 0
0.59375 0.09375 0
0.625 0.0625 0
0.609375 0.09375 0
0.609375 0.078125 0
0.625 0.078125 0
0.625 0.09375 0
0.65625 0.09375 0
0.625 0.125 0
0.640625 0.09375 0
0.640625 0.109375 0
0.625 0.109375 0
0.625 0.09375 0
0.625 0.0625 0
0.65625 0.09375 0
0.625 0.078125 0
0.640625 0.078125 0
0.640625 0.09375 0
0.59375 0.0625 0
0.59375 0.09375 0
0.5625 0.0625 0
0.59375 0.078125 0
0.578125 0.078125 0
0.578125 0.0625 0
0.59375 0.0625 0
0.625 0.0625 0
0.59375 0.09375 0
0.609375 0.0625 0
0.609375 0.078125 0
0.59375 0.078125 0
0.59375 0.0625 0
0.5625 0.0625 0
0.59375 0.03125 0
0.578125 0.0625 0
0.578125 0.046875 0
0.59375 0.046875 0
0.59375 0.0625 0
0.59375 0.03125 0
0.625 0.0625 0
0.59375 0.046875 0
0.609375 0.046875 0
0.609375 0.0625 0
0.625 0.15625 0
0.59375 0.15625 0
0.625 0.125 0
0.609375 0.15625 0
0.609375 0.140625 0
0.625 0.140625 0
0.625 0.15625 0
0.625 0.1875 0
0.59375 0.15625 0
0.625 0.171875 0
0.609375 0.171875 0
0.609375 0.15625 0
0.625 0.15625 0
0.625 0.125 0
0.65625 0.15625 0
0.625 0.140625 0
0.640625 0.140625 0
0.640625 0.15625 0
0.625 0.15625 0
0.65625 0.15625 0
0.625 0.1875 0
0.640625 0.15625 0
0.640625 0.171875 0
0.625 0.171875 0
0.59375 0 0
0.625 0 0
0.59375 0.03125 0
0.609375 0 0
0.609375 0.015625 0
0.59375 0.015625 0
0.59375 0 0
0.59375 0.03125 0
0.5625 0 0
0.59375 0.015625 0
0.578125 0.015625 0
0.578125 0 0
0.625 0.03125 0
0.59375 0.03125 0
0.625 0 0
0.609375 0.03125 0
0.609375 0.015625 0
0.625 0.015625 0
0.625 0.03125 0
0.625 0.0625 0
0.59375 0.03125 0
0.625 0.046875 0
0.609375 0.046875 0
0.609375 0.03125 0
0.625 0.03125 0
0.625 0 0
0.65625 0.03125 0
0.625 0.015625 0
0.640625 0.015625 0
0.640625 0.03125 0
0.625 0.03125 0
0.65625 0.03125 0
0.625 0.0625 0
0.640625 0.03125 0
0.640625 0.046875 0
0.625 0.046875 0
0.65625 0.0625 0
0.6875 0.0625 0
0.65625 0.09375 0
0.671875 0.0625 0
0.671875 0.078125 0
0.65625 0.078125 0
0.65625 0.0625 0
0.65625 0.09375 0
0.625 0.0625 0
0.65625 0.078125 0
0.640625 0.078125 0
0.640625 0.0625 0
0.65625 0.0625 0
0.65625 0.03125 0
0.6875 0.0625 0
0.65625 0.046875 0
0.671875 0.046875 0
0.671875 0.0625 0
0.65625 0.0625 0
0.625 0.0625 0
0.65625 0.03125 0
0.640625 0.0625 0
0.640625 0.046875 0
0.65625 0.046875 0
0.65625 0.125 0
0.625 0.125 0
0.65625 0.09375 0
0.640625 0.125 0
0.640625 0.109375 0
0.65625 0.109375 0
0.65625 0.125 0
0.65625 0.09375 0
0.6875 0.125 0
0.65625 0.109375 0
0.671875 0.109375 0
0.671875 0.125 0
0.65625 0.125 0
0.65625 0.15625 0
0.625 0.125 0
0.65625 0.140625 0
0.640625 0.140625 0
0.640625 0.125 0
0.65625 0.125 0
0.6875 0.125 0
0.65625 0.15625 0
0.671875 0.125 0
0.671875 0.140625 0
0.65625 0.140625 0
0.6875 0.09375 0
0.65625 0.09375 0
0.6875 0.0625 0
0.671875 0.09375 0
0.671875 0.078125 0
0.6875 0.078125 0
0.6875 0.09375 0
0.6875 0.125 0
0.65625 0.09375 0
0.6875 0.109375 0
0.671875 0.109375 0
0.671875 0.09375 0
0.6875 0.09375 0
0.6875 0.0625 0
0.71875 0.09375 0
0.6875 0.078125 0
0.703125 0.078125 0
0.703125 0.09375 0
0.6875 0.09375 0
0.71875 0.09375 0
0.6875 0.125 0
0.703125 0.09375 0
0.703125 0.109375 0
0.6875 0.109375 0
0.65625 0 0
0.65625 0.03125 0
0.625 0 0
0.65625 0.015625 0
0.640625 0.015625 0
0.640625 0 0
0.65625 0 0
0.6875 0 0
0.65625 0.03125 0
0.671875 0 0
0.671875 0.015625 0
0.65625 0.015625 0
0.6875 0.03125 0
0.6875 0.0625 0
0.65625 0.03125 0
0.6875 0.046875 0
0.671875 0.046875 0
0.671875 0.03125 0
0.6875 0.03125 0
0.65625 0.03125 0
0.6875 0 0
0.671875 0.03125 0
0.671875 0.015625 0
0.6875 0.015625 0
0.6875 0.03125 0
0.71875 0.03125 0
0.6875 0.0625 0
0.703125 0.03125 0
0.703125 0.046875 0
0.6875 0.046875 0
0.6875 0.03125 0
0.6875 0 0
0.71875 0.03125 0
0.6875 0.015625 0
0.703125 0.015625 0
0.703125 0.03125 0
0.65625 0.1875 0
0.65625 0.15625 0
0.6875 0.1875 0
0.65625 0.171875 0
0.671875 0.171875 0
0.671875 0.1875 0
0.65625 0.1875 0
0.625 0.1875 0
0.65625 0.15625 0
0.640625 0.1875 0
0.640625 0.171875 0
0.65625 0.171875 0
0.65625 0.1875 0
0.6875 0.1875 0
0.65625 0.21875 0
0.671875 0.1875 0
0.671875 0.203125 0
0.65625 0.203125 0
0.65625 0.1875 0
0.65625 0.21875 0
0.625 0.1875 0
0.65625 0.203125 0
0.640625 0.203125 0
0.640625 0.1875 0
0.6875 0.15625 0
0.6875 0.1875 0
0.65625 0.15625 0
0.6875 0.171875 0
0.671875 0.171875 0
0.671875 0.15625 0
0.6875 0.15625 0
0.65625 0.15625 0
0.6875 0.125 0
0.671875 0.15625 0
0.671875 0.140625 0
0.6875 0.140625 0
0.6875 0.15625 0
0.71875 0.15625 0
0.6875 0.1875 0
0.703125 0.15625 0
0.703125 0.171875 0
0.6875 0.171875 0
0.6875 0.15625 0
0.6875 0.125 0
0.71875 0.15625 0
0.6875 0.140625 0
0.703125 0.140625 0
0.703125 0.15625 0
0.6875 0.21875 0
0.65625 0.21875 0
0.6875 0.1875 0
0.671875 0.21875 0
0.671875 0.203125 0
0.6875 0.203125 0
0.6875 0.21875 0
0.6875 0.25 0
0.65625 0.21875 0
0.6875 0.234375 0
0.671875 0.234375 0
0.671875 0.21875 0
0.6875 0.21875 0
0.6875 0.1875 0
0.71875 0.21875 0
0.6875 0.203125 0
0.703125 0.203125 0
0.703125 0.21875 0
0.6875 0.21875 0
0.71875 0.21875 0
0.6875 0.25 0
0.703125 0.21875 0
0.703125 0.234375 0
0.6875 0.234375 0
0.71875 0.25 0
0.75 0.25 0
0.71875 0.28125 0
0.734375 0.25 0
0.734375 0.265625 0
0.71875 0.265625 0
0.71875 0.25 0
0.71875 0.28125 0
0.6875 0.25 0
0.71875 0.265625 0
0.703125 0.265625 0
0.703125 0.25 0
0.71875 0.25 0
0.71875 0.21875 0
0.75 0.25 0
0.71875 0.234375 0
0.734375 0.234375 0
0.734375 0.25 0
0.71875 0.25 0
0.6875 0.25 0
0.71875 0.21875 0
0.703125 0.25 0
0.703125 0.234375 0
0.71875 0.234375 0
0.75 0.28125 0
0.71875 0.28125 0
0.75 0.25 0
0.734375 0.28125 0
0.734375 0.265625 0
0.75 0.265625 0
0.75 0.28125 0
0.75 0.3125 0
0.71875 0.28125 0
0.75 0.296875 0
0.734375 0.296875 0
0.734375 0.28125 0
0.75 0.28125 0
0.75 0.25 0
0.78125 0.28125 0
0.75 0.265625 0
0.765625 0.265625 0
0.765625 0.28125 0
0.75 0.28125 0
0.78125 0.28125 0
0.75 0.3125 0
0.765625 0.28125 0
0.765625 0.296875 0
0.75 0.296875 0
0.71875 0.3125 0
0.6875 0.3125 0
0.71875 0.28125 0
0.703125 0.3125 0
0.703125 0.296875 0
0.71875 0.296875 0
0.71875 0.3125 0
0.71875 0.28125 0
0.75 0.3125 0
0.71875 0.296875 0
0.734375 0.296875 0
0.734375 0.3125 0
0.71875 0.3125 0
0.71875 0.34375 0
0.6875 0.3125 0
0.71875 0.328125 0
0.703125 0.328125 0
0.703125 0.3125 0
0.71875 0.3125 0
0.75 0.3125 0
0.71875 0.34375 0
0.734375 0.3125 0
0.734375 0.328125 0
0.71875 0.328125 0
0.75 0.21875 0
0.75 0.25 0
0.71875 0.21875 0
0.75 0.234375 0
0.734375 0.234375 0
0.734375 0.21875 0
0.75 0.21875 0
0.71875 0.21875 0
0.75 0.1875 0
0.734375 0.21875 0
0.734375 0.203125 0
0.75 0.203125 0
0.75 0.21875 0
0.78125 0.21875 0
0.75 0.25 0
0.765625 0.21875 0
0.765625 0.234375 0
0.75 0.234375 0
0.75 0.21875 0
0.75 0.1875 0
0.78125 0.21875 0
0.75 0.203125 0
0.765625 0.203125 0
0.765625 0.21875 0
0.71875 0.1875 0
0.71875 0.21875 0
0.6875 0.1875 0
0.71875 0.203125 0
0.703125 0.203125 0
0.703125 0.1875 0
0.71875 0.1875 0
0.75 0.1875 0
0.71875 0.21875 0
0.734375 0.1875 0
0.734375 0.203125 0
0.71875 0.203125 0
0.71875 0.1875 0
0.6875 0.1875 0
0.71875 0.15625 0
0.703125 0.1875 0
0.703125 0.171875 0
0.71875 0.171875 0
0.71875 0.1875 0
0.71875 0.15625 0
0.75 0.1875 0
0.71875 0.171875 0
0.734375 0.171875 0
0.734375 0.1875 0
0.75 0.34375 0
0.75 0.375 0
0.71875 0.34375 0
0.75 0.359375 0
0.734375 0.359375 0
0.734375 0.34375 0
0.75 0.34375 0
0.71875 0.34375 0
0.75 0.3125 0
0.734375 0.34375 0
0.734375 0.328125 0
0.75 0.328125 0
0.75 0.34375 0
0.78125 0.34375 0
0.75 0.375 0
0.765625 0.34375 0
0.765625 0.359375 0
0.75 0.359375 0
0.75 0.34375 0
0.75 0.3125 0
0.78125 0.34375 0
0.75 0.328125 0
0.765625 0.328125 0
0.765625 0.34375 0
0.71875 0.375 0
0.71875 0.34375 0
0.75 0.375 0
0.71875 0.359375 0
0.734375 0.359375 0
0.734375 0.375 0
0.71875 0.375 0
0.6875 0.375 0
0.71875 0.34375 0
0.703125 0.375 0
0.703125 0.359375 0
0.71875 0.359375 0
0.71875 0.375 0
0.75 0.375 0
0.71875 0.40625 0
0.734375 0.375 0
0.734375 0.390625 0
0.71875 0.390625 0
0.71875 0.375 0
0.71875 0.40625 0
0.6875 0.375 0
0.71875 0.390625 0
0.703125 0.390625 0
0.703125 0.375 0
0.78125 0.3125 0
0.78125 0.28125 0
0.8125 0.3125 0
0.78125 0.296875 0
0.796875 0.296875 0
0.796875 0.3125 0
0.78125 0.3125 0
0.75 0.3125 0
0.78125 0.28125 0
0.765625 0.3125 0
0.765625 0.296875 0
0.78125 0.296875 0
0.78125 0.3125 0
0.8125 0.3125 0
0.78125 0.34375 0
0.796875 0.3125 0
0.796875 0.328125 0
0.78125 0.328125 0
0.78125 0.3125 0
0.78125 0.34375 0
0.75 0.3125 0
0.78125 0.328125 0
0.765625 0.328125 0
0.765625 0.3125 0
0.78125 0.25 0
0.78125 0.28125 0
0.75 0.25 0
0.78125 0.265625 0
0.765625 0.265625 0
0.765625 0.25 0
0.78125 0.25 0
0.8125 0.25 0
0.78125 0.28125 0
0.796875 0.25 0
0.796875 0.265625 0
0.78125 0.265625 0
0.78125 0.25 0
0.75 0.25 0
0.78125 0.21875 0
0.765625 0.25 0
0.765625 0.234375 0
0.78125 0.234375 0
0.78125 0.25 0
0.78125 0.21875 0
0.8125 0.25 0
0.78125 0.234375 0
0.796875 0.234375 0
0.796875 0.25 0
0.8125 0.28125 0
0.8125 0.3125 0
0.78125 0.28125 0
0.8125 0.296875 0
0.796875 0.296875 0
0.796875 0.28125 0
0.8125 0.28125 0
0.78125 0.28125 0
0.8125 0.25 0
0.796875 0.28125 0
0.796875 0.265625 0
0.8125 0.265625 0
0.8125 0.28125 0
0.84375 0.28125 0
0.8125 0.3125 0
0.828125 0.28125 0
0.828125 0.296875 0
0.8125 0.296875 0
0.8125 0.28125 0
0.8125 0.25 0
0.84375 0.28125 0
0.8125 0.265625 0
0.828125 0.265625 0
0.828125 0.28125 0
0.78125 0.375 0
0.75 0.375 0
0.78125 0.34375 0
0.765625 0.375 0
0.765625 0.359375 0
0.78125 0.359375 0
0.78125 0.375 0
0.78125 0.34375 0
0.8125 0.375 0
0.78125 0.359375 0
0.796875 0.359375 0
0.796875 0.375 0
0.78125 0.375 0
0.78125 0.40625 0
0.75 0.375 0
0.78125 0.390625 0
0.765625 0.390625 0
0.765625 0.375 0
0.78125 0.375 0
0.8125 0.375 0
0.78125 0.40625 0
0.796875 0.375 0
0.796875 0.390625 0
0.78125 0.390625 0
0.8125 0.34375 0
0.78125 0.34375 0
0.8125 0.3125 0
0.796875 0.34375 0
0.796875 0.328125 0
0.8125 0.328125 0
0.8125 0.34375 0
0.8125 0.375 0
0.78125 0.34375 0
0.8125 0.359375 0
0.796875 0.359375 0
0.796875 0.34375 0
0.8125 0.34375 0
0.8125 0.3125 0
0.84375 0.34375 0
0.8125 0.328125 0
0.828125 0.328125 0
0.828125 0.34375 0
0.8125 0.34375 0
0.84375 0.34375 0
0.8125 0.375 0
0.828125 0.34375 0
0.828125 0.359375 0
0.8125 0.359375 0
0.75 0.40625 0
0.71875 0.40625 0
0.75 0.375 0
0.734375 0.40625 0
0.734375 0.390625 0
0.75 0.390625 0
0.75 0.40625 0
0.75 0.4375 0
0.71875 0.40625 0
0.75 0.421875 0
0.734375 0.421875 0
0.734375 0.40625 0
0.75 0.40625 0
0.75 0.375 0
0.78125 0.40625 0
0.75 0.390625 0
0.765625 0.390625 0
0.765625 0.40625 0
0.75 0.40625 0
0.78125 0.40625 0
0.75 0.4375 0
0.765625 0.40625 0
0.765625 0.421875 0
0.75 0.421875 0
0.71875 0.4375 0
0.6875 0.4375 0
0.71875 0.40625 0
0.703125 0.4375 0
0.703125 0.421875 0
0.71875 0.421875 0
0.71875 0.4375 0
0.71875 0.40625 0
0.75 0.4375 0
0.71875 0.421875 0
0.734375 0.421875 0
0.734375 0.4375 0
0.71875 0.4375 0
0.71875 0.46875 0
0.6875 0.4375 0
0.71875 0.453125 0
0.703125 0.453125 0
0.703125 0.4375 0
0.71875 0.4375 0
0.75 0.4375 0
0.71875 0.46875 0
0.734375 0.4375 0
0.734375 0.453125 0
0.71875 0.453125 0
0.75 0.15625 0
0.71875 0.15625 0
0.75 0.125 0
0.734375 0.15625 0
0.734375 0.140625 0
0.75 0.140625 0
0.75 0.15625 0
0.75 0.1875 0
0.71875 0.15625 0
0.75 0.171875 0
0.734375 0.171875 0
0.734375 0.15625 0
0.75 0.15625 0
0.75 0.125 0
0.78125 0.15625 0
0.75 0.140625 0
0.765625 0.140625 0
0.765625 0.15625 0
0.75 0.15625 0
0.78125 0.15625 0
0.75 0.1875 0
0.765625 0.15625 0
0.765625 0.171875 0
0.75 0.171875 0
0.71875 0.125 0
0.75 0.125 0
0.71875 0.15625 0
0.734375 0.125 0
0.734375 0.140625 0
0.71875 0.140625 0
0.71875 0.125 0
0.71875 0.15625 0
0.6875 0.125 0
0.71875 0.140625 0
0.703125 0.140625 0
0.703125 0.125 0
0.71875 0.125 0
0.71875 0.09375 0
0.75 0.125 0
0.71875 0.109375 0
0.734375 0.109375 0
0.734375 0.125 0
0.71875 0.125 0
0.6875 0.125 0
0.71875 0.09375 0
0.703125 0.125 0
0.703125 0.109375 0
0.71875 0.109375 0
0.78125 0.1875 0
0.8125 0.1875 0
0.78125 0.21875 0
0.796875 0.1875 0
0.796875 0.203125 0
0.78125 0.203125 0
0.78125 0.1875 0
0.78125 0.21875 0
0.75 0.1875 0
0.78125 0.203125 0
0.765625 0.203125 0
0.765625 0.1875 0
0.78125 0.1875 0
0.78125 0.15625 0
0.8125 0.1875 0
0.78125 0.171875 0
0.796875 0.171875 0
0.796875 0.1875 0
0.78125 0.1875 0
0.75 0.1875 0
0.78125 0.15625 0
0.765625 0.1875 0
0.765625 0.171875 0
0.78125 0.171875 0
0.8125 0.21875 0
0.78125 0.21875 0
0.8125 0.1875 0
0.796875 0.21875 0
0.796875 0.203125 0
0.8125 0.203125 0
0.8125 0.21875 0
0.8125 0.25 0
0.78125 0.21875 0
0.8125 0.234375 0
0.796875 0.234375 0
0.796875 0.21875 0
0.8125 0.21875 0
0.8125 0.1875 0
0.84375 0.21875 0
0.8125 0.203125 0
0.828125 0.203125 0
0.828125 0.21875 0
0.8125 0.21875 0
0.84375 0.21875 0
0.8125 0.25 0
0.828125 0.21875 0
0.828125 0.234375 0
0.8125 0.234375 0
0.78125 0.125 0
0.78125 0.15625 0
0.75 0.125 0
0.78125 0.140625 0
0.765625 0.140625 0
0.765625 0.125 0
0.78125 0.125 0
0.8125 0.125 0
0.78125 0.15625 0
0.796875 0.125 0
0.796875 0.140625 0
0.78125 0.140625 0
0.78125 0.125 0
0.75 0.125 0
0.78125 0.09375 0
0.765625 0.125 0
0.765625 0.109375 0
0.78125 0.109375 0
0.78125 0.125 0
0.78125 0.09375 0
0.8125 0.125 0
0.78125 0.109375 0
0.796875 0.109375 0
0.796875 0.125 0
0.8125 0.15625 0
0.8125 0.1875 0
0.78125 0.15625 0
0.8125 0.171875 0
0.796875 0.171875 0
0.796875 0.15625 0
0.8125 0.15625 0
0.78125 0.15625 0
0.8125 0.125 0
0.796875 0.15625 0
0.796875 0.140625 0
0.8125 0.140625 0
0.8125 0.15625 0
0.84375 0.15625 0
0.8125 0.1875 0
0.828125 0.15625 0
0.828125 0.171875 0
0.8125 0.171875 0
0.8125 0.15625 0
0.8125 0.125 0
0.84375 0.15625 0
0.8125 0.140625 0
0.828125 0.140625 0
0.828125 0.15625 0
0.75 0.09375 0
0.75 0.125 0
0.71875 0.09375 0
0.75 0.109375 0
0.734375 0.109375 0
0.734375 0.09375 0
0.75 0.09375 0
0.71875 0.09375 0
0.75 0.0625 0
0.734375 0.09375 0
0.734375 0.078125 0
0.75 0.078125 0
0.75 0.09375 0
0.78125 0.09375 0
0.75 0.125 0
0.765625 0.09375 0
0.765625 0.109375 0
0.75 0.109375 0
0.75 0.09375 0
0.75 0.0625 0
0.78125 0.09375 0
0.75 0.078125 0
0.765625 0.078125 0
0.765625 0.09375 0
0.71875 0.0625 0
0.71875 0.09375 0
0.6875 0.0625 0
0.71875 0.078125 0
0.703125 0.078125 0
0.703125 0.0625 0
0.71875 0.0625 0
0.75 0.0625 0
0.71875 0.09375 0
0.734375 0.0625 0
0.734375 0.078125 0
0.71875 0.078125 0
0.71875 0.0625 0
0.6875 0.0625 0
0.71875 0.03125 0
0.703125 0.0625 0
0.703125 0.046875 0
0.71875 0.046875 0
0.71875 0.0625 0
0.71875 0.03125 0
0.75 0.0625 0
0.71875 0.046875 0
0.734375 0.046875 0
0.734375 0.0625 0
0.71875 0.5 0
0.71875 0.46875 0
0.75 0.5 0
0.71875 0.484375 0
0.734375 0.484375 0
0.734375 0.5 0
0.71875 0.5 0
0.6875 0.5 0
0.71875 0.46875 0
0.703125 0.5 0
0.703125 0.484375 0
0.71875 0.484375 0
0.71875 0.5 0
0.75 0.5 0
0.71875 0.53125 0
0.734375 0.5 0
0.734375 0.515625 0
0.71875 0.515625 0
0.71875 0.5 0
0.71875 0.53125 0
0.6875 0.5 0
0.71875 0.515625 0
0.703125 0.515625 0
0.703125 0.5 0
0.75 0.46875 0
0.75 0.5 0
0.71875 0.46875 0
0.75 0.484375 0
0.734375 0.484375 0
0.734375 0.46875 0
0.75 0.46875 0
0.71875 0.46875 0
0.75 0.4375 0
0.734375 0.46875 0
0.734375 0.453125 0
0.75 0.453125 0
0.75 0.46875 0
0.78125 0.46875 0
0.75 0.5 0
0.765625 0.46875 0
0.765625 0.484375 0
0.75 0.484375 0
0.75 0.46875 0
0.75 0.4375 0
0.78125 0.46875 0
0.75 0.453125 0
0.765625 0.453125 0
0.765625 0.46875 0
0.75 0.53125 0
0.71875 0.53125 0
0.75 0.5 0
0.734375 0.53125 0
0.734375 0.515625 0
0.75 0.515625 0
0.75 0.53125 0
0.75 0.5625 0
0.71875 0.53125 0
0.75 0.546875 0
0.734375 0.546875 0
0.734375 0.53125 0
0.75 0.53125 0
0.75 0.5 0
0.78125 0.53125 0
0.75 0.515625 0
0.765625 0.515625 0
0.765625 0.53125 0
0.75 0.53125 0
0.78125 0.53125 0
0.75 0.5625 0
0.765625 0.53125 0
0.765625 0.546875 0
0.75 0.546875 0
0.71875 0.5625 0
0.6875 0.5625 0
0.71875 0.53125 0
0.703125 0.5625 0
0.703125 0.546875 0
0.71875 0.546875 0
0.71875 0.5625 0
0.71875 0.53125 0
0.75 0.5625 0
0.71875 0.546875 0
0.734375 0.546875 0
0.734375 0.5625 0
0.71875 0.5625 0
0.71875 0.59375 0
0.6875 0.5625 0
0.71875 0.578125 0
0.703125 0.578125 0
0.703125 0.5625 0
0.71875 0.5625 0
0.75 0.5625 0
0.71875 0.59375 0
0.734375 0.5625 0
0.734375 0.578125 0
0.71875 0.578125 0
0.78125 0.4375 0
0.8125 0.4375 0
0.78125 0.46875 0
0.796875 0.4375 0
0.796875 0.453125 0
0.78125 0.453125 0
0.78125 0.4375 0
0.78125 0.46875 0
0.75 0.4375 0
0.78125 0.453125 0
0.765625 0.453125 0
0.765625 0.4375 0
0.78125 0.4375 0
0.78125 0.40625 0
0.8125 0.4375 0
0.78125 0.421875 0
0.796875 0.421875 0
0.796875 0.4375 0
0.78125 0.4375 0
0.75 0.4375 0
0.78125 0.40625 0
0.765625 0.4375 0
0.765625 0.421875 0
0.78125 0.421875 0
0.78125 0.5 0
0.75 0.5 0
0.78125 0.46875 0
0.765625 0.5 0
0.765625 0.484375 0
0.78125 0.484375 0
0.78125 0.5 0
0.78125 0.46875 0
0.8125 0.5 0
0.78125 0.484375 0
0.796875 0.484375 0
0.796875 0.5 0
0.78125 0.5 0
0.78125 0.53125 0
0.75 0.5 0
0.78125 0.515625 0
0.765625 0.515625 0
0.765625 0.5 0
0.78125 0.5 0
0.8125 0.5 0
0.78125 0.53125 0
0.796875 0.5 0
0.796875 0.515625 0
0.78125 0.515625 0
0.8125 0.46875 0
0.78125 0.46875 0
0.8125 0.4375 0
0.796875 0.46875 0
0.796875 0.453125 0
0.8125 0.453125 0
0.8125 0.46875 0
0.8125 0.5 0
0.78125 0.46875 0
0.8125 0.484375 0
0.796875 0.484375 0
0.796875 0.46875 0
0.8125 0.46875 0
0.8125 0.4375 0
0.84375 0.46875 0
0.8125 0.453125 0
0.828125 0.453125 0
0.828125 0.46875 0
0.8125 0.46875 0
0.84375 0.46875 0
0.8125 0.5 0
0.828125 0.46875 0
0.828125 0.484375 0
0.8125 0.484375 0
0.8125 0.40625 0
0.8125 0.4375 0
0.78125 0.40625 0
0.8125 0.421875 0
0.796875 0.421875 0
0.796875 0.40625 0
0.8125 0.40625 0
0.78125 0.40625 0
0.8125 0.375 0
0.796875 0.40625 0
0.796875 0.390625 0
0.8125 0.390625 0
0.8125 0.40625 0
0.84375 0.40625 0
0.8125 0.4375 0
0.828125 0.40625 0
0.828125 0.421875 0
0.8125 0.421875 0
0.8125 0.40625 0
0.8125 0.375 0
0.84375 0.40625 0
0.8125 0.390625 0
0.828125 0.390625 0
0.828125 0.40625 0
0.75 0.59375 0
0.75 0.625 0
0.71875 0.59375 0
0.75 0.609375 0
0.734375 0.609375 0
0.734375 0.59375 0
0.75 0.59375 0
0.71875 0.59375 0
0.75 0.5625 0
0.734375 0.59375 0
0.734375 0.578125 0
0.75 0.578125 0
0.75 0.59375 0
0.78125 0.59375 0
0.75 0.625 0
0.765625 0.59375 0
0.765625 0.609375 0
0.75 0.609375 0
0.75 0.59375 0
0.75 0.5625 0
0.78125 0.59375 0
0.75 0.578125 0
0.765625 0.578125 0
0.765625 0.59375 0
0.71875 0.625 0
0.71875 0.59375 0
0.75 0.625 0
0.71875 0.609375 0
0.734375 0.609375 0
0.734375 0.625 0
0.71875 0.625 0
0.6875 0.625 0
0.71875 0.59375 0
0.703125 0.625 0
0.703125 0.609375 0
0.71875 0.609375 0
0.71875 0.625 0
0.75 0.625 0
0.71875 0.65625 0
0.734375 0.625 0
0.734375 0.640625 0
0.71875 0.640625 0
0.71875 0.625 0
0.71875 0.65625 0
0.6875 0.625 0
0.71875 0.640625 0
0.703125 0.640625 0
0.703125 0.625 0
0.78125 0.5625 0
0.78125 0.53125 0
0.8125 0.5625 0
0.78125 0.546875 0
0.796875 0.546875 0
0.796875 0.5625 0
0.78125 0.5625 0
0.75 0.5625 0
0.78125 0.53125 0
0.765625 0.5625 0
0.765625 0.546875 0
0.78125 0.546875 0
0.78125 0.5625 0
0.8125 0.5625 0
0.78125 0.59375 0
0.796875 0.5625 0
0.796875 0.578125 0
0.78125 0.578125 0
0.78125 0.5625 0
0.78125 0.59375 0
0.75 0.5625 0
0.78125 0.578125 0
0.765625 0.578125 0
0.765625 0.5625 0
0.8125 0.53125 0
0.8125 0.5625 0
0.78125 0.53125 0
0.8125 0.546875 0
0.796875 0.546875 0
0.796875 0.53125 0
0.8125 0.53125 0
0.78125 0.53125 0
0.8125 0.5 0
0.796875 0.53125 0
0.796875 0.515625 0
0.8125 0.515625 0
0.8125 0.53125 0
0.84375 0.53125 0
0.8125 0.5625 0
0.828125 0.53125 0
0.828125 0.546875 0
0.8125 0.546875 0
0.8125 0.53125 0
0.8125 0.5 0
0.84375 0.53125 0
0.8125 0.515625 0
0.828125 0.515625 0
0.828125 0.53125 0
0.78125 0.625 0
0.75 0.625 0
0.78125 0.59375 0
0.765625 0.625 0
0.765625 0.609375 0
0.78125 0.609375 0
0.78125 0.625 0
0.78125 0.59375 0
0.8125 0.625 0
0.78125 0.609375 0
0.796875 0.609375 0
0.796875 0.625 0
0.78125 0.625 0
0.78125 0.65625 0
0.75 0.625 0
0.78125 0.640625 0
0.765625 0.640625 0
0.765625 0.625 0
0.78125 0.625 0
0.8125 0.625 0
0.78125 0.65625 0
0.796875 0.625 0
0.796875 0.640625 0
0.78125 0.640625 0
0.8125 0.59375 0
0.78125 0.59375 0
0.8125 0.5625 0
0.796875 0.59375 0
0.796875 0.578125 0
0.8125 0.578125 0
0.8125 0.59375 0
0.8125 0.625 0
0.78125 0.59375 0
0.8125 0.609375 0
0.796875 0.609375 0
0.796875 0.59375 0
0.8125 0.59375 0
0.8125 0.5625 0
0.84375 0.59375 0
0.8125 0.578125 0
0.828125 0.578125 0
0.828125 0.59375 0
0.8125 0.59375 0
0.84375 0.59375 0
0.8125 0.625 0
0.828125 0.59375 0
0.828125 0.609375 0
0.8125 0.609375 0
0.75 0.65625 0
0.71875 0.65625 0
0.75 0.625 0
0.734375 0.65625 0
0.734375 0.640625 0
0.75 0.640625 0
0.75 0.65625 0
0.75 0.6875 0
0.71875 0.65625 0
0.75 0.671875 0
0.734375 0.671875 0
0.734375 0.65625 0
0.75 0.65625 0
0.75 0.625 0
0.78125 0.65625 0
0.75 0.640625 0
0.765625 0.640625 0
0.765625 0.65625 0
0.75 0.65625 0
0.78125 0.65625 0
0.75 0.6875 0
0.765625 0.65625 0
0.765625 0.671875 0
0.75 0.671875 0
0.71875 0.6875 0
0.6875 0.6875 0
0.71875 0.65625 0
0.703125 0.6875 0
0.703125 0.671875 0
0.71875 0.671875 0
0.71875 0.6875 0
0.71875 0.65625 0
0.75 0.6875 0
0.71875 0.671875 0
0.734375 0.671875 0
0.734375 0.6875 0
0.71875 0.6875 0
0.71875 0.71875 0
0.6875 0.6875 0
0.71875 0.703125 0
0.703125 0.703125 0
0.703125 0.6875 0
0.71875 0.6875 0
0.75 0.6875 0
0.71875 0.71875 0
0.734375 0.6875 0
0.734375 0.703125 0
0.71875 0.703125 0
0.84375 0.375 0
0.84375 0.34375 0
0.875 0.375 0
0.84375 0.359375 0
0.859375 0.359375 0
0.859375 0.375 0
0.84375 0.375 0
0.8125 0.375 0
0.84375 0.34375 0
0.828125 0.375 0
0.828125 0.359375 0
0.84375 0.359375 0
0.84375 0.375 0
0.875 0.375 0
0.84375 0.40625 0
0.859375 0.375 0
0.859375 0.390625 0
0.84375 0.390625 0
0.84375 0.375 0
0.84375 0.40625 0
0.8125 0.375 0
0.84375 0.390625 0
0.828125 0.390625 0
0.828125 0.375 0
0.875 0.34375 0
0.875 0.375 0
0.84375 0.34375 0
0.875 0.359375 0
0.859375 0.359375 0
0.859375 0.34375 0
0.875 0.34375 0
0.84375 0.34375 0
0.875 0.3125 0
0.859375 0.34375 0
0.859375 0.328125 0
0.875 0.328125 0
0.875 0.34375 0
0.90625 0.34375 0
0.875 0.375 0
0.890625 0.34375 0
0.890625 0.359375 0
0.875 0.359375 0
0.875 0.34375 0
0.875 0.3125 0
0.90625 0.34375 0
0.875 0.328125 0
0.890625 0.328125 0
0.890625 0.34375 0
0.84375 0.3125 0
0.84375 0.34375 0
0.8125 0.3125 0
0.84375 0.328125 0
0.828125 0.328125 0
0.828125 0.3125 0
0.84375 0.3125 0
0.875 0.3125 0
0.84375 0.34375 0
0.859375 0.3125 0
0.859375 0.328125 0
0.84375 0.328125 0
0.84375 0.3125 0
0.8125 0.3125 0
0.84375 0.28125 0
0.828125 0.3125 0
0.828125 0.296875 0
0.84375 0.296875 0
0.84375 0.3125 0
0.84375 0.28125 0
0.875 0.3125 0
0.84375 0.296875 0
0.859375 0.296875 0
0.859375 0.3125 0
0.875 0.40625 0
0.84375 0.40625 0
0.875 0.375 0
0.859375 0.40625 0
0.859375 0.390625 0
0.875 0.390625 0
0.875 0.40625 0
0.875 0.4375 0
0.84375 0.40625 0
0.875 0.421875 0
0.859375 0.421875 0
0.859375 0.40625 0
0.875 0.40625 0
0.875 0.375 0
0.90625 0.40625 0
0.875 0.390625 0
0.890625 0.390625 0
0.890625 0.40625 0
0.875 0.40625 0
0.90625 0.40625 0
0.875 0.4375 0
0.890625 0.40625 0
0.890625 0.421875 0
0.875 0.421875 0
0.84375 0.4375 0
0.8125 0.4375 0
0.84375 0.40625 0
0.828125 0.4375 0
0.828125 0.421875 0
0.84375 0.421875 0
0.84375 0.4375 0
0.84375 0.40625 0
0.875 0.4375 0
0.84375 0.421875 0
0.859375 0.421875 0
0.859375 0.4375 0
0.84375 0.4375 0
0.84375 0.46875 0
0.8125 0.4375 0
0.84375 0.453125 0
0.828125 0.453125 0
0.828125 0.4375 0
0.84375 0.4375 0
0.875 0.4375 0
0.84375 0.46875 0
0.859375 0.4375 0
0.859375 0.453125 0
0.84375 0.453125 0
0.84375 0.25 0
0.875 0.25 0
0.84375 0.28125 0
0.859375 0.25 0
0.859375 0.265625 0
0.84375 0.265625 0
0.84375 0.25 0
0.84375 0.28125 0
0.8125 0.25 0
0.84375 0.265625 0
0.828125 0.265625 0
0.828125 0.25 0
0.84375 0.25 0
0.84375 0.21875 0
0.875 0.25 0
0.84375 0.234375 0
0.859375 0.234375 0
0.859375 0.25 0
0.84375 0.25 0
0.8125 0.25 0
0.84375 0.21875 0
0.828125 0.25 0
0.828125 0.234375 0
0.84375 0.234375 0
0.875 0.28125 0
0.84375 0.28125 0
0.875 0.25 0
0.859375 0.28125 0
0.859375 0.265625 0
0.875 0.265625 0
0.875 0.28125 0
0.875 0.3125 0
0.84375 0.28125 0
0.875 0.296875 0
0.859375 0.296875 0
0.859375 0.28125 0
0.875 0.28125 0
0.875 0.25 0
0.90625 0.28125 0
0.875 0.265625 0
0.890625 0.265625 0
0.890625 0.28125 0
0.875 0.28125 0
0.90625 0.28125 0
0.875 0.3125 0
0.890625 0.28125 0
0.890625 0.296875 0
0.875 0.296875 0
0.875 0.21875 0
0.875 0.25 0
0.84375 0.21875 0
0.875 0.234375 0
0.859375 0.234375 0
0.859375 0.21875 0
0.875 0.21875 0
0.84375 0.21875 0
0.875 0.1875 0
0.859375 0.21875 0
0.859375 0.203125 0
0.875 0.203125 0
0.875 0.21875 0
0.90625 0.21875 0
0.875 0.25 0
0.890625 0.21875 0
0.890625 0.234375 0
0.875 0.234375 0
0.875 0.21875 0
0.875 0.1875 0
0.90625 0.21875 0
0.875 0.203125 0
0.890625 0.203125 0
0.890625 0.21875 0
0.84375 0.1875 0
0.84375 0.21875 0
0.8125 0.1875 0
0.84375 0.203125 0
0.828125 0.203125 0
0.828125 0.1875 0
0.84375 0.1875 0
0.875 0.1875 0
0.84375 0.21875 0
0.859375 0.1875 0
0.859375 0.203125 0
0.84375 0.203125 0
0.84375 0.1875 0
0.8125 0.1875 0
0.84375 0.15625 0
0.828125 0.1875 0
0.828125 0.171875 0
0.84375 0.171875 0
0.84375 0.1875 0
0.84375 0.15625 0
0.875 0.1875 0
0.84375 0.171875 0
0.859375 0.171875 0
0.859375 0.1875 0
0.90625 0.3125 0
0.9375 0.3125 0
0.90625 0.34375 0
0.921875 0.3125 0
0.921875 0.328125 0
0.90625 0.328125 0
0.90625 0.3125 0
0.90625 0.34375 0
0.875 0.3125 0
0.90625 0.328125 0
0.890625 0.328125 0
0.890625 0.3125 0
0.90625 0.3125 0
0.90625 0.28125 0
0.9375 0.3125 0
0.90625 0.296875 0
0.921875 0.296875 0
0.921875 0.3125 0
0.90625 0.3125 0
0.875 0.3125 0
0.90625 0.28125 0
0.890625 0.3125 0
0.890625 0.296875 0
0.90625 0.296875 0
0.90625 0.375 0
0.875 0.375 0
0.90625 0.34375 0
0.890625 0.375 0
0.890625 0.359375 0
0.90625 0.359375 0
0.90625 0.375 0
0.90625 0.34375 0
0.9375 0.375 0
0.90625 0.359375 0
0.921875 0.359375 0
0.921875 0.375 0
0.90625 0.375 0
0.90625 0.40625 0
0.875 0.375 0
0.90625 0.390625 0
0.890625 0.390625 0
0.890625 0.375 0
0.90625 0.375 0
0.9375 0.375 0
0.90625 0.40625 0
0.921875 0.375 0
0.921875 0.390625 0
0.90625 0.390625 0
0.9375 0.34375 0
0.90625 0.34375 0
0.9375 0.3125 0
0.921875 0.34375 0
0.921875 0.328125 0
0.9375 0.328125 0
0.9375 0.34375 0
0.9375 0.375 0
0.90625 0.34375 0
0.9375 0.359375 0
0.921875 0.359375 0
0.921875 0.34375 0
0.9375 0.34375 0
0.9375 0.3125 0
0.96875 0.34375 0
0.9375 0.328125 0
0.953125 0.328125 0
0.953125 0.34375 0
0.9375 0.34375 0
0.96875 0.34375 0
0.9375 0.375 0
0.953125 0.34375 0
0.953125 0.359375 0
0.9375 0.359375 0
0.90625 0.25 0
0.90625 0.28125 0
0.875 0.25 0
0.90625 0.265625 0
0.890625 0.265625 0
0.890625 0.25 0
0.90625 0.25 0
0.9375 0.25 0
0.90625 0.28125 0
0.921875 0.25 0
0.921875 0.265625 0
0.90625 0.265625 0
0.90625 0.25 0
0.875 0.25 0
0.90625 0.21875 0
0.890625 0.25 0
0.890625 0.234375 0
0.90625 0.234375 0
0.90625 0.25 0
0.90625 0.21875 0
0.9375 0.25 0
0.90625 0.234375 0
0.921875 0.234375 0
0.921875 0.25 0
0.9375 0.28125 0
0.9375 0.3125 0
0.90625 0.28125 0
0.9375 0.296875 0
0.921875 0.296875 0
0.921875 0.28125 0
0.9375 0.28125 0
0.90625 0.28125 0
0.9375 0.25 0
0.921875 0.28125 0
0.921875 0.265625 0
0.9375 0.265625 0
0.9375 0.28125 0
0.96875 0.28125 0
0.9375 0.3125 0
0.953125 0.28125 0
0.953125 0.296875 0
0.9375 0.296875 0
0.9375 0.28125 0
0.9375 0.25 0
0.96875 0.28125 0
0.9375 0.265625 0
0.953125 0.265625 0
0.953125 0.28125 0
0.84375 0.5 0
0.84375 0.46875 0
0.875 0.5 0
0.84375 0.484375 0
0.859375 0.484375 0
0.859375 0.5 0
0.84375 0.5 0
0.8125 0.5 0
0.84375 0.46875 0
0.828125 0.5 0
0.828125 0.484375 0
0.84375 0.484375 0
0.84375 0.5 0
0.875 0.5 0
0.84375 0.53125 0
0.859375 0.5 0
0.859375 0.515625 0
0.84375 0.515625 0
0.84375 0.5 0
0.84375 0.53125 0
0.8125 0.5 0
0.84375 0.515625 0
0.828125 0.515625 0
0.828125 0.5 0
0.875 0.46875 0
0.875 0.5 0
0.84375 0.46875 0
0.875 0.484375 0
0.859375 0.484375 0
0.859375 0.46875 0
0.875 0.46875 0
0.84375 0.46875 0
0.875 0.4375 0
0.859375 0.46875 0
0.859375 0.453125 0
0.875 0.453125 0
0.875 0.46875 0
0.90625 0.46875 0
0.875 0.5 0
0.890625 0.46875 0
0.890625 0.484375 0
0.875 0.484375 0
0.875 0.46875 0
0.875 0.4375 0
0.90625 0.46875 0
0.875 0.453125 0
0.890625 0.453125 0
0.890625 0.46875 0
0.875 0.53125 0
0.84375 0.53125 0
0.875 0.5 0
0.859375 0.53125 0
0.859375 0.515625 0
0.875 0.515625 0
0.875 0.53125 0
0.875 0.5625 0
0.84375 0.53125 0
0.875 0.546875 0
0.859375 0.546875 0
0.859375 0.53125 0
0.875 0.53125 0
0.875 0.5 0
0.90625 0.53125 0
0.875 0.515625 0
0.890625 0.515625 0
0.890625 0.53125 0
0.875 0.53125 0
0.90625 0.53125 0
0.875 0.5625 0
0.890625 0.53125 0
0.890625 0.546875 0
0.875 0.546875 0
0.84375 0.5625 0
0.8125 0.5625 0
0.84375 0.53125 0
0.828125 0.5625 0
0.828125 0.546875 0
0.84375 0.546875 0
0.84375 0.5625 0
0.84375 0.53125 0
0.875 0.5625 0
0.84375 0.546875 0
0.859375 0.546875 0
0.859375 0.5625 0
0.84375 0.5625 0
0.84375 0.59375 0
0.8125 0.5625 0
0.84375 0.578125 0
0.828125 0.578125 0
0.828125 0.5625 0
0.84375 0.5625 0
0.875 0.5625 0
0.84375 0.59375 0
0.859375 0.5625 0
0.859375 0.578125 0
0.84375 0.578125 0
0.90625 0.4375 0
0.90625 0.40625 0
0.9375 0.4375 0
0.90625 0.421875 0
0.921875 0.421875 0
0.921875 0.4375 0
0.90625 0.4375 0
0.875 0.4375 0
0.90625 0.40625 0
0.890625 0.4375 0
0.890625 0.421875 0
0.90625 0.421875 0
0.90625 0.4375 0
0.9375 0.4375 0
0.90625 0.46875 0
0.921875 0.4375 0
0.921875 0.453125 0
0.90625 0.453125 0
0.90625 0.4375 0
0.90625 0.46875 0
0.875 0.4375 0
0.90625 0.453125 0
0.890625 0.453125 0
0.890625 0.4375 0
0.9375 0.40625 0
0.9375 0.4375 0
0.90625 0.40625 0
0.9375 0.421875 0
0.921875 0.421875 0
0.921875 0.40625 0
0.9375 0.40625 0
0.90625 0.40625 0
0.9375 0.375 0
0.921875 0.40625 0
0.921875 0.390625 0
0.9375 0.390625 0
0.9375 0.40625 0
0.96875 0.40625 0
0.9375 0.4375 0
0.953125 0.40625 0
0.953125 0.421875 0
0.9375 0.421875 0
0.9375 0.40625 0
0.9375 0.375 0
0.96875 0.40625 0
0.9375 0.390625 0
0.953125 0.390625 0
0.953125 0.40625 0
0.90625 0.5 0
0.875 0.5 0
0.90625 0.46875 0
0.890625 0.5 0
0.890625 0.484375 0
0.90625 0.484375 0
0.90625 0.5 0
0.90625 0.46875 0
0.9375 0.5 0
0.90625 0.484375 0
0.921875 0.484375 0
0.921875 0.5 0
0.90625 0.5 0
0.90625 0.53125 0
0.875 0.5 0
0.90625 0.515625 0
0.890625 0.515625 0
0.890625 0.5 0
0.90625 0.5 0
0.9375 0.5 0
0.90625 0.53125 0
0.921875 0.5 0
0.921875 0.515625 0
0.90625 0.515625 0
0.9375 0.46875 0
0.90625 0.46875 0
0.9375 0.4375 0
0.921875 0.46875 0
0.921875 0.453125 0
0.9375 0.453125 0
0.9375 0.46875 0
0.9375 0.5 0
0.90625 0.46875 0
0.9375 0.484375 0
0.921875 0.484375 0
0.921875 0.46875 0
0.9375 0.46875 0
0.9375 0.4375 0
0.96875 0.46875 0
0.9375 0.453125 0
0.953125 0.453125 0
0.953125 0.46875 0
0.9375 0.46875 0
0.96875 0.46875 0
0.9375 0.5 0
0.953125 0.46875 0
0.953125 0.484375 0
0.9375 0.484375 0
0.71875 0 0
0.75 0 0
0.71875 0.03125 0
0.734375 0 0
0.734375 0.015625 0
0.71875 0.015625 0
0.71875 0 0
0.71875 0.03125 0
0.6875 0 0
0.71875 0.015625 0
0.703125 0.015625 0
0.703125 0 0
0.75 0.03125 0
0.71875 0.03125 0
0.75 0 0
0.734375 0.03125 0
0.734375 0.015625 0
0.75 0.015625 0
0.75 0.03125 0
0.75 0.0625 0
0.71875 0.03125 0
0.75 0.046875 0
0.734375 0.046875 0
0.734375 0.03125 0
0.75 0.03125 0
0.75 0 0
0.78125 0.03125 0
0.75 0.015625 0
0.765625 0.015625 0
0.765625 0.03125 0
0.75 0.03125 0
0.78125 0.03125 0
0.75 0.0625 0
0.765625 0.03125 0
0.765625 0.046875 0
0.75 0.046875 0
0.78125 0.0625 0
0.78125 0.03125 0
0.8125 0.0625 0
0.78125 0.046875 0
0.796875 0.046875 0
0.796875 0.0625 0
0.78125 0.0625 0
0.75 0.0625 0
0.78125 0.03125 0
0.765625 0.0625 0
0.765625 0.046875 0
0.78125 0.046875 0
0.78125 0.0625 0
0.8125 0.0625 0
0.78125 0.09375 0
0.796875 0.0625 0
0.796875 0.078125 0
0.78125 0.078125 0
0.78125 0.0625 0
0.78125 0.09375 0
0.75 0.0625 0
0.78125 0.078125 0
0.765625 0.078125 0
0.765625 0.0625 0
0.78125 0 0
0.78125 0.03125 0
0.75 0 0
0.78125 0.015625 0
0.765625 0.015625 0
0.765625 0 0
0.78125 0 0
0.8125 0 0
0.78125 0.03125 0
0.796875 0 0
0.796875 0.015625 0
0.78125 0.015625 0
0.8125 0.03125 0
0.8125 0.0625 0
0.78125 0.03125 0
0.8125 0.046875 0
0.796875 0.046875 0
0.796875 0.03125 0
0.8125 0.03125 0
0.78125 0.03125 0
0.8125 0 0
0.796875 0.03125 0
0.796875 0.015625 0
0.8125 0.015625 0
0.8125 0.03125 0
0.84375 0.03125 0
0.8125 0.0625 0
0.828125 0.03125 0
0.828125 0.046875 0
0.8125 0.046875 0
0.8125 0.03125 0
0.8125 0 0
0.84375 0.03125 0
0.8125 0.015625 0
0.828125 0.015625 0
0.828125 0.03125 0
0.8125 0.09375 0
0.78125 0.09375 0
0.8125 0.0625 0
0.796875 0.09375 0
0.796875 0.078125 0
0.8125 0.078125 0
0.8125 0.09375 0
0.8125 0.125 0
0.78125 0.09375 0
0.8125 0.109375 0
0.796875 0.109375 0
0.796875 0.09375 0
0.8125 0.09375 0
0.8125 0.0625 0
0.84375 0.09375 0
0.8125 0.078125 0
0.828125 0.078125 0
0.828125 0.09375 0
0.8125 0.09375 0
0.84375 0.09375 0
0.8125 0.125 0
0.828125 0.09375 0
0.828125 0.109375 0
0.8125 0.109375 0
0.84375 0.125 0
0.875 0.125 0
0.84375 0.15625 0
0.859375 0.125 0
0.859375 0.140625 0
0.84375 0.140625 0
0.84375 0.125 0
0.84375 0.15625 0
0.8125 0.125 0
0.84375 0.140625 0
0.828125 0.140625 0
0.828125 0.125 0
0.84375 0.125 0
0.84375 0.09375 0
0.875 0.125 0
0.84375 0.109375 0
0.859375 0.109375 0
0.859375 0.125 0
0.84375 0.125 0
0.8125 0.125 0
0.84375 0.09375 0
0.828125 0.125 0
0.828125 0.109375 0
0.84375 0.109375 0
0.875 0.15625 0
0.84375 0.15625 0
0.875 0.125 0
0.859375 0.15625 0
0.859375 0.140625 0
0.875 0.140625 0
0.875 0.15625 0
0.875 0.1875 0
0.84375 0.15625 0
0.875 0.171875 0
0.859375 0.171875 0
0.859375 0.15625 0
0.875 0.15625 0
0.875 0.125 0
0.90625 0.15625 0
0.875 0.140625 0
0.890625 0.140625 0
0.890625 0.15625 0
0.875 0.15625 0
0.90625 0.15625 0
0.875 0.1875 0
0.890625 0.15625 0
0.890625 0.171875 0
0.875 0.171875 0
0.875 0.09375 0
0.875 0.125 0
0.84375 0.09375 0
0.875 0.109375 0
0.859375 0.109375 0
0.859375 0.09375 0
0.875 0.09375 0
0.84375 0.09375 0
0.875 0.0625 0
0.859375 0.09375 0
0.859375 0.078125 0
0.875 0.078125 0
0.875 0.09375 0
0.90625 0.09375 0
0.875 0.125 0
0.890625 0.09375 0
0.890625 0.109375 0
0.875 0.109375 0
0.875 0.09375 0
0.875 0.0625 0
0.90625 0.09375 0
0.875 0.078125 0
0.890625 0.078125 0
0.890625 0.09375 0
0.84375 0.0625 0
0.84375 0.09375 0
0.8125 0.0625 0
0.84375 0.078125 0
0.828125 0.078125 0
0.828125 0.0625 0
0.84375 0.0625 0
0.875 0.0625 0
0.84375 0.09375 0
0.859375 0.0625 0
0.859375 0.078125 0
0.84375 0.078125 0
0.84375 0.0625 0
0.8125 0.0625 0
0.84375 0.03125 0
0.828125 0.0625 0
0.828125 0.046875 0
0.84375 0.046875 0
0.84375 0.0625 0
0.84375 0.03125 0
0.875 0.0625 0
0.84375 0.046875 0
0.859375 0.046875 0
0.859375 0.0625 0
0.90625 0.1875 0
0.90625 0.15625 0
0.9375 0.1875 0
0.90625 0.171875 0
0.921875 0.171875 0
0.921875 0.1875 0
0.90625 0.1875 0
0.875 0.1875 0
0.90625 0.15625 0
0.890625 0.1875 0
0.890625 0.171875 0
0.90625 0.171875 0
0.90625 0.1875 0
0.9375 0.1875 0
0.90625 0.21875 0
0.921875 0.1875 0
0.921875 0.203125 0
0.90625 0.203125 0
0.90625 0.1875 0
0.90625 0.21875 0
0.875 0.1875 0
0.90625 0.203125 0
0.890625 0.203125 0
0.890625 0.1875 0
0.90625 0.125 0
0.90625 0.15625 0
0.875 0.125 0
0.90625 0.140625 0
0.890625 0.140625 0
0.890625 0.125 0
0.90625 0.125 0
0.9375 0.125 0
0.90625 0.15625 0
0.921875 0.125 0
0.921875 0.140625 0
0.90625 0.140625 0
0.90625 0.125 0
0.875 0.125 0
0.90625 0.09375 0
0.890625 0.125 0
0.890625 0.109375 0
0.90625 0.109375 0
0.90625 0.125 0
0.90625 0.09375 0
0.9375 0.125 0
0.90625 0.109375 0
0.921875 0.109375 0
0.921875 0.125 0
0.9375 0.15625 0
0.9375 0.1875 0
0.90625 0.15625 0
0.9375 0.171875 0
0.921875 0.171875 0
0.921875 0.15625 0
0.9375 0.15625 0
0.90625 0.15625 0
0.9375 0.125 0
0.921875 0.15625 0
0.921875 0.140625 0
0.9375 0.140625 0
0.9375 0.15625 0
0.96875 0.15625 0
0.9375 0.1875 0
0.953125 0.15625 0
0.953125 0.171875 0
0.9375 0.171875 0
0.9375 0.15625 0
0.9375 0.125 0
0.96875 0.15625 0
0.9375 0.140625 0
0.953125 0.140625 0
0.953125 0.15625 0
0.9375 0.21875 0
0.90625 0.21875 0
0.9375 0.1875 0
0.921875 0.21875 0
0.921875 0.203125 0
0.9375 0.203125 0
0.9375 0.21875 0
0.9375 0.25 0
0.90625 0.21875 0
0.9375 0.234375 0
0.921875 0.234375 0
0.921875 0.21875 0
0.9375 0.21875 0
0.9375 0.1875 0
0.96875 0.21875 0
0.9375 0.203125 0
0.953125 0.203125 0
0.953125 0.21875 0
0.9375 0.21875 0
0.96875 0.21875 0
0.9375 0.25 0
0.953125 0.21875 0
0.953125 0.234375 0
0.9375 0.234375 0
0.84375 0 0
0.875 0 0
0.84375 0.03125 0
0.859375 0 0
0.859375 0.015625 0
0.84375 0.015625 0
0.84375 0 0
0.84375 0.03125 0
0.8125 0 0
0.84375 0.015625 0
0.828125 0.015625 0
0.828125 0 0
0.875 0.03125 0
0.84375 0.03125 0
0.875 0 0
0.859375 0.03125 0
0.859375 0.015625 0
0.875 0.015625 0
0.875 0.03125 0
0.875 0.0625 0
0.84375 0.03125 0
0.875 0.046875 0
0.859375 0.046875 0
0.859375 0.03125 0
0.875 0.03125 0
0.875 0 0
0.90625 0.03125 0
0.875 0.015625 0
0.890625 0.015625 0
0.890625 0.03125 0
0.875 0.03125 0
0.90625 0.03125 0
0.875 0.0625 0
0.890625 0.03125 0
0.890625 0.046875 0
0.875 0.046875 0
0.90625 0.0625 0
0.9375 0.0625 0
0.90625 0.09375 0
0.921875 0.0625 0
0.921875 0.078125 0
0.90625 0.078125 0
0.90625 0.0625 0
0.90625 0.09375 0
0.875 0.0625 0
0.90625 0.078125 0
0.890625 0.078125 0
0.890625 0.0625 0
0.90625 0.0625 0
0.90625 0.03125 0
0.9375 0.0625 0
0.90625 0.046875 0
0.921875 0.046875 0
0.921875 0.0625 0
0.90625 0.0625 0
0.875 0.0625 0
0.90625 0.03125 0
0.890625 0.0625 0
0.890625 0.046875 0
0.90625 0.046875 0
0.9375 0.09375 0
0.90625 0.09375 0
0.9375 0.0625 0
0.921875 0.09375 0
0.921875 0.078125 0
0.9375 0.078125 0
0.9375 0.09375 0
0.9375 0.125 0
0.90625 0.09375 0
0.9375 0.109375 0
0.921875 0.109375 0
0.921875 0.09375 0
0.9375 0.09375 0
0.9375 0.0625 0
0.96875 0.09375 0
0.9375 0.078125 0
0.953125 0.078125 0
0.953125 0.09375 0
0.9375 0.09375 0
0.96875 0.09375 0
0.9375 0.125 0
0.953125 0.09375 0
0.953125 0.109375 0
0.9375 0.109375 0
0.90625 0 0
0.90625 0.03125 0
0.875 0 0
0.90625 0.015625 0
0.890625 0.015625 0
0.890625 0 0
0.90625 0 0
0.9375 0 0
0.90625 0.03125 0
0.921875 0 0
0.921875 0.015625 0
0.90625 0.015625 0
0.9375 0.03125 0
0.9375 0.0625 0
0.90625 0.03125 0
0.9375 0.046875 0
0.921875 0.046875 0
0.921875 0.03125 0
0.9375 0.03125 0
0.90625 0.03125 0
0.9375 0 0
0.921875 0.03125 0
0.921875 0.015625 0
0.9375 0.015625 0
0.9375 0.03125 0
0.96875 0.03125 0
0.9375 0.0625 0
0.953125 0.03125 0
0.953125 0.046875 0
0.9375 0.046875 0
0.9375 0.03125 0
0.9375 0 0
0.96875 0.03125 0
0.9375 0.015625 0
0.953125 0.015625 0
0.953125 0.03125 0
0 0.96875 0
0.03125 0.96875 0
0 1 0
0.015625 0.96875 0
0.015625 0.984375 0
0 0.984375 0
0 0.96875 0
0 0.9375 0
0.03125 0.96875 0
0 0.953125 0
0.015625 0.953125 0
0.015625 0.96875 0
0.03125 1 0
0 1 0
0.03125 0.96875 0
0.015625 1 0
0.015625 0.984375 0
0.03125 0.984375 0
0.03125 1 0
0.03125 0.96875 0
0.0625 1 0
0.03125 0.984375 0
0.046875 0.984375 0
0.046875 1 0
0.0625 0.96875 0
0.03125 0.96875 0
0.0625 0.9375 0
0.046875 0.96875 0
0.046875 0.953125 0
0.0625 0.953125 0
0.0625 0.96875 0
0.0625 1 0
0.03125 0.96875 0
0.0625 0.984375 0
0.046875 0.984375 0
0.046875 0.96875 0
0.0625 0.96875 0
0.0625 0.9375 0
0.09375 0.96875 0
0.0625 0.953125 0
0.078125 0.953125 0
0.078125 0.96875 0
0.0625 0.96875 0
0.09375 0.96875 0
0.0625 1 0
0.078125 0.96875 0
0.078125 0.984375 0
0.0625 0.984375 0
0.09375 1 0
0.09375 0.96875 0
0.125 1 0
0.09375 0.984375 0
0.109375 0.984375 0
0.109375 1 0
0.09375 1 0
0.0625 1 0
0.09375 0.96875 0
0.078125 1 0
0.078125 0.984375 0
0.09375 0.984375 0
0.125 0.96875 0
0.125 1 0
0.09375 0.96875 0
0.125 0.984375 0
0.109375 0.984375 0
0.109375 0.96875 0
0.125 0.96875 0
0.09375 0.96875 0
0.125 0.9375 0
0.109375 0.96875 0
0.109375 0.953125 0
0.125 0.953125 0
0.125 0.96875 0
0.15625 0.96875 0
0.125 1 0
0.140625 0.96875 0
0.140625 0.984375 0
0.125 0.984375 0
0.125 0.96875 0
0.125 0.9375 0
0.15625 0.96875 0
0.125 0.953125 0
0.140625 0.953125 0
0.140625 0.96875 0
0.15625 1 0
0.125 1 0
0.15625 0.96875 0
0.140625 1 0
0.140625 0.984375 0
0.15625 0.984375 0
0.15625 1 0
0.15625 0.96875 0
0.1875 1 0
0.15625 0.984375 0
0.171875 0.984375 0
0.171875 1 0
0.1875 0.96875 0
0.15625 0.96875 0
0.1875 0.9375 0
0.171875 0.96875 0
0.171875 0.953125 0
0.1875 0.953125 0
0.1875 0.96875 0
0.1875 1 0
0.15625 0.96875 0
0.1875 0.984375 0
0.171875 0.984375 0
0.171875 0.96875 0
0.1875 0.96875 0
0.1875 0.9375 0
0.21875 0.96875 0
0.1875 0.953125 0
0.203125 0.953125 0
0.203125 0.96875 0
0.1875 0.96875 0
0.21875 0.96875 0
0.1875 1 0
0.203125 0.96875 0
0.203125 0.984375 0
0.1875 0.984375 0
0.21875 1 0
0.21875 0.96875 0
0.25 1 0
0.21875 0.984375 0
0.234375 0.984375 0
0.234375 1 0
0.21875 1 0
0.1875 1 0
0.21875 0.96875 0
0.203125 1 0
0.203125 0.984375 0
0.21875 0.984375 0
0.25 0.96875 0
0.25 1 0
0.21875 0.96875 0
0.25 0.984375 0
0.234375 0.984375 0
0.234375 0.96875 0
0.25 0.96875 0
0.21875 0.96875 0
0.25 0.9375 0
0.234375 0.96875 0
0.234375 0.953125 0
0.25 0.953125 0
0.25 0.96875 0
0.28125 0.96875 0
0.25 1 0
0.265625 0.96875 0
0.265625 0.984375 0
0.25 0.984375 0
0.25 0.96875 0
0.25 0.9375 0
0.28125 0.96875 0
0.25 0.953125 0
0.265625 0.953125 0
0.265625 0.96875 0
0.28125 1 0
0.25 1 0
0.28125 0.96875 0
0.265625 1 0
0.265625 0.984375 0
0.28125 0.984375 0
0.28125 1 0
0.28125 0.96875 0
0.3125 1 0
0.28125 0.984375 0
0.296875 0.984375 0
0.296875 1 0
0.3125 0.96875 0
0.28125 0.96875 0
0.3125 0.9375 0
0.296875 0.96875 0
0.296875 0.953125 0
0.3125 0.953125 0
0.3125 0.96875 0
0.3125 1 0
0.28125 0.96875 0
0.3125 0.984375 0
0.296875 0.984375 0
0.296875 0.96875 0
0.3125 0.96875 0
0.3125 0.9375 0
0.34375 0.96875 0
0.3125 0.953125 0
0.328125 0.953125 0
0.328125 0.96875 0
0.3125 0.96875 0
0.34375 0.96875 0
0.3125 1 0
0.328125 0.96875 0
0.328125 0.984375 0
0.3125 0.984375 0
0.34375 1 0
0.34375 0.96875 0
0.375 1 0
0.34375 0.984375 0
0.359375 0.984375 0
0.359375 1 0
0.34375 1 0
0.3125 1 0
0.34375 0.96875 0
0.328125 1 0
0.328125 0.984375 0
0.34375 0.984375 0
0.375 0.96875 0
0.375 1 0
0.34375 0.96875 0
0.375 0.984375 0
0.359375 0.984375 0
0.359375 0.96875 0
0.375 0.96875 0
0.34375 0.96875 0
0.375 0.9375 0
0.359375 0.96875 0
0.359375 0.953125 0
0.375 0.953125 0
0.375 0.96875 0
0.40625 0.96875 0
0.375 1 0
0.390625 0.96875 0
0.390625 0.984375 0
0.375 0.984375 0
0.375 0.96875 0
0.375 0.9375 0
0.40625 0.96875 0
0.375 0.953125 0
0.390625 0.953125 0
0.390625 0.96875 0
0.40625 1 0
0.375 1 0
0.40625 0.96875 0
0.390625 1 0
0.390625 0.984375 0
0.40625 0.984375 0
0.40625 1 0
0.40625 0.96875 0
0.4375 1 0
0.40625 0.984375 0
0.421875 0.984375 0
0.421875 1 0
0.4375 0.96875 0
0.40625 0.96875 0
0.4375 0.9375 0
0.421875 0.96875 0
0.421875 0.953125 0
0.4375 0.953125 0
0.4375 0.96875 0
0.4375 1 0
0.40625 0.96875 0
0.4375 0.984375 0
0.421875 0.984375 0
0.421875 0.96875 0
0.4375 0.96875 0
0.4375 0.9375 0
0.46875 0.96875 0
0.4375 0.953125 0
0.453125 0.953125 0
0.453125 0.96875 0
0.4375 0.96875 0
0.46875 0.96875 0
0.4375 1 0
0.453125 0.96875 0
0.453125 0.984375 0
0.4375 0.984375 0
0.46875 1 0
0.46875 0.96875 0
0.5 1 0
0.46875 0.984375 0
0.484375 0.984375 0
0.484375 1 0
0.46875 1 0
0.4375 1 0
0.46875 0.96875 0
0.453125 1 0
0.453125 0.984375 0
0.46875 0.984375 0
0.5 0.96875 0
0.5 1 0
0.46875 0.96875 0
0.5 0.984375 0
0.484375 0.984375 0
0.484375 0.96875 0
0.5 0.96875 0
0.46875 0.96875 0
0.5 0.9375 0
0.484375 0.96875 0
0.484375 0.953125 0
0.5 0.953125 0
0.5 0.96875 0
0.53125 0.96875 0
0.5 1 0
0.515625 0.96875 0
0.515625 0.984375 0
0.5 0.984375 0
0.5 0.96875 0
0.5 0.9375 0
0.53125 0.96875 0
0.5 0.953125 0
0.515625 0.953125 0
0.515625 0.96875 0
0.53125 0.9375 0
0.5625 0.9375 0
0.53125 0.96875 0
0.546875 0.9375 0
0.546875 0.953125 0
0.53125 0.953125 0
0.53125 0.9375 0
0.53125 0.96875 0
0.5 0.9375 0
0.53125 0.953125 0
0.515625 0.953125 0
0.515625 0.9375 0
0.53125 0.9375 0
0.53125 0.90625 0
0.5625 0.9375 0
0.53125 0.921875 0
0.546875 0.921875 0
0.546875 0.9375 0
0.53125 0.9375 0
0.5 0.9375 0
0.53125 0.90625 0
0.515625 0.9375 0
0.515625 0.921875 0
0.53125 0.921875 0
0.53125 1 0
0.5 1 0
0.53125 0.96875 0
0.515625 1 0
0.515625 0.984375 0
0.53125 0.984375 0
0.53125 1 0
0.53125 0.96875 0
0.5625 1 0
0.53125 0.984375 0
0.546875 0.984375 0
0.546875 1 0
0.5625 0.96875 0
0.53125 0.96875 0
0.5625 0.9375 0
0.546875 0.96875 0
0.546875 0.953125 0
0.5625 0.953125 0
0.5625 0.96875 0
0.5625 1 0
0.53125 0.96875 0
0.5625 0.984375 0
0.546875 0.984375 0
0.546875 0.96875 0
0.5625 0.96875 0
0.5625 0.9375 0
0.59375 0.96875 0
0.5625 0.953125 0
0.578125 0.953125 0
0.578125 0.96875 0
0.5625 0.96875 0
0.59375 0.96875 0
0.5625 1 0
0.578125 0.96875 0
0.578125 0.984375 0
0.5625 0.984375 0
0.5625 0.90625 0
0.5625 0.9375 0
0.53125 0.90625 0
0.5625 0.921875 0
0.546875 0.921875 0
0.546875 0.90625 0
0.5625 0.90625 0
0.53125 0.90625 0
0.5625 0.875 0
0.546875 0.90625 0
0.546875 0.890625 0
0.5625 0.890625 0
0.5625 0.90625 0
0.59375 0.90625 0
0.5625 0.9375 0
0.578125 0.90625 0
0.578125 0.921875 0
0.5625 0.921875 0
0.5625 0.90625 0
0.5625 0.875 0
0.59375 0.90625 0
0.5625 0.890625 0
0.578125 0.890625 0
0.578125 0.90625 0
0.59375 0.875 0
0.625 0.875 0
0.59375 0.90625 0
0.609375 0.875 0
0.609375 0.890625 0
0.59375 0.890625 0
0.59375 0.875 0
0.59375 0.90625 0
0.5625 0.875 0
0.59375 0.890625 0
0.578125 0.890625 0
0.578125 0.875 0
0.59375 0.875 0
0.59375 0.84375 0
0.625 0.875 0
0.59375 0.859375 0
0.609375 0.859375 0
0.609375 0.875 0
0.59375 0.875 0
0.5625 0.875 0
0.59375 0.84375 0
0.578125 0.875 0
0.578125 0.859375 0
0.59375 0.859375 0
0.625 0.90625 0
0.59375 0.90625 0
0.625 0.875 0
0.609375 0.90625 0
0.609375 0.890625 0
0.625 0.890625 0
0.625 0.90625 0
0.625 0.9375 0
0.59375 0.90625 0
0.625 0.921875 0
0.609375 0.921875 0
0.609375 0.90625 0
0.625 0.90625 0
0.625 0.875 0
0.65625 0.90625 0
0.625 0.890625 0
0.640625 0.890625 0
0.640625 0.90625 0
0.625 0.90625 0
0.65625 0.90625 0
0.625 0.9375 0
0.640625 0.90625 0
0.640625 0.921875 0
0.625 0.921875 0
0.59375 0.9375 0
0.5625 0.9375 0
0.59375 0.90625 0
0.578125 0.9375 0
0.578125 0.921875 0
0.59375 0.921875 0
0.59375 0.9375 0
0.59375 0.90625 0
0.625 0.9375 0
0.59375 0.921875 0
0.609375 0.921875 0
0.609375 0.9375 0
0.59375 0.9375 0
0.59375 0.96875 0
0.5625 0.9375 0
0.59375 0.953125 0
0.578125 0.953125 0
0.578125 0.9375 0
0.59375 0.9375 0
0.625 0.9375 0
0.59375 0.96875 0
0.609375 0.9375 0
0.609375 0.953125 0
0.59375 0.953125 0
0.625 0.84375 0
0.625 0.875 0
0.59375 0.84375 0
0.625 0.859375 0
0.609375 0.859375 0
0.609375 0.84375 0
0.625 0.84375 0
0.59375 0.84375 0
0.625 0.8125 0
0.609375 0.84375 0
0.609375 0.828125 0
0.625 0.828125 0
0.625 0.84375 0
0.65625 0.84375 0
0.625 0.875 0
0.640625 0.84375 0
0.640625 0.859375 0
0.625 0.859375 0
0.625 0.84375 0
0.625 0.8125 0
0.65625 0.84375 0
0.625 0.828125 0
0.640625 0.828125 0
0.640625 0.84375 0
0.59375 1 0
0.59375 0.96875 0
0.625 1 0
0.59375 0.984375 0
0.609375 0.984375 0
0.609375 1 0
0.59375 1 0
0.5625 1 0
0.59375 0.96875 0
0.578125 1 0
0.578125 0.984375 0
0.59375 0.984375 0
0.625 0.96875 0
0.625 1 0
0.59375 0.96875 0
0.625 0.984375 0
0.609375 0.984375 0
0.609375 0.96875 0
0.625 0.96875 0
0.59375 0.96875 0
0.625 0.9375 0
0.609375 0.96875 0
0.609375 0.953125 0
0.625 0.953125 0
0.625 0.96875 0
0.65625 0.96875 0
0.625 1 0
0.640625 0.96875 0
0.640625 0.984375 0
0.625 0.984375 0
0.625 0.96875 0
0.625 0.9375 0
0.65625 0.96875 0
0.625 0.953125 0
0.640625 0.953125 0
0.640625 0.96875 0
0.65625 0.9375 0
0.65625 0.90625 0
0.6875 0.9375 0
0.65625 0.921875 0
0.671875 0.921875 0
0.671875 0.9375 0
0.65625 0.9375 0
0.625 0.9375 0
0.65625 0.90625 0
0.640625 0.9375 0
0.640625 0.921875 0
0.65625 0.921875 0
0.65625 0.9375 0
0.6875 0.9375 0
0.65625 0.96875 0
0.671875 0.9375 0
0.671875 0.953125 0
0.65625 0.953125 0
0.65625 0.9375 0
0.65625 0.96875 0
0.625 0.9375 0
0.65625 0.953125 0
0.640625 0.953125 0
0.640625 0.9375 0
0.65625 0.875 0
0.65625 0.90625 0
0.625 0.875 0
0.65625 0.890625 0
0.640625 0.890625 0
0.640625 0.875 0
0.65625 0.875 0
0.6875 0.875 0
0.65625 0.90625 0
0.671875 0.875 0
0.671875 0.890625 0
0.65625 0.890625 0
0.65625 0.875 0
0.625 0.875 0
0.65625 0.84375 0
0.640625 0.875 0
0.640625 0.859375 0
0.65625 0.859375 0
0.65625 0.875 0
0.65625 0.84375 0
0.6875 0.875 0
0.65625 0.859375 0
0.671875 0.859375 0
0.671875 0.875 0
0.6875 0.90625 0
0.6875 0.9375 0
0.65625 0.90625 0
0.6875 0.921875 0
0.671875 0.921875 0
0.671875 0.90625 0
0.6875 0.90625 0
0.65625 0.90625 0
0.6875 0.875 0
0.671875 0.90625 0
0.671875 0.890625 0
0.6875 0.890625 0
0.6875 0.90625 0
0.71875 0.90625 0
0.6875 0.9375 0
0.703125 0.90625 0
0.703125 0.921875 0
0.6875 0.921875 0
0.6875 0.90625 0
0.6875 0.875 0
0.71875 0.90625 0
0.6875 0.890625 0
0.703125 0.890625 0
0.703125 0.90625 0
0.65625 1 0
0.625 1 0
0.65625 0.96875 0
0.640625 1 0
0.640625 0.984375 0
0.65625 0.984375 0
0.65625 1 0
0.65625 0.96875 0
0.6875 1 0
0.65625 0.984375 0
0.671875 0.984375 0
0.671875 1 0
0.6875 0.96875 0
0.65625 0.96875 0
0.6875 0.9375 0
0.671875 0.96875 0
0.671875 0.953125 0
0.6875 0.953125 0
0.6875 0.96875 0
0.6875 1 0
0.65625 0.96875 0
0.6875 0.984375 0
0.671875 0.984375 0
0.671875 0.96875 0
0.6875 0.96875 0
0.6875 0.9375 0
0.71875 0.96875 0
0.6875 0.953125 0
0.703125 0.953125 0
0.703125 0.96875 0
0.6875 0.96875 0
0.71875 0.96875 0
0.6875 1 0
0.703125 0.96875 0
0.703125 0.984375 0
0.6875 0.984375 0
0.65625 0.8125 0
0.6875 0.8125 0
0.65625 0.84375 0
0.671875 0.8125 0
0.671875 0.828125 0
0.65625 0.828125 0
0.65625 0.8125 0
0.65625 0.84375 0
0.625 0.8125 0
0.65625 0.828125 0
0.640625 0.828125 0
0.640625 0.8125 0
0.65625 0.8125 0
0.65625 0.78125 0
0.6875 0.8125 0
0.65625 0.796875 0
0.671875 0.796875 0
0.671875 0.8125 0
0.65625 0.8125 0
0.625 0.8125 0
0.65625 0.78125 0
0.640625 0.8125 0
0.640625 0.796875 0
0.65625 0.796875 0
0.6875 0.84375 0
0.65625 0.84375 0
0.6875 0.8125 0
0.671875 0.84375 0
0.671875 0.828125 0
0.6875 0.828125 0
0.6875 0.84375 0
0.6875 0.875 0
0.65625 0.84375 0
0.6875 0.859375 0
0.671875 0.859375 0
0.671875 0.84375 0
0.6875 0.84375 0
0.6875 0.8125 0
0.71875 0.84375 0
0.6875 0.828125 0
0.703125 0.828125 0
0.703125 0.84375 0
0.6875 0.84375 0
0.71875 0.84375 0
0.6875 0.875 0
0.703125 0.84375 0
0.703125 0.859375 0
0.6875 0.859375 0
0.6875 0.78125 0
0.6875 0.8125 0
0.65625 0.78125 0
0.6875 0.796875 0
0.671875 0.796875 0
0.671875 0.78125 0
0.6875 0.78125 0
0.65625 0.78125 0
0.6875 0.75 0
0.671875 0.78125 0
0.671875 0.765625 0
0.6875 0.765625 0
0.6875 0.78125 0
0.71875 0.78125 0
0.6875 0.8125 0
0.703125 0.78125 0
0.703125 0.796875 0
0.6875 0.796875 0
0.6875 0.78125 0
0.6875 0.75 0
0.71875 0.78125 0
0.6875 0.765625 0
0.703125 0.765625 0
0.703125 0.78125 0
0.71875 0.75 0
0.71875 0.71875 0
0.75 0.75 0
0.71875 0.734375 0
0.734375 0.734375 0
0.734375 0.75 0
0.71875 0.75 0
0.6875 0.75 0
0.71875 0.71875 0
0.703125 0.75 0
0.703125 0.734375 0
0.71875 0.734375 0
0.71875 0.75 0
0.75 0.75 0
0.71875 0.78125 0
0.734375 0.75 0
0.734375 0.765625 0
0.71875 0.765625 0
0.71875 0.75 0
0.71875 0.78125 0
0.6875 0.75 0
0.71875 0.765625 0
0.703125 0.765625 0
0.703125 0.75 0
0.75 0.71875 0
0.75 0.75 0
0.71875 0.71875 0
0.75 0.734375 0
0.734375 0.734375 0
0.734375 0.71875 0
0.75 0.71875 0
0.71875 0.71875 0
0.75 0.6875 0
0.734375 0.71875 0
0.734375 0.703125 0
0.75 0.703125 0
0.75 0.71875 0
0.78125 0.71875 0
0.75 0.75 0
0.765625 0.71875 0
0.765625 0.734375 0
0.75 0.734375 0
0.75 0.71875 0
0.75 0.6875 0
0.78125 0.71875 0
0.75 0.703125 0
0.765625 0.703125 0
0.765625 0.71875 0
0.75 0.78125 0
0.71875 0.78125 0
0.75 0.75 0
0.734375 0.78125 0
0.734375 0.765625 0
0.75 0.765625 0
0.75 0.78125 0
0.75 0.8125 0
0.71875 0.78125 0
0.75 0.796875 0
0.734375 0.796875 0
0.734375 0.78125 0
0.75 0.78125 0
0.75 0.75 0
0.78125 0.78125 0
0.75 0.765625 0
0.765625 0.765625 0
0.765625 0.78125 0
0.75 0.78125 0
0.78125 0.78125 0
0.75 0.8125 0
0.765625 0.78125 0
0.765625 0.796875 0
0.75 0.796875 0
0.71875 0.8125 0
0.6875 0.8125 0
0.71875 0.78125 0
0.703125 0.8125 0
0.703125 0.796875 0
0.71875 0.796875 0
0.71875 0.8125 0
0.71875 0.78125 0
0.75 0.8125 0
0.71875 0.796875 0
0.734375 0.796875 0
0.734375 0.8125 0
0.71875 0.8125 0
0.71875 0.84375 0
0.6875 0.8125 0
0.71875 0.828125 0
0.703125 0.828125 0
0.703125 0.8125 0
0.71875 0.8125 0
0.75 0.8125 0
0.71875 0.84375 0
0.734375 0.8125 0
0.734375 0.828125 0
0.71875 0.828125 0
0.78125 0.6875 0
0.8125 0.6875 0
0.78125 0.71875 0
0.796875 0.6875 0
0.796875 0.703125 0
0.78125 0.703125 0
0.78125 0.6875 0
0.78125 0.71875 0
0.75 0.6875 0
0.78125 0.703125 0
0.765625 0.703125 0
0.765625 0.6875 0
0.78125 0.6875 0
0.78125 0.65625 0
0.8125 0.6875 0
0.78125 0.671875 0
0.796875 0.671875 0
0.796875 0.6875 0
0.78125 0.6875 0
0.75 0.6875 0
0.78125 0.65625 0
0.765625 0.6875 0
0.765625 0.671875 0
0.78125 0.671875 0
0.78125 0.75 0
0.75 0.75 0
0.78125 0.71875 0
0.765625 0.75 0
0.765625 0.734375 0
0.78125 0.734375 0
0.78125 0.75 0
0.78125 0.71875 0
0.8125 0.75 0
0.78125 0.734375 0
0.796875 0.734375 0
0.796875 0.75 0
0.78125 0.75 0
0.78125 0.78125 0
0.75 0.75 0
0.78125 0.765625 0
0.765625 0.765625 0
0.765625 0.75 0
0.78125 0.75 0
0.8125 0.75 0
0.78125 0.78125 0
0.796875 0.75 0
0.796875 0.765625 0
0.78125 0.765625 0
0.8125 0.71875 0
0.78125 0.71875 0
0.8125 0.6875 0
0.796875 0.71875 0
0.796875 0.703125 0
0.8125 0.703125 0
0.8125 0.71875 0
0.8125 0.75 0
0.78125 0.71875 0
0.8125 0.734375 0
0.796875 0.734375 0
0.796875 0.71875 0
0.8125 0.71875 0
0.8125 0.6875 0
0.84375 0.71875 0
0.8125 0.703125 0
0.828125 0.703125 0
0.828125 0.71875 0
0.8125 0.71875 0
0.84375 0.71875 0
0.8125 0.75 0
0.828125 0.71875 0
0.828125 0.734375 0
0.8125 0.734375 0
0.8125 0.65625 0
0.8125 0.6875 0
0.78125 0.65625 0
0.8125 0.671875 0
0.796875 0.671875 0
0.796875 0.65625 0
0.8125 0.65625 0
0.78125 0.65625 0
0.8125 0.625 0
0.796875 0.65625 0
0.796875 0.640625 0
0.8125 0.640625 0
0.8125 0.65625 0
0.84375 0.65625 0
0.8125 0.6875 0
0.828125 0.65625 0
0.828125 0.671875 0
0.8125 0.671875 0
0.8125 0.65625 0
0.8125 0.625 0
0.84375 0.65625 0
0.8125 0.640625 0
0.828125 0.640625 0
0.828125 0.65625 0
0.75 0.84375 0
0.75 0.875 0
0.71875 0.84375 0
0.75 0.859375 0
0.734375 0.859375 0
0.734375 0.84375 0
0.75 0.84375 0
0.71875 0.84375 0
0.75 0.8125 0
0.734375 0.84375 0
0.734375 0.828125 0
0.75 0.828125 0
0.75 0.84375 0
0.78125 0.84375 0
0.75 0.875 0
0.765625 0.84375 0
0.765625 0.859375 0
0.75 0.859375 0
0.75 0.84375 0
0.75 0.8125 0
0.78125 0.84375 0
0.75 0.828125 0
0.765625 0.828125 0
0.765625 0.84375 0
0.71875 0.875 0
0.71875 0.84375 0
0.75 0.875 0
0.71875 0.859375 0
0.734375 0.859375 0
0.734375 0.875 0
0.71875 0.875 0
0.6875 0.875 0
0.71875 0.84375 0
0.703125 0.875 0
0.703125 0.859375 0
0.71875 0.859375 0
0.71875 0.875 0
0.75 0.875 0
0.71875 0.90625 0
0.734375 0.875 0
0.734375 0.890625 0
0.71875 0.890625 0
0.71875 0.875 0
0.71875 0.90625 0
0.6875 0.875 0
0.71875 0.890625 0
0.703125 0.890625 0
0.703125 0.875 0
0.78125 0.8125 0
0.78125 0.78125 0
0.8125 0.8125 0
0.78125 0.796875 0
0.796875 0.796875 0
0.796875 0.8125 0
0.78125 0.8125 0
0.75 0.8125 0
0.78125 0.78125 0
0.765625 0.8125 0
0.765625 0.796875 0
0.78125 0.796875 0
0.78125 0.8125 0
0.8125 0.8125 0
0.78125 0.84375 0
0.796875 0.8125 0
0.796875 0.828125 0
0.78125 0.828125 0
0.78125 0.8125 0
0.78125 0.84375 0
0.75 0.8125 0
0.78125 0.828125 0
0.765625 0.828125 0
0.765625 0.8125 0
0.8125 0.78125 0
0.8125 0.8125 0
0.78125 0.78125 0
0.8125 0.796875 0
0.796875 0.796875 0
0.796875 0.78125 0
0.8125 0.78125 0
0.78125 0.78125 0
0.8125 0.75 0
0.796875 0.78125 0
0.796875 0.765625 0
0.8125 0.765625 0
0.8125 0.78125 0
0.84375 0.78125 0
0.8125 0.8125 0
0.828125 0.78125 0
0.828125 0.796875 0
0.8125 0.796875 0
0.8125 0.78125 0
0.8125 0.75 0
0.84375 0.78125 0
0.8125 0.765625 0
0.828125 0.765625 0
0.828125 0.78125 0
0.78125 0.875 0
0.75 0.875 0
0.78125 0.84375 0
0.765625 0.875 0
0.765625 0.859375 0
0.78125 0.859375 0
0.78125 0.875 0
0.78125 0.84375 0
0.8125 0.875 0
0.78125 0.859375 0
0.796875 0.859375 0
0.796875 0.875 0
0.78125 0.875 0
0.78125 0.90625 0
0.75 0.875 0
0.78125 0.890625 0
0.765625 0.890625 0
0.765625 0.875 0
0.78125 0.875 0
0.8125 0.875 0
0.78125 0.90625 0
0.796875 0.875 0
0.796875 0.890625 0
0.78125 0.890625 0
0.8125 0.84375 0
0.78125 0.84375 0
0.8125 0.8125 0
0.796875 0.84375 0
0.796875 0.828125 0
0.8125 0.828125 0
0.8125 0.84375 0
0.8125 0.875 0
0.78125 0.84375 0
0.8125 0.859375 0
0.796875 0.859375 0
0.796875 0.84375 0
0.8125 0.84375 0
0.8125 0.8125 0
0.84375 0.84375 0
0.8125 0.828125 0
0.828125 0.828125 0
0.828125 0.84375 0
0.8125 0.84375 0
0.84375 0.84375 0
0.8125 0.875 0
0.828125 0.84375 0
0.828125 0.859375 0
0.8125 0.859375 0
0.75 0.90625 0
0.71875 0.90625 0
0.75 0.875 0
0.734375 0.90625 0
0.734375 0.890625 0
0.75 0.890625 0
0.75 0.90625 0
0.75 0.9375 0
0.71875 0.90625 0
0.75 0.921875 0
0.734375 0.921875 0
0.734375 0.90625 0
0.75 0.90625 0
0.75 0.875 0
0.78125 0.90625 0
0.75 0.890625 0
0.765625 0.890625 0
0.765625 0.90625 0
0.75 0.90625 0
0.78125 0.90625 0
0.75 0.9375 0
0.765625 0.90625 0
0.765625 0.921875 0
0.75 0.921875 0
0.71875 0.9375 0
0.6875 0.9375 0
0.71875 0.90625 0
0.703125 0.9375 0
0.703125 0.921875 0
0.71875 0.921875 0
0.71875 0.9375 0
0.71875 0.90625 0
0.75 0.9375 0
0.71875 0.921875 0
0.734375 0.921875 0
0.734375 0.9375 0
0.71875 0.9375 0
0.71875 0.96875 0
0.6875 0.9375 0
0.71875 0.953125 0
0.703125 0.953125 0
0.703125 0.9375 0
0.71875 0.9375 0
0.75 0.9375 0
0.71875 0.96875 0
0.734375 0.9375 0
0.734375 0.953125 0
0.71875 0.953125 0
0.84375 0.625 0
0.875 0.625 0
0.84375 0.65625 0
0.859375 0.625 0
0.859375 0.640625 0
0.84375 0.640625 0
0.84375 0.625 0
0.84375 0.65625 0
0.8125 0.625 0
0.84375 0.640625 0
0.828125 0.640625 0
0.828125 0.625 0
0.84375 0.625 0
0.84375 0.59375 0
0.875 0.625 0
0.84375 0.609375 0
0.859375 0.609375 0
0.859375 0.625 0
0.84375 0.625 0
0.8125 0.625 0
0.84375 0.59375 0
0.828125 0.625 0
0.828125 0.609375 0
0.84375 0.609375 0
0.875 0.65625 0
0.84375 0.65625 0
0.875 0.625 0
0.859375 0.65625 0
0.859375 0.640625 0
0.875 0.640625 0
0.875 0.65625 0
0.875 0.6875 0
0.84375 0.65625 0
0.875 0.671875 0
0.859375 0.671875 0
0.859375 0.65625 0
0.875 0.65625 0
0.875 0.625 0
0.90625 0.65625 0
0.875 0.640625 0
0.890625 0.640625 0
0.890625 0.65625 0
0.875 0.65625 0
0.90625 0.65625 0
0.875 0.6875 0
0.890625 0.65625 0
0.890625 0.671875 0
0.875 0.671875 0
0.84375 0.6875 0
0.8125 0.6875 0
0.84375 0.65625 0
0.828125 0.6875 0
0.828125 0.671875 0
0.84375 0.671875 0
0.84375 0.6875 0
0.84375 0.65625 0
0.875 0.6875 0
0.84375 0.671875 0
0.859375 0.671875 0
0.859375 0.6875 0
0.84375 0.6875 0
0.84375 0.71875 0
0.8125 0.6875 0
0.84375 0.703125 0
0.828125 0.703125 0
0.828125 0.6875 0
0.84375 0.6875 0
0.875 0.6875 0
0.84375 0.71875 0
0.859375 0.6875 0
0.859375 0.703125 0
0.84375 0.703125 0
0.875 0.59375 0
0.875 0.625 0
0.84375 0.59375 0
0.875 0.609375 0
0.859375 0.609375 0
0.859375 0.59375 0
0.875 0.59375 0
0.84375 0.59375 0
0.875 0.5625 0
0.859375 0.59375 0
0.859375 0.578125 0
0.875 0.578125 0
0.875 0.59375 0
0.90625 0.59375 0
0.875 0.625 0
0.890625 0.59375 0
0.890625 0.609375 0
0.875 0.609375 0
0.875 0.59375 0
0.875 0.5625 0
0.90625 0.59375 0
0.875 0.578125 0
0.890625 0.578125 0
0.890625 0.59375 0
0.84375 0.75 0
0.84375 0.71875 0
0.875 0.75 0
0.84375 0.734375 0
0.859375 0.734375 0
0.859375 0.75 0
0.84375 0.75 0
0.8125 0.75 0
0.84375 0.71875 0
0.828125 0.75 0
0.828125 0.734375 0
0.84375 0.734375 0
0.84375 0.75 0
0.875 0.75 0
0.84375 0.78125 0
0.859375 0.75 0
0.859375 0.765625 0
0.84375 0.765625 0
0.84375 0.75 0
0.84375 0.78125 0
0.8125 0.75 0
0.84375 0.765625 0
0.828125 0.765625 0
0.828125 0.75 0
0.875 0.71875 0
0.875 0.75 0
0.84375 0.71875 0
0.875 0.734375 0
0.859375 0.734375 0
0.859375 0.71875 0
0.875 0.71875 0
0.84375 0.71875 0
0.875 0.6875 0
0.859375 0.71875 0
0.859375 0.703125 0
0.875 0.703125 0
0.875 0.71875 0
0.90625 0.71875 0
0.875 0.75 0
0.890625 0.71875 0
0.890625 0.734375 0
0.875 0.734375 0
0.875 0.71875 0
0.875 0.6875 0
0.90625 0.71875 0
0.875 0.703125 0
0.890625 0.703125 0
0.890625 0.71875 0
0.875 0.78125 0
0.84375 0.78125 0
0.875 0.75 0
0.859375 0.78125 0
0.859375 0.765625 0
0.875 0.765625 0
0.875 0.78125 0
0.875 0.8125 0
0.84375 0.78125 0
0.875 0.796875 0
0.859375 0.796875 0
0.859375 0.78125 0
0.875 0.78125 0
0.875 0.75 0
0.90625 0.78125 0
0.875 0.765625 0
0.890625 0.765625 0
0.890625 0.78125 0
0.875 0.78125 0
0.90625 0.78125 0
0.875 0.8125 0
0.890625 0.78125 0
0.890625 0.796875 0
0.875 0.796875 0
0.84375 0.8125 0
0.8125 0.8125 0
0.84375 0.78125 0
0.828125 0.8125 0
0.828125 0.796875 0
0.84375 0.796875 0
0.84375 0.8125 0
0.84375 0.78125 0
0.875 0.8125 0
0.84375 0.796875 0
0.859375 0.796875 0
0.859375 0.8125 0
0.84375 0.8125 0
0.84375 0.84375 0
0.8125 0.8125 0
0.84375 0.828125 0
0.828125 0.828125 0
0.828125 0.8125 0
0.84375 0.8125 0
0.875 0.8125 0
0.84375 0.84375 0
0.859375 0.8125 0
0.859375 0.828125 0
0.84375 0.828125 0
0.90625 0.6875 0
0.90625 0.65625 0
0.9375 0.6875 0
0.90625 0.671875 0
0.921875 0.671875 0
0.921875 0.6875 0
0.90625 0.6875 0
0.875 0.6875 0
0.90625 0.65625 0
0.890625 0.6875 0
0.890625 0.671875 0
0.90625 0.671875 0
0.90625 0.6875 0
0.9375 0.6875 0
0.90625 0.71875 0
0.921875 0.6875 0
0.921875 0.703125 0
0.90625 0.703125 0
0.90625 0.6875 0
0.90625 0.71875 0
0.875 0.6875 0
0.90625 0.703125 0
0.890625 0.703125 0
0.890625 0.6875 0
0.90625 0.625 0
0.90625 0.65625 0
0.875 0.625 0
0.90625 0.640625 0
0.890625 0.640625 0
0.890625 0.625 0
0.90625 0.625 0
0.9375 0.625 0
0.90625 0.65625 0
0.921875 0.625 0
0.921875 0.640625 0
0.90625 0.640625 0
0.90625 0.625 0
0.875 0.625 0
0.90625 0.59375 0
0.890625 0.625 0
0.890625 0.609375 0
0.90625 0.609375 0
0.90625 0.625 0
0.90625 0.59375 0
0.9375 0.625 0
0.90625 0.609375 0
0.921875 0.609375 0
0.921875 0.625 0
0.9375 0.65625 0
0.9375 0.6875 0
0.90625 0.65625 0
0.9375 0.671875 0
0.921875 0.671875 0
0.921875 0.65625 0
0.9375 0.65625 0
0.90625 0.65625 0
0.9375 0.625 0
0.921875 0.65625 0
0.921875 0.640625 0
0.9375 0.640625 0
0.9375 0.65625 0
0.96875 0.65625 0
0.9375 0.6875 0
0.953125 0.65625 0
0.953125 0.671875 0
0.9375 0.671875 0
0.9375 0.65625 0
0.9375 0.625 0
0.96875 0.65625 0
0.9375 0.640625 0
0.953125 0.640625 0
0.953125 0.65625 0
0.90625 0.75 0
0.875 0.75 0
0.90625 0.71875 0
0.890625 0.75 0
0.890625 0.734375 0
0.90625 0.734375 0
0.90625 0.75 0
0.90625 0.71875 0
0.9375 0.75 0
0.90625 0.734375 0
0.921875 0.734375 0
0.921875 0.75 0
0.90625 0.75 0
0.90625 0.78125 0
0.875 0.75 0
0.90625 0.765625 0
0.890625 0.765625 0
0.890625 0.75 0
0.90625 0.75 0
0.9375 0.75 0
0.90625 0.78125 0
0.921875 0.75 0
0.921875 0.765625 0
0.90625 0.765625 0
0.9375 0.71875 0
0.90625 0.71875 0
0.9375 0.6875 0
0.921875 0.71875 0
0.921875 0.703125 0
0.9375 0.703125 0
0.9375 0.71875 0
0.9375 0.75 0
0.90625 0.71875 0
0.9375 0.734375 0
0.921875 0.734375 0
0.921875 0.71875 0
0.9375 0.71875 0
0.9375 0.6875 0
0.96875 0.71875 0
0.9375 0.703125 0
0.953125 0.703125 0
0.953125 0.71875 0
0.9375 0.71875 0
0.96875 0.71875 0
0.9375 0.75 0
0.953125 0.71875 0
0.953125 0.734375 0
0.9375 0.734375 0
0.90625 0.5625 0
0.9375 0.5625 0
0.90625 0.59375 0
0.921875 0.5625 0
0.921875 0.578125 0
0.90625 0.578125 0
0.90625 0.5625 0
0.90625 0.59375 0
0.875 0.5625 0
0.90625 0.578125 0
0.890625 0.578125 0
0.890625 0.5625 0
0.90625 0.5625 0
0.90625 0.53125 0
0.9375 0.5625 0
0.90625 0.546875 0
0.921875 0.546875 0
0.921875 0.5625 0
0.90625 0.5625 0
0.875 0.5625 0
0.90625 0.53125 0
0.890625 0.5625 0
0.890625 0.546875 0
0.90625 0.546875 0
0.9375 0.59375 0
0.90625 0.59375 0
0.9375 0.5625 0
0.921875 0.59375 0
0.921875 0.578125 0
0.9375 0.578125 0
0.9375 0.59375 0
0.9375 0.625 0
0.90625 0.59375 0
0.9375 0.609375 0
0.921875 0.609375 0
0.921875 0.59375 0
0.9375 0.59375 0
0.9375 0.5625 0
0.96875 0.59375 0
0.9375 0.578125 0
0.953125 0.578125 0
0.953125 0.59375 0
0.9375 0.59375 0
0.96875 0.59375 0
0.9375 0.625 0
0.953125 0.59375 0
0.953125 0.609375 0
0.9375 0.609375 0
0.9375 0.53125 0
0.9375 0.5625 0
0.90625 0.53125 0
0.9375 0.546875 0
0.921875 0.546875 0
0.921875 0.53125 0
0.9375 0.53125 0
0.90625 0.53125 0
0.9375 0.5 0
0.921875 0.53125 0
0.921875 0.515625 0
0.9375 0.515625 0
0.9375 0.53125 0
0.96875 0.53125 0
0.9375 0.5625 0
0.953125 0.53125 0
0.953125 0.546875 0
0.9375 0.546875 0
0.9375 0.53125 0
0.9375 0.5 0
0.96875 0.53125 0
0.9375 0.515625 0
0.953125 0.515625 0
0.953125 0.53125 0
0.71875 1 0
0.71875 0.96875 0
0.75 1 0
0.71875 0.984375 0
0.734375 0.984375 0
0.734375 1 0
0.71875 1 0
0.6875 1 0
0.71875 0.96875 0
0.703125 1 0
0.703125 0.984375 0
0.71875 0.984375 0
0.75 0.96875 0
0.75 1 0
0.71875 0.96875 0
0.75 0.984375 0
0.734375 0.984375 0
0.734375 0.96875 0
0.75 0.96875 0
0.71875 0.96875 0
0.75 0.9375 0
0.734375 0.96875 0
0.734375 0.953125 0
0.75 0.953125 0
0.75 0.96875 0
0.78125 0.96875 0
0.75 1 0
0.765625 0.96875 0
0.765625 0.984375 0
0.75 0.984375 0
0.75 0.96875 0
0.75 0.9375 0
0.78125 0.96875 0
0.75 0.953125 0
0.765625 0.953125 0
0.765625 0.96875 0
0.78125 0.9375 0
0.8125 0.9375 0
0.78125 0.96875 0
0.796875 0.9375 0
0.796875 0.953125 0
0.78125 0.953125 0
0.78125 0.9375 0
0.78125 0.96875 0
0.75 0.9375 0
0.78125 0.953125 0
0.765625 0.953125 0
0.765625 0.9375 0
0.78125 0.9375 0
0.78125 0.90625 0
0.8125 0.9375 0
0.78125 0.921875 0
0.796875 0.921875 0
0.796875 0.9375 0
0.78125 0.9375 0
0.75 0.9375 0
0.78125 0.90625 0
0.765625 0.9375 0
0.765625 0.921875 0
0.78125 0.921875 0
0.78125 1 0
0.75 1 0
0.78125 0.96875 0
0.765625 1 0
0.765625 0.984375 0
0.78125 0.984375 0
0.78125 1 0
0.78125 0.96875 0
0.8125 1 0
0.78125 0.984375 0
0.796875 0.984375 0
0.796875 1 0
0.8125 0.96875 0
0.78125 0.96875 0
0.8125 0.9375 0
0.796875 0.96875 0
0.796875 0.953125 0
0.8125 0.953125 0
0.8125 0.96875 0
0.8125 1 0
0.78125 0.96875 0
0.8125 0.984375 0
0.796875 0.984375 0
0.796875 0.96875 0
0.8125 0.96875 0
0.8125 0.9375 0
0.84375 0.96875 0
0.8125 0.953125 0
0.828125 0.953125 0
0.828125 0.96875 0
0.8125 0.96875 0
0.84375 0.96875 0
0.8125 1 0
0.828125 0.96875 0
0.828125 0.984375 0
0.8125 0.984375 0
0.8125 0.90625 0
0.8125 0.9375 0
0.78125 0.90625 0
0.8125 0.921875 0
0.796875 0.921875 0
0.796875 0.90625 0
0.8125 0.90625 0
0.78125 0.90625 0
0.8125 0.875 0
0.796875 0.90625 0
0.796875 0.890625 0
0.8125 0.890625 0
0.8125 0.90625 0
0.84375 0.90625 0
0.8125 0.9375 0
0.828125 0.90625 0
0.828125 0.921875 0
0.8125 0.921875 0
0.8125 0.90625 0
0.8125 0.875 0
0.84375 0.90625 0
0.8125 0.890625 0
0.828125 0.890625 0
0.828125 0.90625 0
0.84375 0.875 0
0.84375 0.84375 0
0.875 0.875 0
0.84375 0.859375 0
0.859375 0.859375 0
0.859375 0.875 0
0.84375 0.875 0
0.8125 0.875 0
0.84375 0.84375 0
0.828125 0.875 0
0.828125 0.859375 0
0.84375 0.859375 0
0.84375 0.875 0
0.875 0.875 0
0.84375 0.90625 0
0.859375 0.875 0
0.859375 0.890625 0
0.84375 0.890625 0
0.84375 0.875 0
0.84375 0.90625 0
0.8125 0.875 0
0.84375 0.890625 0
0.828125 0.890625 0
0.828125 0.875 0
0.875 0.84375 0
0.875 0.875 0
0.84375 0.84375 0
0.875 0.859375 0
0.859375 0.859375 0
0.859375 0.84375 0
0.875 0.84375 0
0.84375 0.84375 0
0.875 0.8125 0
0.859375 0.84375 0
0.859375 0.828125 0
0.875 0.828125 0
0.875 0.84375 0
0.90625 0.84375 0
0.875 0.875 0
0.890625 0.84375 0
0.890625 0.859375 0
0.875 0.859375 0
0.875 0.84375 0
0.875 0.8125 0
0.90625 0.84375 0
0.875 0.828125 0
0.890625 0.828125 0
0.890625 0.84375 0
0.875 0.90625 0
0.84375 0.90625 0
0.875 0.875 0
0.859375 0.90625 0
0.859375 0.890625 0
0.875 0.890625 0
0.875 0.90625 0
0.875 0.9375 0
0.84375 0.90625 0
0.875 0.921875 0
0.859375 0.921875 0
0.859375 0.90625 0
0.875 0.90625 0
0.875 0.875 0
0.90625 0.90625 0
0.875 0.890625 0
0.890625 0.890625 0
0.890625 0.90625 0
0.875 0.90625 0
0.90625 0.90625 0
0.875 0.9375 0
0.890625 0.90625 0
0.890625 0.921875 0
0.875 0.921875 0
0.84375 0.9375 0
0.8125 0.9375 0
0.84375 0.90625 0
0.828125 0.9375 0
0.828125 0.921875 0
0.84375 0.921875 0
0.84375 0.9375 0
0.84375 0.90625 0
0.875 0.9375 0
0.84375 0.921875 0
0.859375 0.921875 0
0.859375 0.9375 0
0.84375 0.9375 0
0.84375 0.96875 0
0.8125 0.9375 0
0.84375 0.953125 0
0.828125 0.953125 0
0.828125 0.9375 0
0.84375 0.9375 0
0.875 0.9375 0
0.84375 0.96875 0
0.859375 0.9375 0
0.859375 0.953125 0
0.84375 0.953125 0
0.90625 0.8125 0
0.9375 0.8125 0
0.90625 0.84375 0
0.921875 0.8125 0
0.921875 0.828125 0
0.90625 0.828125 0
0.90625 0.8125 0
0.90625 0.84375 0
0.875 0.8125 0
0.90625 0.828125 0
0.890625 0.828125 0
0.890625 0.8125 0
0.90625 0.8125 0
0.90625 0.78125 0
0.9375 0.8125 0
0.90625 0.796875 0
0.921875 0.796875 0
0.921875 0.8125 0
0.90625 0.8125 0
0.875 0.8125 0
0.90625 0.78125 0
0.890625 0.8125 0
0.890625 0.796875 0
0.90625 0.796875 0
0.90625 0.875 0
0.875 0.875 0
0.90625 0.84375 0
0.890625 0.875 0
0.890625 0.859375 0
0.90625 0.859375 0
0.90625 0.875 0
0.90625 0.84375 0
0.9375 0.875 0
0.90625 0.859375 0
0.921875 0.859375 0
0.921875 0.875 0
0.90625 0.875 0
0.90625 0.90625 0
0.875 0.875 0
0.90625 0.890625 0
0.890625 0.890625 0
0.890625 0.875 0
0.90625 0.875 0
0.9375 0.875 0
0.90625 0.90625 0
0.921875 0.875 0
0.921875 0.890625 0
0.90625 0.890625 0
0.9375 0.84375 0
0.90625 0.84375 0
0.9375 0.8125 0
0.921875 0.84375 0
0.921875 0.828125 0
0.9375 0.828125 0
0.9375 0.84375 0
0.9375 0.875 0
0.90625 0.84375 0
0.9375 0.859375 0
0.921875 0.859375 0
0.921875 0.84375 0
0.9375 0.84375 0
0.9375 0.8125 0
0.96875 0.84375 0
0.9375 0.828125 0
0.953125 0.828125 0
0.953125 0.84375 0
0.9375 0.84375 0
0.96875 0.84375 0
0.9375 0.875 0
0.953125 0.84375 0
0.953125 0.859375 0
0.9375 0.859375 0
0.9375 0.78125 0
0.9375 0.8125 0
0.90625 0.78125 0
0.9375 0.796875 0
0.921875 0.796875 0
0.921875 0.78125 0
0.9375 0.78125 0
0.90625 0.78125 0
0.9375 0.75 0
0.921875 0.78125 0
0.921875 0.765625 0
0.9375 0.765625 0
0.9375 0.78125 0
0.96875 0.78125 0
0.9375 0.8125 0
0.953125 0.78125 0
0.953125 0.796875 0
0.9375 0.796875 0
0.9375 0.78125 0
0.9375 0.75 0
0.96875 0.78125 0
0.9375 0.765625 0
0.953125 0.765625 0
0.953125 0.78125 0
0.84375 1 0
0.84375 0.96875 0
0.875 1 0
0.84375 0.984375 0
0.859375 0.984375 0
0.859375 1 0
0.84375 1 0
0.8125 1 0
0.84375 0.96875 0
0.828125 1 0
0.828125 0.984375 0
0.84375 0.984375 0
0.875 0.96875 0
0.875 1 0
0.84375 0.96875 0
0.875 0.984375 0
0.859375 0.984375 0
0.859375 0.96875 0
0.875 0.96875 0
0.84375 0.96875 0
0.875 0.9375 0
0.859375 0.96875 0
0.859375 0.953125 0
0.875 0.953125 0
0.875 0.96875 0
0.90625 0.96875 0
0.875 1 0
0.890625 0.96875 0
0.890625 0.984375 0
0.875 0.984375 0
0.875 0.96875 0
0.875 0.9375 0
0.90625 0.96875 0
0.875 0.953125 0
0.890625 0.953125 0
0.890625 0.96875 0
0.90625 0.9375 0
0.90625 0.90625 0
0.9375 0.9375 0
0.90625 0.921875 0
0.921875 0.921875 0
0.921875 0.9375 0
0.90625 0.9375 0
0.875 0.9375 0
0.90625 0.90625 0
0.890625 0.9375 0
0.890625 0.921875 0
0.90625 0.921875 0
0.90625 0.9375 0
0.9375 0.9375 0
0.90625 0.96875 0
0.921875 0.9375 0
0.921875 0.953125 0
0.90625 0.953125 0
0.90625 0.9375 0
0.90625 0.96875 0
0.875 0.9375 0
0.90625 0.953125 0
0.890625 0.953125 0
0.890625 0.9375 0
0.9375 0.90625 0
0.9375 0.9375 0
0.90625 0.90625 0
0.9375 0.921875 0
0.921875 0.921875 0
0.921875 0.90625 0
0.9375 0.90625 0
0.90625 0.90625 0
0.9375 0.875 0
0.921875 0.90625 0
0.921875 0.890625 0
0.9375 0.890625 0
0.9375 0.90625 0
0.96875 0.90625 0
0.9375 0.9375 0
0.953125 0.90625 0
0.953125 0.921875 0
0.9375 0.921875 0
0.9375 0.90625 0
0.9375 0.875 0
0.96875 0.90625 0
0.9375 0.890625 0
0.953125 0.890625 0
0.953125 0.90625 0
0.90625 1 0
0.875 1 0
0.90625 0.96875 0
0.890625 1 0
0.890625 0.984375 0
0.90625 0.984375 0
0.90625 1 0
0.90625 0.96875 0
0.9375 1 0
0.90625 0.984375 0
0.921875 0.984375 0
0.921875 1 0
0.9375 0.96875 0
0.90625 0.96875 0
0.9375 0.9375 0
0.921875 0.96875 0
0.921875 0.953125 0
0.9375 0.953125 0
0.9375 0.96875 0
0.9375 1 0
0.90625 0.96875 0
0.9375 0.984375 0
0.921875 0.984375 0
0.921875 0.96875 0
0.9375 0.96875 0
0.9375 0.9375 0
0.96875 0.96875 0
0.9375 0.953125 0
0.953125 0.953125 0
0.953125 0.96875 0
0.9375 0.96875 0
0.96875 0.96875 0
0.9375 1 0
0.953125 0.96875 0
0.953125 0.984375 0
0.9375 0.984375 0
0.96875 1 0
0.96875 0.96875 0
1 1 0
0.96875 0.984375 0
0.984375 0.984375 0
0.984375 1 0
0.96875 1 0
0.9375 1 0
0.96875 0.96875 0
0.953125 1 0
0.953125 0.984375 0
0.96875 0.984375 0
1 0.96875 0
1 1 0
0.96875 0.96875 0
1 0.984375 0
0.984375 0.984375 0
0.984375 0.96875 0
1 0.96875 0
0.96875 0.96875 0
1 0.9375 0
0.984375 0.96875 0
0.984375 0.953125 0
1 0.953125 0
0.96875 0.9375 0
0.96875 0.96875 0
0.9375 0.9375 0
0.96875 0.953125 0
0.953125 0.953125 0
0.953125 0.9375 0
0.96875 0.9375 0
1 0.9375 0
0.96875 0.96875 0
0.984375 0.9375 0
0.984375 0.953125 0
0.96875 0.953125 0
0.96875 0.9375 0
0.9375 0.9375 0
0.96875 0.90625 0
0.953125 0.9375 0
0.953125 0.921875 0
0.96875 0.921875 0
0.96875 0.9375 0
0.96875 0.90625 0
1 0.9375 0
0.96875 0.921875 0
0.984375 0.921875 0
0.984375 0.9375 0
1 0.90625 0
0.96875 0.90625 0
1 0.875 0
0.984375 0.90625 0
0.984375 0.890625 0
1 0.890625 0
1 0.90625 0
1 0.9375 0
0.96875 0.90625 0
1 0.921875 0
0.984375 0.921875 0
0.984375 0.90625 0
0.96875 0.875 0
1 0.875 0
0.96875 0.90625 0
0.984375 0.875 0
0.984375 0.890625 0
0.96875 0.890625 0
0.96875 0.875 0
0.96875 0.90625 0
0.9375 0.875 0
0.96875 0.890625 0
0.953125 0.890625 0
0.953125 0.875 0
0.96875 0.875 0
0.96875 0.84375 0
1 0.875 0
0.96875 0.859375 0
0.984375 0.859375 0
0.984375 0.875 0
0.96875 0.875 0
0.9375 0.875 0
0.96875 0.84375 0
0.953125 0.875 0
0.953125 0.859375 0
0.96875 0.859375 0
1 0.84375 0
1 0.875 0
0.96875 0.84375 0
1 0.859375 0
0.984375 0.859375 0
0.984375 0.84375 0
1 0.84375 0
0.96875 0.84375 0
1 0.8125 0
0.984375 0.84375 0
0.984375 0.828125 0
1 0.828125 0
0.96875 0.8125 0
0.96875 0.84375 0
0.9375 0.8125 0
0.96875 0.828125 0
0.953125 0.828125 0
0.953125 0.8125 0
0.96875 0.8125 0
1 0.8125 0
0.96875 0.84375 0
0.984375 0.8125 0
0.984375 0.828125 0
0.96875 0.828125 0
0.96875 0.8125 0
0.9375 0.8125 0
0.96875 0.78125 0
0.953125 0.8125 0
0.953125 0.796875 0
0.96875 0.796875 0
0.96875 0.8125 0
0.96875 0.78125 0
1 0.8125 0
0.96875 0.796875 0
0.984375 0.796875 0
0.984375 0.8125 0
1 0.78125 0
0.96875 0.78125 0
1 0.75 0
0.984375 0.78125 0
0.984375 0.765625 0
1 0.765625 0
1 0.78125 0
1 0.8125 0
0.96875 0.78125 0
1 0.796875 0
0.984375 0.796875 0
0.984375 0.78125 0
0.96875 0.75 0
1 0.75 0
0.96875 0.78125 0
0.984375 0.75 0
0.984375 0.765625 0
0.96875 0.765625 0
0.96875 0.75 0
0.96875 0.78125 0
0.9375 0.75 0
0.96875 0.765625 0
0.953125 0.765625 0
0.953125 0.75 0
0.96875 0.75 0
0.96875 0.71875 0
1 0.75 0
0.96875 0.734375 0
0.984375 0.734375 0
0.984375 0.75 0
0.96875 0.75 0
0.9375 0.75 0
0.96875 0.71875 0
0.953125 0.75 0
0.953125 0.734375 0
0.96875 0.734375 0
1 0.71875 0
1 0.75 0
0.96875 0.71875 0
1 0.734375 0
0.984375 0.734375 0
0.984375 0.71875 0
1 0.71875 0
0.96875 0.71875 0
1 0.6875 0
0.984375 0.71875 0
0.984375 0.703125 0
1 0.703125 0
0.96875 0.6875 0
0.96875 0.71875 0
0.9375 0.6875 0
0.96875 0.703125 0
0.953125 0.703125 0
0.953125 0.6875 0
0.96875 0.6875 0
1 0.6875 0
0.96875 0.71875 0
0.984375 0.6875 0
0.984375 0.703125 0
0.96875 0.703125 0
0.96875 0.6875 0
0.9375 0.6875 0
0.96875 0.65625 0
0.953125 0.6875 0
0.953125 0.671875 0
0.96875 0.671875 0
0.96875 0.6875 0
0.96875 0.65625 0
1 0.6875 0
0.96875 0.671875 0
0.984375 0.671875 0
0.984375 0.6875 0
1 0.65625 0
0.96875 0.65625 0
1 0.625 0
0.984375 0.65625 0
0.984375 0.640625 0
1 0.640625 0
1 0.65625 0
1 0.6875 0
0.96875 0.65625 0
1 0.671875 0
0.984375 0.671875 0
0.984375 0.65625 0
0.96875 0.625 0
1 0.625 0
0.96875 0.65625 0
0.984375 0.625 0
0.984375 0.640625 0
0.96875 0.640625 0
0.96875 0.625 0
0.96875 0.65625 0
0.9375 0.625 0
0.96875 0.640625 0
0.953125 0.640625 0
0.953125 0.625 0
0.96875 0.625 0
0.96875 0.59375 0
1 0.625 0
0.96875 0.609375 0
0.984375 0.609375 0
0.984375 0.625 0
0.96875 0.625 0
0.9375 0.625 0
0.96875 0.59375 0
0.953125 0.625 0
0.953125 0.609375 0
0.96875 0.609375 0
1 0.59375 0
1 0.625 0
0.96875 0.59375 0
1 0.609375 0
0.984375 0.609375 0
0.984375 0.59375 0
1 0.59375 0
0.96875 0.59375 0
1 0.5625 0
0.984375 0.59375 0
0.984375 0.578125 0
1 0.578125 0
0.96875 0.5625 0
0.96875 0.59375 0
0.9375 0.5625 0
0.96875 0.578125 0
0.953125 0.578125 0
0.953125 0.5625 0
0.96875 0.5625 0
1 0.5625 0
0.96875 0.59375 0
0.984375 0.5625 0
0.984375 0.578125 0
0.96875 0.578125 0
0.96875 0.5625 0
0.9375 0.5625 0
0.96875 0.53125 0
0.953125 0.5625 0
0.953125 0.546875 0
0.96875 0.546875 0
0.96875 0.5625 0
0.96875 0.53125 0
1 0.5625 0
0.96875 0.546875 0
0.984375 0.546875 0
0.984375 0.5625 0
1 0.53125 0
0.96875 0.53125 0
1 0.5 0
0.984375 0.53125 0
0.984375 0.515625 0
1 0.515625 0
1 0.53125 0
1 0.5625 0
0.96875 0.53125 0
1 0.546875 0
0.984375 0.546875 0
0.984375 0.53125 0
0.96875 0.5 0
1 0.5 0
0.96875 0.53125 0
0.984375 0.5 0
0.984375 0.515625 0
0.96875 0.515625 0
0.96875 0.5 0
0.96875 0.53125 0
0.9375 0.5 0
0.96875 0.515625 0
0.953125 0.515625 0
0.953125 0.5 0
0.96875 0.5 0
0.96875 0.46875 0
1 0.5 0
0.96875 0.484375 0
0.984375 0.484375 0
0.984375 0.5 0
0.96875 0.5 0
0.9375 0.5 0
0.96875 0.46875 0
0.953125 0.5 0
0.953125 0.484375 0
0.96875 0.484375 0
1 0.46875 0
1 0.5 0
0.96875 0.46875 0
1 0.484375 0
0.984375 0.484375 0
0.984375 0.46875 0
1 0.46875 0
0.96875 0.46875 0
1 0.4375 0
0.984375 0.46875 0
0.984375 0.453125 0
1 0.453125 0
0.96875 0.4375 0
0.96875 0.46875 0
0.9375 0.4375 0
0.96875 0.453125 0
0.953125 0.453125 0
0.953125 0.4375 0
0.96875 0.4375 0
1 0.4375 0
0.96875 0.46875 0
0.984375 0.4375 0
0.984375 0.453125 0
0.96875 0.453125 0
0.96875 0.4375 0
0.9375 0.4375 0
0.96875 0.40625 0
0.953125 0.4375 0
0.953125 0.421875 0
0.96875 0.421875 0
0.96875 0.4375 0
0.96875 0.40625 0
1 0.4375 0
0.96875 0.421875 0
0.984375 0.421875 0
0.984375 0.4375 0
1 0.40625 0
0.96875 0.40625 0
1 0.375 0
0.984375 0.40625 0
0.984375 0.390625 0
1 0.390625 0
1 0.40625 0
1 0.4375 0
0.96875 0.40625 0
1 0.421875 0
0.984375 0.421875 0
0.984375 0.40625 0
0.96875 0.375 0
1 0.375 0
0.96875 0.40625 0
0.984375 0.375 0
0.984375 0.390625 0
0.96875 0.390625 0
0.96875 0.375 0
0.96875 0.40625 0
0.9375 0.375 0
0.96875 0.390625 0
0.953125 0.390625 0
0.953125 0.375 0
0.96875 0.375 0
0.96875 0.34375 0
1 0.375 0
0.96875 0.359375 0
0.984375 0.359375 0
0.984375 0.375 0
0.96875 0.375 0
0.9375 0.375 0
0.96875 0.34375 0
0.953125 0.375 0
0.953125 0.359375 0
0.96875 0.359375 0
1 0.34375 0
1 0.375 0
0.96875 0.34375 0
1 0.359375 0
0.984375 0.359375 0
0.984375 0.34375 0
1 0.34375 0
0.96875 0.34375 0
1 0.3125 0
0.984375 0.34375 0
0.984375 0.328125 0
1 0.328125 0
0.96875 0.3125 0
0.96875 0.34375 0
0.9375 0.3125 0
0.96875 0.328125 0
0.953125 0.328125 0
0.953125 0.3125 0
0.96875 0.3125 0
1 0.3125 0
0.96875 0.34375 0
0.984375 0.3125 0
0.984375 0.328125 0
0.96875 0.328125 0
0.96875 0.3125 0
0.9375 0.3125 0
0.96875 0.28125 0
0.953125 0.3125 0
0.953125 0.296875 0
0.96875 0.296875 0
0.96875 0.3125 0
0.96875 0.28125 0
1 0.3125 0
0.96875 0.296875 0
0.984375 0.296875 0
0.984375 0.3125 0
1 0.28125 0
0.96875 0.28125 0
1 0.25 0
0.984375 0.28125 0
0.984375 0.265625 0
1 0.265625 0
1 0.28125 0
1 0.3125 0
0.96875 0.28125 0
1 0.296875 0
0.984375 0.296875 0
0.984375 0.28125 0
0.96875 0.25 0
1 0.25 0
0.96875 0.28125 0
0.984375 0.25 0
0.984375 0.265625 0
0.96875 0.265625 0
0.96875 0.25 0
0.96875 0.28125 0
0.9375 0.25 0
0.96875 0.265625 0
0.953125 0.265625 0
0.953125 0.25 0
0.96875 0.25 0
0.96875 0.21875 0
1 0.25 0
0.96875 0.234375 0
0.984375 0.234375 0
0.984375 0.25 0
0.96875 0.25 0
0.9375 0.25 0
0.96875 0.21875 0
0.953125 0.25 0
0.953125 0.234375 0
0.96875 0.234375 0
1 0.21875 0
1 0.25 0
0.96875 0.21875 0
1 0.234375 0
0.984375 0.234375 0
0.984375 0.21875 0
1 0.21875 0
0.96875 0.21875 0
1 0.1875 0
0.984375 0.21875 0
0.984375 0.203125 0
1 0.203125 0
0.96875 0.1875 0
0.96875 0.21875 0
0.9375 0.1875 0
0.96875 0.203125 0
0.953125 0.203125 0
0.953125 0.1875 0
0.96875 0.1875 0
1 0.1875 0
0.96875 0.21875 0
0.984375 0.1875 0
0.984375 0.203125 0
0.96875 0.203125 0
0.96875 0.1875 0
0.9375 0.1875 0
0.96875 0.15625 0
0.953125 0.1875 0
0.953125 0.171875 0
0.96875 0.171875 0
0.96875 0.1875 0
0.96875 0.15625 0
1 0.1875 0
0.96875 0.171875 0
0.984375 0.171875 0
0.984375 0.1875 0
1 0.15625 0
0.96875 0.15625 0
1 0.125 0
0.984375 0.15625 0
0.984375 0.140625 0
1 0.140625 0
1 0.15625 0
1 0.1875 0
0.96875 0.15625 0
1 0.171875 0
0.984375 0.171875 0
0.984375 0.15625 0
0.96875 0.125 0
1 0.125 0
0.96875 0.15625 0
0.984375 0.125 0
0.984375 0.140625 0
0.96875 0.140625 0
0.96875 0.125 0
0.96875 0.15625 0
0.9375 0.125 0
0.96875 0.140625 0
0.953125 0.140625 0
0.953125 0.125 0
0.96875 0.125 0
0.96875 0.09375 0
1 0.125 0
0.96875 0.109375 0
0.984375 0.109375 0
0.984375 0.125 0
0.96875 0.125 0
0.9375 0.125 0
0.96875 0.09375 0
0.953125 0.125 0
0.953125 0.109375 0
0.96875 0.109375 0
1 0.09375 0
1 0.125 0
0.96875 0.09375 0
1 0.109375 0
0.984375 0.109375 0
0.984375 0.09375 0
1 0.09375 0
0.96875 0.09375 0
1 0.0625 0
0.984375 0.09375 0
0.984375 0.078125 0
1 0.078125 0
0.96875 0.0625 0
0.96875 0.09375 0
0.9375 0.0625 0
0.96875 0.078125 0
0.953125 0.078125 0
0.953125 0.0625 0
0.96875 0.0625 0
1 0.0625 0
0.96875 0.09375 0
0.984375 0.0625 0
0.984375 0.078125 0
0.96875 0.078125 0
0.96875 0.0625 0
0.9375 0.0625 0
0.96875 0.03125 0
0.953125 0.0625 0
0.953125 0.046875 0
0.96875 0.046875 0
0.96875 0.0625 0
0.96875 0.03125 0
1 0.0625 0
0.96875 0.046875 0
0.984375 0.046875 0
0.984375 0.0625 0
0.96875 0 0
1 0 0
0.96875 0.03125 0
0.984375 0 0
0.984375 0.015625 0
0.96875 0.015625 0
0.96875 0 0
0.96875 0.03125 0
0.9375 0 0
0.96875 0.015625 0
0.953125 0.015625 0
0.953125 0 0
1 0.03125 0
0.96875 0.03125 0
1 0 0
0.984375 0.03125 0
0.984375 0.015625 0
1 0.015625 0
1 0.03125 0
1 0.0625 0
0.96875 0.03125 0
1 0.046875 0
0.984375 0.046875 0
0.984375 0.03125 0

CELLS 2048 14336
6 0 1 2 3 4 5
6 6 7 8 9 10 11
6 12 13 14 15 16 17
6 18 19 20 21 22 23
6 24 25 26 27 28 29
6 30 31 32 33 34 35
6 36 37 38 39 40 41
6 42 43 44 45 46 47
6 48 49 50 51 52 53
6 54 55 56 57 58 59
6 60 61 62 63 64 65
6 66 67 68 69 70 71
6 72 73 74 75 76 77
6 78 79 80 81 82 83
6 84 85 86 87 88 89
6 90 91 92 93 94 95
6 96 97 98 99 100 101
6 102 103 104 105 106 107
6 108 109 110 111 112 113
6 114 115 116 117 118 119
6 120 121 122 123 124 125
6 126 127 128 129 130 131
6 132 133 134 135 136 137
6 138 139 140 141 142 143
6 144 145 146 147 148 149
6 150 151 152 153 154 155
6 156 157 158 159 160 161
6 162 163 164 165 166 167
6 168 169 170 171 172 173
6 174 175 176 177 178 179
6 180 181 182 183 184 185
6 186 187 188 189 190 191
6 192 193 194 195 196 197
6 198 199 200 201 202 203
6 204 205 206 207 208 209
6 210 211 212 213 214 215
6 216 217 218 219 220 221
6 222 223 224 225 226 227
6 228 229 230 231 232 233
6 234 235 236 237 238 239
6 240 241 242 243 244 245
6 246 247 248 249 250 251
6 252 253 254 255 256 257
6 258 259 260 261 262 263
6 264 265 266 267 268 269
6 270 271 272 273 274 275
6 276 277 278 279 280 281
6 282 283 284 285 286 287
6 288 289 290 291 292 293
6 294 295 296 297 298 299
6 300 301 302 303 304 305
6 306 307 308 309 310 311
6 312 313 314 315 316 317
6 318 319 320 321 322 323
6 324 325 326 327 328 329
6 330 331 332 333 334 335
6 336 337 338 339 340 341
6 342 343 344 345 346 347
6 348 349 350 351 352 353
6 354 355 356 357 358 359
6 360 361 362 363 364 365
6 366 367 368 369 370 371
6 372 373 374 375 376 377
6 378 379 380 381 382 383
6 384 385 386 387 388 389
6 390 391 392 393 394 395
6 396 397 398 399 400 401
6 402 403 404 405 406 407
6 408 409 410 411 412 413
6 414 415 416 417 418 419
6 420 421 422 423 424 425
6 426 427 428 429 430 431
6 432 433 434 435 436 437
6 438 439 440 441 442 443
6 444 445 446 447 448 449
6 450 451 452 453 454 455
6 456 457 458 459 460 461
6 462 463 464 465 466 467
6 468 469 470 471 472 473
6 474 475 476 477 478 479
6 480 481 482 483 484 485
6 486 487 488 489 490 491
6 492 493 494 495 496 497
6 498 499 500 501 502 503
6 504 505 506 507 508 509
6 510 511 512 513 514 515
6 516 517 518 519 520 521
6 522 523 524 525 526 527
6 528 529 530 531 532 533
6 534 535 536 537 538 539
6 540 541 542 543 544 545
6 546 547 548 549 550 551
6 552 553 554 555 556 557
6 558 559 560 561 562 563
6 564 565 566 567 568 569
6 570 571 572 573 574 575
6 576 577 578 579 580 581
6 582 583 584 585 586 587
6 588 589 590 591 592 593
6 594 595 596 597 598 599
6 600 601 602 603 604 605
6 606 607 608 609 610 611
6 612 613 614 615 616 617
6 618 619 620 621 622 623
6 624 625 626 627 628 629
6 630 631 632 633 634 635
6 636 637 638 639 640 641
6 642 643 644 645 646 647
6 648 649 650 651 652 653
6 654 655 656 657 658 659
6 660 661 662 663 664 665
6 666 667 668 669 670 671
6 672 673 674 675 676 677
6 678 679 680 681 682 683
6 684 685 686 687 688 689
6 690 691 692 693 694 695
6 696 697 698 699 700 701
6 702 703 704 705 706 707
6 708 709 710 711 712 713
6 714 715 716 717 718 719
6 720 721 722 723 724 725
6 726 727 728 729 730 731
6 732 733 734 735 736 737
6 738 739 740 741 742 743
6 744 745 746 747 748 749
6 750 751 752 753 754 755
6 756 757 758 759 760 761
6 762 763 764 765 766 767
6 768 769 770 771 772 773
6 774 775 776 777 778 779
6 780 781 782 783 784 785
6 786 787 788 789 790 791
6 792 793 794 795 796 797
6 798 799 800 801 802 803
6 804 805 806 807 808 809
6 810 811 812 813 814 815
6 816 817 818 819 820 821
6 822 823 824 825 826 827
6 828 829 830 831 832 833
6 834 835 836 837 838 839
6 840 841 842 843 844 845
6 846 847 848 849 850 851
6 852 853 854 855 856 857
6 858 859 860 861 862 863
6 864 865 866 867 868 869
6 870 871 872 873 874 875
6 876 877 878 879 880 881
6 882 883 884 885 886 887
6 888 889 890 891 892 893
6 894 895 896 897 898 899
6 900 901 902 903 904 905
6 906 907 908 909 910 911
6 912 913 914 915 916 917
6 918 919 920 921 922 923
6 924 925 926 927 928 929
6 930 931 932 933 934 935
6 936 937 938 939 940 941
6 942 943 944 945 946 947
6 948 949 950 951 952 953
6 954 955 956 957 958 959
6 960 961 962 963 964 965
6 966 967 968 969 970 971
6 972 973 974 975 976 977
6 978 979 980 981 982 983
6 984 985 986 987 988 989
6 990 991 992 993 994 995
6 996 997 998 999 1000 1001
6 1002 1003 1004 1005 1006 1007
6 1008 1009 1010 1011 1012 1013
6 1014 1015 1016 1017 1018 1019
6 1020 1021 1022 1023 1024 1025
6 1026 1027 1028 1029 1030 1031
6 1032 1033 1034 1035 1036 1037
6 1038 1039 1040 1041 1042 1043
6 1044 1045 1046 1047 1048 1049
6 1050 1051 1052 1053 1054 1055
6 1056 1057 1058 1059 1060 1061
6 1062 1063 1064 1065 1066 1067
6 1068 1069 1070 1071 1072 1073
6 1074 1075 1076 1077 1078 1079
6 1080 1081 1082 1083 1084 1085
6 1086 1087 1088 1089 1090 1091
6 1092 1093 1094 1095 1096 1097
6 1098 1099 1100 1101 1102 1103
6 1104 1105 1106 1107 1108 1109
6 1110 1111 1112 1113 1114 1115
6 1116 1117 1118 1119 1120 1121
6 1122 1123 1124 1125 1126 1127
6 1128 1129 1130 1131 1132 1133
6 1134 1135 1136 1137 1138 1139
6 1140 1141 1142 1143 1144 1145
6 1146 1147 1148 1149 1150 1151
6 1152 1153 1154 1155 1156 1157
6 1158 1159 1160 1161 1162 1163
6 1164 1165 1166 1167 1168 1169
6 1170 1171 1172 1173 1174 1175
6 1176 1177 1178 1179 1180 1181
6 1182 1183 1184 1185 1186 1187
6 1188 1189 1190 1191 1192 1193
6 1194 1195 1196 1197 1198 1199
6 1200 1201 1202 1203 1204 1205
6 1206 1207 1208 1209 1210 1211
6 1212 1213 1214 1215 1216 1217
6 1218 1219 1220 1221 1222 1223
6 1224 1225 1226 1227 1228 1229
6 1230 1231 1232 1233 1234 1235
6 1236 1237 1238 1239 1240 1241
6 1242 1243 1244 1245 1246 1247
6 1248 1249 1250 1251 1252 1253
6 1254 1255 1256 1257 1258 1259
6 1260 1261 1262 1263 1264 1265
6 1266 1267 1268 1269 1270 1271
6 1272 1273 1274 1275 1276 1277
6 1278 1279 1280 1281 1282 1283
6 1284 1285 1286 1287 1288 1289
6 1290 1291 1292 1293 1294 1295
6 1296 1297 1298 1299 1300 1301
6 1302 1303 1304 1305 1306 1307
6 1308 1309 1310 1311 1312 1313
6 1314 1315 1316 1317 1318 1319
6 1320 1321 1322 1323 1324 1325
6 1326 1327 1328 1329 1330 1331
6 1332 1333 1334 1335 1336 1337
6 1338 1339 1340 1341 1342 1343
6 1344 1345 1346 1347 1348 1349
6 1350 1351 1352 1353 1354 1355
6 1356 1357 1358 1359 1360 1361
6 1362 1363 1364 1365 1366 1367
6 1368 1369 1370 1371 1372 1373
6 1374 1375 1376 1377 1378 1379
6 1380 1381 1382 1383 1384 1385
6 1386 1387 1388 1389 1390 1391
6 1392 1393 1394 1395 1396 1397
6 1398 1399 1400 1401 1402 1403
6 1404 1405 1406 1407 1408 1409
6 1410 1411 1412 1413 1414 1415
6 1416 1417 1418 1419 1420 1421
6 1422 1423 1424 1425 1426 1427
6 1428 1429 1430 1431 1432 1433
6 1434 1435 1436 1437 1438 1439
6 1440 1441 1442 1443 1444 1445
6 1446 1447 1448 1449 1450 1451
6 1452 1453 1454 1455 1456 1457
6 1458 1459 1460 1461 1462 1463
6 1464 1465 1466 1467 1468 1469
6 1470 1471 1472 1473 1474 1475
6 1476 1477 1478 1479 1480 1481
6 1482 1483 1484 1485 1486 1487
6 1488 1489 1490 1491 1492 1493
6 1494 1495 1496 1497 1498 1499
6 1500 1501 1502 1503 1504 1505
6 1506 1507 1508 1509 1510 1511
6 1512 1513 1514 1515 1516 1517
6 1518 1519 1520 1521 1522 1523
6 1524 1525 1526 1527 1528 1529
6 1530 1531 1532 1533 1534 1535
6 1536 1537 1538 1539 1540 1541
6 1542 1543 1544 1545 1546 1547
6 1548 1549 1550 1551 1552 1553
6 1554 1555 1556 1557 1558 1559
6 1560 1561 1562 1563 1564 1565
6 1566 1567 1568 1569 1570 1571
6 1572 1573 1574 1575 1576 1577
6 1578 1579 1580 1581 1582 1583
6 1584 1585 1586 1587 1588 1589
6 1590 1591 1592 1593 1594 1595
6 1596 1597 1598 1599 1600 1601
6 1602 1603 1604 1605 1606 1607
6 1608 1609 1610 1611 1612 1613
6 1614 1615 1616 1617 1618 1619
6 1620 1621 1622 1623 1624 1625
6 1626 1627 1628 1629 1630 1631
6 1632 1633 1634 1635 1636 1637
6 1638 1639 1640 1641 1642 1643
6 1644 1645 1646 1647 1648 1649
6 1650 1651 1652 1653 1654 1655
6 1656 1657 1658 1659 1660 1661
6 1662 1663 1664 1665 1666 1667
6 1668 1669 1670 1671 1672 1673
6 1674 1675 1676 1677 1678 1679
6 1680 1681 1682 1683 1684 1685
6 1686 1687 1688 1689 1690 1691
6 1692 1693 1694 1695 1696 1697
6 1698 1699 1700 1701 1702 1703
6 1704 1705 1706 1707 1708 1709
6 1710 1711 1712 1713 1714 1715
6 1716 1717 1718 1719 1720 1721
6 1722 1723 1724 1725 1726 1727
6 1728 1729 1730 1731 1732 1733
6 1734 1735 1736 1737 1738 1739
6 1740 1741 1742 1743 1744 1745
6 1746 1747 1748 1749 1750 1751
6 1752 1753 1754 1755 1756 1757
6 1758 1759 1760 1761 1762 1763
6 1764 1765 1766 1767 1768 1769
6 1770 1771 1772 1773 1774 1775
6 1776 1777 1778 1779 1780 1781
6 1782 1783 1784 1785 1786 1787
6 1788 1789 1790 1791 1792 1793
6 1794 1795 1796 1797 1798 1799
6 1800 1801 1802 1803 1804 1805
6 1806 1807 1808 1809 1810 1811
6 1812 1813 1814 1815 1816 1817
6 1818 1819 1820 1821 1822 1823
6 1824 1825 1826 1827 1828 1829
6 1830 1831 1832 1833 1834 1835
6 1836 1837 1838 1839 1840 1841
6 1842 1843 1844 1845 1846 1847
6 1848 1849 1850 1851 1852 1853
6 1854 1855 1856 1857 1858 1859
6 1860 1861 1862 1863 1864 1865
6 1866 1867 1868 1869 1870 1871
6 1872 1873 1874 1875 1876 1877
6 1878 1879 1880 1881 1882 1883
6 1884 1885 1886 1887 1888 1889
6 1890 1891 1892 1893 1894 1895
6 1896 1897 1898 1899 1900 1901
6 1902 1903 1904 1905 1906 1907
6 1908 1909 1910 1911 1912 1913
6 1914 1915 1916 1917 1918 1919
6 1920 1921 1922 1923 1924 1925
6 1926 1927 1928 1929 1930 1931
6 1932 1933 1934 1935 1936 1937
6 1938 1939 1940 1941 1942 1943
6 1944 1945 1946 1947 1948 1949
6 1950 1951 1952 1953 1954 1955
6 1956 1957 1958 1959 1960 1961
6 1962 1963 1964 1965 1966 1967
6 1968 1969 1970 1971 1972 1973
6 1974 1975 1976 1977 1978 1979
6 1980 1981 1982 1983 1984 1985
6 1986 1987 1988 1989 1990 1991
6 1992 1993 1994 1995 1996 1997
6 1998 1999 2000 2001 2002 2003
6 2004 2005 2006 2007 2008 2009
6 2010 2011 2012 2013 2014 2015
6 2016 2017 2018 2019 2020 2021
6 2022 2023 2024 2025 2026 2027
6 2028 2029 2030 2031 2032 2033
6 2034 2035 2036 2037 2038 2039
6 2040 2041 2042 2043 2044 2045
6 2046 2047 2048 2049 2050 2051
6 2052 2053 2054 2055 2056 2057
6 2058 2059 2060 2061 2062 2063
6 2064 2065 2066 2067 2068 2069
6 2070 2071 2072 2073 2074 2075
6 2076 2077 2078 2079 2080 2081
6 2082 2083 2084 2085 2086 2087
6 2088 2089 2090 2091 2092 2093
6 2094 2095 2096 2097 2098 2099
6 2100 2101 2102 2103 2104 2105
6 2106 2107 2108 2109 2110 2111
6 2112 2113 2114 2115 2116 2117
6 2118 2119 2120 2121 2122 2123
6 2124 2125 2126 2127 2128 2129
6 2130 2131 2132 2133 2134 2135
6 2136 2137 2138 2139 2140 2141
6 2142 2143 2144 2145 2146 2147
6 2148 2149 2150 2151 2152 2153
6 2154 2155 2156 2157 2158 2159
6 2160 2161 2162 2163 2164 2165
6 2166 2167 2168 2169 2170 2171
6 2172 2173 2174 2175 2176 2177
6 2178 2179 2180 2181 2182 2183
6 2184 2185 2186 2187 2188 2189
6 2190 2191 2192 2193 2194 2195
6 2196 2197 2198 2199 2200 2201
6 2202 2203 2204 2205 2206 2207
6 2208 2209 2210 2211 2212 2213
6 2214 2215 2216 2217 2218 2219
6 2220 2221 2222 2223 2224 2225
6 2226 2227 2228 2229 2230 2231
6 2232 2233 2234 2235 2236 2237
6 2238 2239 2240 2241 2242 2243
6 2244 2245 2246 2247 2248 2249
6 2250 2251 2252 2253 2254 2255
6 2256 2257 2258 2259 2260 2261
6 2262 2263 2264 2265 2266 2267
6 2268 2269 2270 2271 2272 2273
6 2274 2275 2276 2277 2278 2279
6 2280 2281 2282 2283 2284 2285
6 2286 2287 2288 2289 2290 2291
6 2292 2293 2294 2295 2296 2297
6 2298 2299 2300 2301 2302 2303
6 2304 2305 2306 2307 2308 2309
6 2310 2311 2312 2313 2314 2315
6 2316 2317 2318 2319 2320 2321
6 2322 2323 2324 2325 2326 2327
6 2328 2329 2330 2331 2332 2333
6 2334 2335 2336 2337 2338 2339
6 2340 2341 2342 2343 2344 2345
6 2346 2347 2348 2349 2350 2351
6 2352 2353 2354 2355 2356 2357
6 2358 2359 2360 2361 2362 2363
6 2364 2365 2366 2367 2368 2369
6 2370 2371 2372 2373 2374 2375
6 2376 2377 2378 2379 2380 2381
6 2382 2383 2384 2385 2386 2387
6 2388 2389 2390 2391 2392 2393
6 2394 2395 2396 2397 2398 2399
6 2400 2401 2402 2403 2404 2405
6 2406 2407 2408 2409 2410 2411
6 2412 2413 2414 2415 2416 2417
6 2418 2419 2420 2421 2422 2423
6 2424 2425 2426 2427 2428 2429
6 2430 2431 2432 2433 2434 2435
6 2436 2437 2438 2439 2440 2441
6 2442 2443 2444 2445 2446 2447
6 2448 2449 2450 2451 2452 2453
6 2454 2455 2456 2457 2458 2459
6 2460 2461 2462 2463 2464 2465
6 2466 2467 2468 2469 2470 2471
6 2472 2473 2474 2475 2476 2477
6 2478 2479 2480 2481 2482 2483
6 2484 2485 2486 2487 2488 2489
6 2490 2491 2492 2493 2494 2495
6 2496 2497 2498 2499 2500 2501
6 2502 2503 2504 2505 2506 2507
6 2508 2509 2510 2511 2512 2513
6 2514 2515 2516 2517 2518 2519
6 2520 2521 2522 2523 2524 2525
6 2526 2527 2528 2529 2530 2531
6 2532 2533 2534 2535 2536 2537
6 2538 2539 2540 2541 2542 2543
6 2544 2545 2546 2547 2548 2549
6 2550 2551 2552 2553 2554 2555
6 2556 2557 2558 2559 2560 2561
6 2562 2563 2564 2565 2566 2567
6 2568 2569 2570 2571 2572 2573
6 2574 2575 2576 2577 2578 2579
6 2580 2581 2582 2583 2584 2585
6 2586 2587 2588 2589 2590 2591
6 2592 2593 2594 2595 2596 2597
6 2598 2599 2600 2601 2602 2603
6 2604 2605 2606 2607 2608 2609
6 2610 2611 2612 2613 2614 2615
6 2616 2617 2618 2619 2620 2621
6 2622 2623 2624 2625 2626 2627
6 2628 2629 2630 2631 2632 2633
6 2634 2635 2636 2637 2638 2639
6 2640 2641 2642 2643 2644 2645
6 2646 2647 2648 2649 2650 2651
6 2652 2653 2654 2655 2656 2657
6 2658 2659 2660 2661 2662 2663
6 2664 2665 2666 2667 2668 2669
6 2670 2671 2672 2673 2674 2675
6 2676 2677 2678 2679 2680 2681
6 2682 2683 2684 2685 2686 2687
6 2688 2689 2690 2691 2692 2693
6 2694 2695 2696 2697 2698 2699
6 2700 2701 2702 2703 2704 2705
6 2706 2707 2708 2709 2710 2711
6 2712 2713 2714 2715 2716 2717
6 2718 2719 2720 2721 2722 2723
6 2724 2725 2726 2727 2728 2729
6 2730 2731 2732 2733 2734 2735
6 2736 2737 2738 2739 2740 2741
6 2742 2743 2744 2745 2746 2747
6 2748 2749 2750 2751 2752 2753
6 2754 2755 2756 2757 2758 2759
6 2760 2761 2762 2763 2764 2765
6 2766 2767 2768 2769 2770 2771
6 2772 2773 2774 2775 2776 2777
6 2778 2779 2780 2781 2782 2783
6 2784 2785 2786 2787 2788 2789
6 2790 2791 2792 2793 2794 2795
6 2796 2797 2798 2799 2800 2801
6 2802 2803 2804 2805 2806 2807
6 2808 2809 2810 2811 2812 2813
6 2814 2815 2816 2817 2818 2819
6 2820 2821 2822 2823 2824 2825
6 2826 2827 2828 2829 2830 2831
6 2832 2833 2834 2835 2836 2837
6 2838 2839 2840 2841 2842 2843
6 2844 2845 2846 2847 2848 2849
6 2850 2851 2852 2853 2854 2855
6 2856 2857 2858 2859 2860 2861
6 2862 2863 2864 2865 2866 2867
6 2868 2869 2870 2871 2872 2873
6 2874 2875 2876 2877 2878 2879
6 2880 2881 2882 2883 2884 2885
6 2886 2887 2888 2889 2890 2891
6 2892 2893 2894 2895 2896 2897
6 2898 2899 2900 2901 2902 2903
6 2904 2905 2906 2907 2908 2909
6 2910 2911 2912 2913 2914 2915
6 2916 2917 2918 2919 2920 2921
6 2922 2923 2924 2925 2926 2927
6 2928 2929 2930 2931 2932 2933
6 2934 2935 2936 2937 2938 2939
6 2940 2941 2942 2943 2944 2945
6 2946 2947 2948 2949 2950 2951
6 2952 2953 2954 2955 2956 2957
6 2958 2959 2960 2961 2962 2963
6 2964 2965 2966 2967 2968 2969
6 2970 2971 2972 2973 2974 2975
6 2976 2977 2978 2979 2980 2981
6 2982 2983 2984 2985 2986 2987
6 2988 2989 2990 2991 2992 2993
6 2994 2995 2996 2997 2998 2999
6 3000 3001 3002 3003 3004 3005
6 3006 3007 3008 3009 3010 3011
6 3012 3013 3014 3015 3016 3017
6 3018 3019 3020 3021 3022 3023
6 3024 3025 3026 3027 3028 3029
6 3030 3031 3032 3033 3034 3035
6 3036 3037 3038 3039 3040 3041
6 3042 3043 3044 3045 3046 3047
6 3048 3049 3050 3051 3052 3053
6 3054 3055 3056 3057 3058 3059
6 3060 3061 3062 3063 3064 3065
6 3066 3067 3068 3069 3070 3071
6 3072 3073 3074 3075 3076 3077
6 3078 3079 3080 3081 3082 3083
6 3084 3085 3086 3087 3088 3089
6 3090 3091 3092 3093 3094 3095
6 3096 3097 3098 3099 3100 3101
6 3102 3103 3104 3105 3106 3107
6 3108 3109 3110 3111 3112 3113
6 3114 3115 3116 3117 3118 3119
6 3120 3121 3122 3123 3124 3125
6 3126 3127 3128 3129 3130 3131
6 3132 3133 3134 3135 3136 3137
6 3138 3139 3140 3141 3142 3143
6 3144 3145 3146 3147 3148 3149
6 3150 3151 3152 3153 3154 3155
6 3156 3157 3158 3159 3160 3161
6 3162 3163 3164 3165 3166 3167
6 3168 3169 3170 3171 3172 3173
6 3174 3175 3176 3177 3178 3179
6 3180 3181 3182 3183 3184 3185
6 3186 3187 3188 3189 3190 3191
6 3192 3193 3194 3195 3196 3197
6 3198 3199 3200 3201 3202 3203
6 3204 3205 3206 3207 3208 3209
6 3210 3211 3212 3213 3214 3215
6 3216 3217 3218 3219 3220 3221
6 3222 3223 3224 3225 3226 3227
6 3228 3229 3230 3231 3232 3233
6 3234 3235 3236 3237 3238 3239
6 3240 3241 3242 3243 3244 3245
6 3246 3247 3248 3249 3250 3251
6 3252 3253 3254 3255 3256 3257
6 3258 3259 3260 3261 3262 3263
6 3264 3265 3266 3267 3268 3269
6 3270 3271 3272 3273 3274 3275
6 3276 3277 3278 3279 3280 3281
6 3282 3283 3284 3285 3286 3287
6 3288 3289 3290 3291 3292 3293
6 3294 3295 3296 3297 3298 3299
6 3300 3301 3302 3303 3304 3305
6 3306 3307 3308 3309 3310 3311
6 3312 3313 3314 3315 3316 3317
6 3318 3319 3320 3321 3322 3323
6 3324 3325 3326 3327 3328 3329
6 3330 3331 3332 3333 3334 3335
6 3336 3337 3338 3339 3340 3341
6 3342 3343 3344 3345 3346 3347
6 3348 3349 3350 3351 3352 3353
6 3354 3355 3356 3357 3358 3359
6 3360 3361 3362 3363 3364 3365
6 3366 3367 3368 3369 3370 3371
6 3372 3373 3374 3375 3376 3377
6 3378 3379 3380 3381 3382 3383
6 3384 3385 3386 3387 3388 3389
6 3390 3391 3392 3393 3394 3395
6 3396 3397 3398 3399 3400 3401
6 3402 3403 3404 3405 3406 3407
6 3408 3409 3410 3411 3412 3413
6 3414 3415 3416 3417 3418 3419
6 3420 3421 3422 3423 3424 3425
6 3426 3427 3428 3429 3430 3431
6 3432 3433 3434 3435 3436 3437
6 3438 3439 3440 3441 3442 3443
6 3444 3445 3446 3447 3448 3449
6 3450 3451 3452 3453 3454 3455
6 3456 3457 3458 3459 3460 3461
6 3462 3463 3464 3465 3466 3467
6 3468 3469 3470 3471 3472 3473
6 3474 3475 3476 3477 3478 3479
6 3480 3481 3482 3483 3484 3485
6 3486 3487 3488 3489 3490 3491
6 3492 3493 3494 3495 3496 3497
6 3498 3499 3500 3501 3502 3503
6 3504 3505 3506 3507 3508 3509
6 3510 3511 3512 3513 3514 3515
6 3516 3517 3518 3519 3520 3521
6 3522 3523 3524 3525 3526 3527
6 3528 3529 3530 3531 3532 3533
6 3534 3535 3536 3537 3538 3539
6 3540 3541 3542 3543 3544 3545
6 3546 3547 3548 3549 3550 3551
6 3552 3553 3554 3555 3556 3557
6 3558 3559 3560 3561 3562 3563
6 3564 3565 3566 3567 3568 3569
6 3570 3571 3572 3573 3574 3575
6 3576 3577 3578 3579 3580 3581
6 3582 3583 3584 3585 3586 3587
6 3588 3589 3590 3591 3592 3593
6 3594 3595 3596 3597 3598 3599
6 3600 3601 3602 3603 3604 3605
6 3606 3607 3608 3609 3610 3611
6 3612 3613 3614 3615 3616 3617
6 3618 3619 3620 3621 3622 3623
6 3624 3625 3626 3627 3628 3629
6 3630 3631 3632 3633 3634 3635
6 3636 3637 3638 3639 3640 3641
6 3642 3643 3644 3645 3646 3647
6 3648 3649 3650 3651 3652 3653
6 3654 3655 3656 3657 3658 3659
6 3660 3661 3662 3663 3664 3665
6 3666 3667 3668 3669 3670 3671
6 3672 3673 3674 3675 3676 3677
6 3678 3679 3680 3681 3682 3683
6 3684 3685 3686 3687 3688 3689
6 3690 3691 3692 3693 3694 3695
6 3696 3697 3698 3699 3700 3701
6 3702 3703 3704 3705 3706 3707
6 3708 3709 3710 3711 3712 3713
6 3714 3715 3716 3717 3718 3719
6 3720 3721 3722 3723 3724 3725
6 3726 3727 3728 3729 3730 3731
6 3732 3733 3734 3735 3736 3737
6 3738 3739 3740 3741 3742 3743
6 3744 3745 3746 3747 3748 3749
6 3750 3751 3752 3753 3754 3755
6 3756 3757 3758 3759 3760 3761
6 3762 3763 3764 3765 3766 3767
6 3768 3769 3770 3771 3772 3773
6 3774 3775 3776 3777 3778 3779
6 3780 3781 3782 3783 3784 3785
6 3786 3787 3788 3789 3790 3791
6 3792 3793 3794 3795 3796 3797
6 3798 3799 3800 3801 3802 3803
6 3804 3805 3806 3807 3808 3809
6 3810 3811 3812 3813 3814 3815
6 3816 3817 3818 3819 3820 3821
6 3822 3823 3824 3825 3826 3827
6 3828 3829 3830 3831 3832 3833
6 3834 3835 3836 3837 3838 3839
6 3840 3841 3842 3843 3844 3845
6 3846 3847 3848 3849 3850 3851
6 3852 3853 3854 3855 3856 3857
6 3858 3859 3860 3861 3862 3863
6 3864 3865 3866 3867 3868 3869
6 3870 3871 3872 3873 3874 3875
6 3876 3877 3878 3879 3880 3881
6 3882 3883 3884 3885 3886 3887
6 3888 3889 3890 3891 3892 3893
6 3894 3895 3896 3897 3898 3899
6 3900 3901 3902 3903 3904 3905
6 3906 3907 3908 3909 3910 3911
6 3912 3913 3914 3915 3916 3917
6 3918 3919 3920 3921 3922 3923
6 3924 3925 3926 3927 3928 3929
6 3930 3931 3932 3933 3934 3935
6 3936 3937 3938 3939 3940 3941
6 3942 3943 3944 3945 3946 3947
6 3948 3949 3950 3951 3952 3953
6 3954 3955 3956 3957 3958 3959
6 3960 3961 3962 3963 3964 3965
6 3966 3967 3968 3969 3970 3971
6 3972 3973 3974 3975 3976 3977
6 3978 3979 3980 3981 3982 3983
6 3984 3985 3986 3987 3988 3989
6 3990 3991 3992 3993 3994 3995
6 3996 3997 3998 3999 4000 4001
6 4002 4003 4004 4005 4006 4007
6 4008 4009 4010 4011 4012 4013
6 4014 4015 4016 4017 4018 4019
6 4020 4021 4022 4023 4024 4025
6 4026 4027 4028 4029 4030 4031
6 4032 4033 4034 4035 4036 4037
6 4038 4039 4040 4041 4042 4043
6 4044 4045 4046 4047 4048 4049
6 4050 4051 4052 4053 4054 4055
6 4056 4057 4058 4059 4060 4061
6 4062 4063 4064 4065 4066 4067
6 4068 4069 4070 4071 4072 4073
6 4074 4075 4076 4077 4078 4079
6 4080 4081 4082 4083 4084 4085
6 4086 4087 4088 4089 4090 4091
6 4092 4093 4094 4095 4096 4097
6 4098 4099 4100 4101 4102 4103
6 4104 4105 4106 4107 4108 4109
6 4110 4111 4112 4113 4114 4115
6 4116 4117 4118 4119 4120 4121
6 4122 4123 4124 4125 4126 4127
6 4128 4129 4130 4131 4132 4133
6 4134 4135 4136 4137 4138 4139
6 4140 4141 4142 4143 4144 4145
6 4146 4147 4148 4149 4150 4151
6 4152 4153 4154 4155 4156 4157
6 4158 4159 4160 4161 4162 4163
6 4164 4165 4166 4167 4168 4169
6 4170 4171 4172 4173 4174 4175
6 4176 4177 4178 4179 4180 4181
6 4182 4183 4184 4185 4186 4187
6 4188 4189 4190 4191 4192 4193
6 4194 4195 4196 4197 4198 4199
6 4200 4201 4202 4203 4204 4205
6 4206 4207 4208 4209 4210 4211
6 4212 4213 4214 4215 4216 4217
6 4218 4219 4220 4221 4222 4223
6 4224 4225 4226 4227 4228 4229
6 4230 4231 4232 4233 4234 4235
6 4236 4237 4238 4239 4240 4241
6 4242 4243 4244 4245 4246 4247
6 4248 4249 4250 4251 4252 4253
6 4254 4255 4256 4257 4258 4259
6 4260 4261 4262 4263 4264 4265
6 4266 4267 4268 4269 4270 4271
6 4272 4273 4274 4275 4276 4277
6 4278 4279 4280 4281 4282 4283
6 4284 4285 4286 4287 4288 4289
6 4290 4291 4292 4293 4294 4295
6 4296 4297 4298 4299 4300 4301
6 4302 4303 4304 4305 4306 4307
6 4308 4309 4310 4311 4312 4313
6 4314 4315 4316 4317 4318 4319
6 4320 4321 4322 4323 4324 4325
6 4326 4327 4328 4329 4330 4331
6 4332 4333 4334 4335 4336 4337
6 4338 4339 4340 4341 4342 4343
6 4344 4345 4346 4347 4348 4349
6 4350 4351 4352 4353 4354 4355
6 4356 4357 4358 4359 4360 4361
6 4362 4363 4364 4365 4366 4367
6 4368 4369 4370 4371 4372 4373
6 4374 4375 4376 4377 4378 4379
6 4380 4381 4382 4383 4384 4385
6 4386 4387 4388 4389 4390 4391
6 4392 4393 4394 4395 4396 4397
6 4398 4399 4400 4401 4402 4403
6 4404 4405 4406 4407 4408 4409
6 4410 4411 4412 4413 4414 4415
6 4416 4417 4418 4419 4420 4421
6 4422 4423 4424 4425 4426 4427
6 4428 4429 4430 4431 4432 4433
6 4434 4435 4436 4437 4438 4439
6 4440 4441 4442 4443 4444 4445
6 4446 4447 4448 4449 4450 4451
6 4452 4453 4454 4455 4456 4457
6 4458 4459 4460 4461 4462 4463
6 4464 4465 4466 4467 4468 4469
6 4470 4471 4472 4473 4474 4475
6 4476 4477 4478 4479 4480 4481
6 4482 4483 4484 4485 4486 4487
6 4488 4489 4490 4491 4492 4493
6 4494 4495 4496 4497 4498 4499
6 4500 4501 4502 4503 4504 4505
6 4506 4507 4508 4509 4510 4511
6 4512 4513 4514 4515 4516 4517
6 4518 4519 4520 4521 4522 4523
6 4524 4525 4526 4527 4528 4529
6 4530 4531 4532 4533 4534 4535
6 4536 4537 4538 4539 4540 4541
6 4542 4543 4544 4545 4546 4547
6 4548 4549 4550 4551 4552 4553
6 4554 4555 4556 4557 4558 4559
6 4560 4561 4562 4563 4564 4565
6 4566 4567 4568 4569 4570 4571
6 4572 4573 4574 4575 4576 4577
6 4578 4579 4580 4581 4582 4583
6 4584 4585 4586 4587 4588 4589
6 4590 4591 4592 4593 4594 4595
6 4596 4597 4598 4599 4600 4601
6 4602 4603 4604 4605 4606 4607
6 4608 4609 4610 4611 4612 4613
6 4614 4615 4616 4617 4618 4619
6 4620 4621 4622 4623 4624 4625
6 4626 4627 4628 4629 4630 4631
6 4632 4633 4634 4635 4636 4637
6 4638 4639 4640 4641 4642 4643
6 4644 4645 4646 4647 4648 4649
6 4650 4651 4652 4653 4654 4655
6 4656 4657 4658 4659 4660 4661
6 4662 4663 4664 4665 4666 4667
6 4668 4669 4670 4671 4672 4673
6 4674 4675 4676 4677 4678 4679
6 4680 4681 4682 4683 4684 4685
6 4686 4687 4688 4689 4690 4691
6 4692 4693 4694 4695 4696 4697
6 4698 4699 4700 4701 4702 4703
6 4704 4705 4706 4707 4708 4709
6 4710 4711 4712 4713 4714 4715
6 4716 4717 4718 4719 4720 4721
6 4722 4723 4724 4725 4726 4727
6 4728 4729 4730 4731 4732 4733
6 4734 4735 4736 4737 4738 4739
6 4740 4741 4742 4743 4744 4745
6 4746 4747 4748 4749 4750 4751
6 4752 4753 4754 4755 4756 4757
6 4758 4759 4760 4761 4762 4763
6 4764 4765 4766 4767 4768 4769
6 4770 4771 4772 4773 4774 4775
6 4776 4777 4778 4779 4780 4781
6 4782 4783 4784 4785 4786 4787
6 4788 4789 4790 4791 4792 4793
6 4794 4795 4796 4797 4798 4799
6 4800 4801 4802 4803 4804 4805
6 4806 4807 4808 4809 4810 4811
6 4812 4813 4814 4815 4816 4817
6 4818 4819 4820 4821 4822 4823
6 4824 4825 4826 4827 4828 4829
6 4830 4831 4832 4833 4834 4835
6 4836 4837 4838 4839 4840 4841
6 4842 4843 4844 4845 4846 4847
6 4848 4849 4850 4851 4852 4853
6 4854 4855 4856 4857 4858 4859
6 4860 4861 4862 4863 4864 4865
6 4866 4867 4868 4869 4870 4871
6 4872 4873 4874 4875 4876 4877
6 4878 4879 4880 4881 4882 4883
6 4884 4885 4886 4887 4888 4889
6 4890 4891 4892 4893 4894 4895
6 4896 4897 4898 4899 4900 4901
6 4902 4903 4904 4905 4906 4907
6 4908 4909 4910 4911 4912 4913
6 4914 4915 4916 4917 4918 4919
6 4920 4921 4922 4923 4924 4925
6 4926 4927 4928 4929 4930 4931
6 4932 4933 4934 4935 4936 4937
6 4938 4939 4940 4941 4942 4943
6 4944 4945 4946 4947 4948 4949
6 4950 4951 4952 4953 4954 4955
6 4956 4957 4958 4959 4960 4961
6 4962 4963 4964 4965 4966 4967
6 4968 4969 4970 4971 4972 4973
6 4974 4975 4976 4977 4978 4979
6 4980 4981 4982 4983 4984 4985
6 4986 4987 4988 4989 4990 4991
6 4992 4993 4994 4995 4996 4997
6 4998 4999 5000 5001 5002 5003
6 5004 5005 5006 5007 5008 5009
6 5010 5011 5012 5013 5014 5015
6 5016 5017 5018 5019 5020 5021
6 5022 5023 5024 5025 5026 5027
6 5028 5029 5030 5031 5032 5033
6 5034 5035 5036 5037 5038 5039
6 5040 5041 5042 5043 5044 5045
6 5046 5047 5048 5049 5050 5051
6 5052 5053 5054 5055 5056 5057
6 5058 5059 5060 5061 5062 5063
6 5064 5065 5066 5067 5068 5069
6 5070 5071 5072 5073 5074 5075
6 5076 5077 5078 5079 5080 5081
6 5082 5083 5084 5085 5086 5087
6 5088 5089 5090 5091 5092 5093
6 5094 5095 5096 5097 5098 5099
6 5100 5101 5102 5103 5104 5105
6 5106 5107 5108 5109 5110 5111
6 5112 5113 5114 5115 5116 5117
6 5118 5119 5120 5121 5122 5123
6 5124 5125 5126 5127 5128 5129
6 5130 5131 5132 5133 5134 5135
6 5136 5137 5138 5139 5140 5141
6 5142 5143 5144 5145 5146 5147
6 5148 5149 5150 5151 5152 5153
6 5154 5155 5156 5157 5158 5159
6 5160 5161 5162 5163 5164 5165
6 5166 5167 5168 5169 5170 5171
6 5172 5173 5174 5175 5176 5177
6 5178 5179 5180 5181 5182 5183
6 5184 5185 5186 5187 5188 5189
6 5190 5191 5192 5193 5194 5195
6 5196 5197 5198 5199 5200 5201
6 5202 5203 5204 5205 5206 5207
6 5208 5209 5210 5211 5212 5213
6 5214 5215 5216 5217 5218 5219
6 5220 5221 5222 5223 5224 5225
6 5226 5227 5228 5229 5230 5231
6 5232 5233 5234 5235 5236 5237
6 5238 5239 5240 5241 5242 5243
6 5244 5245 5246 5247 5248 5249
6 5250 5251 5252 5253 5254 5255
6 5256 5257 5258 5259 5260 5261
6 5262 5263 5264 5265 5266 5267
6 5268 5269 5270 5271 5272 5273
6 5274 5275 5276 5277 5278 5279
6 5280 5281 5282 5283 5284 5285
6 5286 5287 5288 5289 5290 5291
6 5292 5293 5294 5295 5296 5297
6 5298 5299 5300 5301 5302 5303
6 5304 5305 5306 5307 5308 5309
6 5310 5311 5312 5313 5314 5315
6 5316 5317 5318 5319 5320 5321
6 5322 5323 5324 5325 5326 5327
6 5328 5329 5330 5331 5332 5333
6 5334 5335 5336 5337 5338 5339
6 5340 5341 5342 5343 5344 5345
6 5346 5347 5348 5349 5350 5351
6 5352 5353 5354 5355 5356 5357
6 5358 5359 5360 5361 5362 5363
6 5364 5365 5366 5367 5368 5369
6 5370 5371 5372 5373 5374 5375
6 5376 5377 5378 5379 5380 5381
6 5382 5383 5384 5385 5386 5387
6 5388 5389 5390 5391 5392 5393
6 5394 5395 5396 5397 5398 5399
6 5400 5401 5402 5403 5404 5405
6 5406 5407 5408 5409 5410 5411
6 5412 5413 5414 5415 5416 5417
6 5418 5419 5420 5421 5422 5423
6 5424 5425 5426 5427 5428 5429
6 5430 5431 5432 5433 5434 5435
6 5436 5437 5438 5439 5440 5441
6 5442 5443 5444 5445 5446 5447
6 5448 5449 5450 5451 5452 5453
6 5454 5455 5456 5457 5458 5459
6 5460 5461 5462 5463 5464 5465
6 5466 5467 5468 5469 5470 5471
6 5472 5473 5474 5475 5476 5477
6 5478 5479 5480 5481 5482 5483
6 5484 5485 5486 5487 5488 5489
6 5490 5491 5492 5493 5494 5495
6 5496 5497 5498 5499 5500 5501
6 5502 5503 5504 5505 5506 5507
6 5508 5509 5510 5511 5512 5513
6 5514 5515 5516 5517 5518 5519
6 5520 5521 5522 5523 5524 5525
6 5526 5527 5528 5529 5530 5531
6 5532 5533 5534 5535 5536 5537
6 5538 5539 5540 5541 5542 5543
6 5544 5545 5546 5547 5548 5549
6 5550 5551 5552 5553 5554 5555
6 5556 5557 5558 5559 5560 5561
6 5562 5563 5564 5565 5566 5567
6 5568 5569 5570 5571 5572 5573
6 5574 5575 5576 5577 5578 5579
6 5580 5581 5582 5583 5584 5585
6 5586 5587 5588 5589 5590 5591
6 5592 5593 5594 5595 5596 5597
6 5598 5599 5600 5601 5602 5603
6 5604 5605 5606 5607 5608 5609
6 5610 5611 5612 5613 5614 5615
6 5616 5617 5618 5619 5620 5621
6 5622 5623 5624 5625 5626 5627
6 5628 5629 5630 5631 5632 5633
6 5634 5635 5636 5637 5638 5639
6 5640 5641 5642 5643 5644 5645
6 5646 5647 5648 5649 5650 5651
6 5652 5653 5654 5655 5656 5657
6 5658 5659 5660 5661 5662 5663
6 5664 5665 5666 5667 5668 5669
6 5670 5671 5672 5673 5674 5675
6 5676 5677 5678 5679 5680 5681
6 5682 5683 5684 5685 5686 5687
6 5688 5689 5690 5691 5692 5693
6 5694 5695 5696 5697 5698 5699
6 5700 5701 5702 5703 5704 5705
6 5706 5707 5708 5709 5710 5711
6 5712 5713 5714 5715 5716 5717
6 5718 5719 5720 5721 5722 5723
6 5724 5725 5726 5727 5728 5729
6 5730 5731 5732 5733 5734 5735
6 5736 5737 5738 5739 5740 5741
6 5742 5743 5744 5745 5746 5747
6 5748 5749 5750 5751 5752 5753
6 5754 5755 5756 5757 5758 5759
6 5760 5761 5762 5763 5764 5765
6 5766 5767 5768 5769 5770 5771
6 5772 5773 5774 5775 5776 5777
6 5778 5779 5780 5781 5782 5783
6 5784 5785 5786 5787 5788 5789
6 5790 5791 5792 5793 5794 5795
6 5796 5797 5798 5799 5800 5801
6 5802 5803 5804 5805 5806 5807
6 5808 5809 5810 5811 5812 5813
6 5814 5815 5816 5817 5818 5819
6 5820 5821 5822 5823 5824 5825
6 5826 5827 5828 5829 5830 5831
6 5832 5833 5834 5835 5836 5837
6 5838 5839 5840 5841 5842 5843
6 5844 5845 5846 5847 5848 5849
6 5850 5851 5852 5853 5854 5855
6 5856 5857 5858 5859 5860 5861
6 5862 5863 5864 5865 5866 5867
6 5868 5869 5870 5871 5872 5873
6 5874 5875 5876 5877 5878 5879
6 5880 5881 5882 5883 5884 5885
6 5886 5887 5888 5889 5890 5891
6 5892 5893 5894 5895 5896 5897
6 5898 5899 5900 5901 5902 5903
6 5904 5905 5906 5907 5908 5909
6 5910 5911 5912 5913 5914 5915
6 5916 5917 5918 5919 5920 5921
6 5922 5923 5924 5925 5926 5927
6 5928 5929 5930 5931 5932 5933
6 5934 5935 5936 5937 5938 5939
6 5940 5941 5942 5943 5944 5945
6 5946 5947 5948 5949 5950 5951
6 5952 5953 5954 5955 5956 5957
6 5958 5959 5960 5961 5962 5963
6 5964 5965 5966 5967 5968 5969
6 5970 5971 5972 5973 5974 5975
6 5976 5977 5978 5979 5980 5981
6 5982 5983 5984 5985 5986 5987
6 5988 5989 5990 5991 5992 5993
6 5994 5995 5996 5997 5998 5999
6 6000 6001 6002 6003 6004 6005
6 6006 6007 6008 6009 6010 6011
6 6012 6013 6014 6015 6016 6017
6 6018 6019 6020 6021 6022 6023
6 6024 6025 6026 6027 6028 6029
6 6030 6031 6032 6033 6034 6035
6 6036 6037 6038 6039 6040 6041
6 6042 6043 6044 6045 6046 6047
6 6048 6049 6050 6051 6052 6053
6 6054 6055 6056 6057 6058 6059
6 6060 6061 6062 6063 6064 6065
6 6066 6067 6068 6069 6070 6071
6 6072 6073 6074 6075 6076 6077
6 6078 6079 6080 6081 6082 6083
6 6084 6085 6086 6087 6088 6089
6 6090 6091 6092 6093 6094 6095
6 6096 6097 6098 6099 6100 6101
6 6102 6103 6104 6105 6106 6107
6 6108 6109 6110 6111 6112 6113
6 6114 6115 6116 6117 6118 6119
6 6120 6121 6122 6123 6124 6125
6 6126 6127 6128 6129 6130 6131
6 6132 6133 6134 6135 6136 6137
6 6138 6139 6140 6141 6142 6143
6 6144 6145 6146 6147 6148 6149
6 6150 6151 6152 6153 6154 6155
6 6156 6157 6158 6159 6160 6161
6 6162 6163 6164 6165 6166 6167
6 6168 6169 6170 6171 6172 6173
6 6174 6175 6176 6177 6178 6179
6 6180 6181 6182 6183 6184 6185
6 6186 6187 6188 6189 6190 6191
6 6192 6193 6194 6195 6196 6197
6 6198 6199 6200 6201 6202 6203
6 6204 6205 6206 6207 6208 6209
6 6210 6211 6212 6213 6214 6215
6 6216 6217 6218 6219 6220 6221
6 6222 6223 6224 6225 6226 6227
6 6228 6229 6230 6231 6232 6233
6 6234 6235 6236 6237 6238 6239
6 6240 6241 6242 6243 6244 6245
6 6246 6247 6248 6249 6250 6251
6 6252 6253 6254 6255 6256 6257
6 6258 6259 6260 6261 6262 6263
6 6264 6265 6266 6267 6268 6269
6 6270 6271 6272 6273 6274 6275
6 6276 6277 6278 6279 6280 6281
6 6282 6283 6284 6285 6286 6287
6 6288 6289 6290 6291 6292 6293
6 6294 6295 6296 6297 6298 6299
6 6300 6301 6302 6303 6304 6305
6 6306 6307 6308 6309 6310 6311
6 6312 6313 6314 6315 6316 6317
6 6318 6319 6320 6321 6322 6323
6 6324 6325 6326 6327 6328 6329
6 6330 6331 6332 6333 6334 6335
6 6336 6337 6338 6339 6340 6341
6 6342 6343 6344 6345 6346 6347
6 6348 6349 6350 6351 6352 6353
6 6354 6355 6356 6357 6358 6359
6 6360 6361 6362 6363 6364 6365
6 6366 6367 6368 6369 6370 6371
6 6372 6373 6374 6375 6376 6377
6 6378 6379 6380 6381 6382 6383
6 6384 6385 6386 6387 6388 6389
6 6390 6391 6392 6393 6394 6395
6 6396 6397 6398 6399 6400 6401
6 6402 6403 6404 6405 6406 6407
6 6408 6409 6410 6411 6412 6413
6 6414 6415 6416 6417 6418 6419
6 6420 6421 6422 6423 6424 6425
6 6426 6427 6428 6429 6430 6431
6 6432 6433 6434 6435 6436 6437
6 6438 6439 6440 6441 6442 6443
6 6444 6445 6446 6447 6448 6449
6 6450 6451 6452 6453 6454 6455
6 6456 6457 6458 6459 6460 6461
6 6462 6463 6464 6465 6466 6467
6 6468 6469 6470 6471 6472 6473
6 6474 6475 6476 6477 6478 6479
6 6480 6481 6482 6483 6484 6485
6 6486 6487 6488 6489 6490 6491
6 6492 6493 6494 6495 6496 6497
6 6498 6499 6500 6501 6502 6503
6 6504 6505 6506 6507 6508 6509
6 6510 6511 6512 6513 6514 6515
6 6516 6517 6518 6519 6520 6521
6 6522 6523 6524 6525 6526 6527
6 6528 6529 6530 6531 6532 6533
6 6534 6535 6536 6537 6538 6539
6 6540 6541 6542 6543 6544 6545
6 6546 6547 6548 6549 6550 6551
6 6552 6553 6554 6555 6556 6557
6 6558 6559 6560 6561 6562 6563
6 6564 6565 6566 6567 6568 6569
6 6570 6571 6572 6573 6574 6575
6 6576 6577 6578 6579 6580 6581
6 6582 6583 6584 6585 6586 6587
6 6588 6589 6590 6591 6592 6593
6 6594 6595 6596 6597 6598 6599
6 6600 6601 6602 6603 6604 6605
6 6606 6607 6608 6609 6610 6611
6 6612 6613 6614 6615 6616 6617
6 6618 6619 6620 6621 6622 6623
6 6624 6625 6626 6627 6628 6629
6 6630 6631 6632 6633 6634 6635
6 6636 6637 6638 6639 6640 6641
6 6642 6643 6644 6645 6646 6647
6 6648 6649 6650 6651 6652 6653
6 6654 6655 6656 6657 6658 6659
6 6660 6661 6662 6663 6664 6665
6 6666 6667 6668 6669 6670 6671
6 6672 6673 6674 6675 6676 6677
6 6678 6679 6680 6681 6682 6683
6 6684 6685 6686 6687 6688 6689
6 6690 6691 6692 6693 6694 6695
6 6696 6697 6698 6699 6700 6701
6 6702 6703 6704 6705 6706 6707
6 6708 6709 6710 6711 6712 6713
6 6714 6715 6716 6717 6718 6719
6 6720 6721 6722 6723 6724 6725
6 6726 6727 6728 6729 6730 6731
6 6732 6733 6734 6735 6736 6737
6 6738 6739 6740 6741 6742 6743
6 6744 6745 6746 6747 6748 6749
6 6750 6751 6752 6753 6754 6755
6 6756 6757 6758 6759 6760 6761
6 6762 6763 6764 6765 6766 6767
6 6768 6769 6770 6771 6772 6773
6 6774 6775 6776 6777 6778 6779
6 6780 6781 6782 6783 6784 6785
6 6786 6787 6788 6789 6790 6791
6 6792 6793 6794 6795 6796 6797
6 6798 6799 6800 6801 6802 6803
6 6804 6805 6806 6807 6808 6809
6 6810 6811 6812 6813 6814 6815
6 6816 6817 6818 6819 6820 6821
6 6822 6823 6824 6825 6826 6827
6 6828 6829 6830 6831 6832 6833
6 6834 6835 6836 6837 6838 6839
6 6840 6841 6842 6843 6844 6845
6 6846 6847 6848 6849 6850 6851
6 6852 6853 6854 6855 6856 6857
6 6858 6859 6860 6861 6862 6863
6 6864 6865 6866 6867 6868 6869
6 6870 6871 6872 6873 6874 6875
6 6876 6877 6878 6879 6880 6881
6 6882 6883 6884 6885 6886 6887
6 6888 6889 6890 6891 6892 6893
6 6894 6895 6896 6897 6898 6899
6 6900 6901 6902 6903 6904 6905
6 6906 6907 6908 6909 6910 6911
6 6912 6913 6914 6915 6916 6917
6 6918 6919 6920 6921 6922 6923
6 6924 6925 6926 6927 6928 6929
6 6930 6931 6932 6933 6934 6935
6 6936 6937 6938 6939 6940 6941
6 6942 6943 6944 6945 6946 6947
6 6948 6949 6950 6951 6952 6953
6 6954 6955 6956 6957 6958 6959
6 6960 6961 6962 6963 6964 6965
6 6966 6967 6968 6969 6970 6971
6 6972 6973 6974 6975 6976 6977
6 6978 6979 6980 6981 6982 6983
6 6984 6985 6986 6987 6988 6989
6 6990 6991 6992 6993 6994 6995
6 6996 6997 6998 6999 7000 7001
6 7002 7003 7004 7005 7006 7007
6 7008 7009 7010 7011 7012 7013
6 7014 7015 7016 7017 7018 7019
6 7020 7021 7022 7023 7024 7025
6 7026 7027 7028 7029 7030 7031
6 7032 7033 7034 7035 7036 7037
6 7038 7039 7040 7041 7042 7043
6 7044 7045 7046 7047 7048 7049
6 7050 7051 7052 7053 7054 7055
6 7056 7057 7058 7059 7060 7061
6 7062 7063 7064 7065 7066 7067
6 7068 7069 7070 7071 7072 7073
6 7074 7075 7076 7077 7078 7079
6 7080 7081 7082 7083 7084 7085
6 7086 7087 7088 7089 7090 7091
6 7092 7093 7094 7095 7096 7097
6 7098 7099 7100 7101 7102 7103
6 7104 7105 7106 7107 7108 7109
6 7110 7111 7112 7113 7114 7115
6 7116 7117 7118 7119 7120 7121
6 7122 7123 7124 7125 7126 7127
6 7128 7129 7130 7131 7132 7133
6 7134 7135 7136 7137 7138 7139
6 7140 7141 7142 7143 7144 7145
6 7146 7147 7148 7149 7150 7151
6 7152 7153 7154 7155 7156 7157
6 7158 7159 7160 7161 7162 7163
6 7164 7165 7166 7167 7168 7169
6 7170 7171 7172 7173 7174 7175
6 7176 7177 7178 7179 7180 7181
6 7182 7183 7184 7185 7186 7187
6 7188 7189 7190 7191 7192 7193
6 7194 7195 7196 7197 7198 7199
6 7200 7201 7202 7203 7204 7205
6 7206 7207 7208 7209 7210 7211
6 7212 7213 7214 7215 7216 7217
6 7218 7219 7220 7221 7222 7223
6 7224 7225 7226 7227 7228 7229
6 7230 7231 7232 7233 7234 7235
6 7236 7237 7238 7239 7240 7241
6 7242 7243 7244 7245 7246 7247
6 7248 7249 7250 7251 7252 7253
6 7254 7255 7256 7257 7258 7259
6 7260 7261 7262 7263 7264 7265
6 7266 7267 7268 7269 7270 7271
6 7272 7273 7274 7275 7276 7277
6 7278 7279 7280 7281 7282 7283
6 7284 7285 7286 7287 7288 7289
6 7290 7291 7292 7293 7294 7295
6 7296 7297 7298 7299 7300 7301
6 7302 7303 7304 7305 7306 7307
6 7308 7309 7310 7311 7312 7313
6 7314 7315 7316 7317 7318 7319
6 7320 7321 7322 7323 7324 7325
6 7326 7327 7328 7329 7330 7331
6 7332 7333 7334 7335 7336 7337
6 7338 7339 7340 7341 7342 7343
6 7344 7345 7346 7347 7348 7349
6 7350 7351 7352 7353 7354 7355
6 7356 7357 7358 7359 7360 7361
6 7362 7363 7364 7365 7366 7367
6 7368 7369 7370 7371 7372 7373
6 7374 7375 7376 7377 7378 7379
6 7380 7381 7382 7383 7384 7385
6 7386 7387 7388 7389 7390 7391
6 7392 7393 7394 7395 7396 7397
6 7398 7399 7400 7401 7402 7403
6 7404 7405 7406 7407 7408 7409
6 7410 7411 7412 7413 7414 7415
6 7416 7417 7418 7419 7420 7421
6 7422 7423 7424 7425 7426 7427
6 7428 7429 7430 7431 7432 7433
6 7434 7435 7436 7437 7438 7439
6 7440 7441 7442 7443 7444 7445
6 7446 7447 7448 7449 7450 7451
6 7452 7453 7454 7455 7456 7457
6 7458 7459 7460 7461 7462 7463
6 7464 7465 7466 7467 7468 7469
6 7470 7471 7472 7473 7474 7475
6 7476 7477 7478 7479 7480 7481
6 7482 7483 7484 7485 7486 7487
6 7488 7489 7490 7491 7492 7493
6 7494 7495 7496 7497 7498 7499
6 7500 7501 7502 7503 7504 7505
6 7506 7507 7508 7509 7510 7511
6 7512 7513 7514 7515 7516 7517
6 7518 7519 7520 7521 7522 7523
6 7524 7525 7526 7527 7528 7529
6 7530 7531 7532 7533 7534 7535
6 7536 7537 7538 7539 7540 7541
6 7542 7543 7544 7545 7546 7547
6 7548 7549 7550 7551 7552 7553
6 7554 7555 7556 7557 7558 7559
6 7560 7561 7562 7563 7564 7565
6 7566 7567 7568 7569 7570 7571
6 7572 7573 7574 7575 7576 7577
6 7578 7579 7580 7581 7582 7583
6 7584 7585 7586 7587 7588 7589
6 7590 7591 7592 7593 7594 7595
6 7596 7597 7598 7599 7600 7601
6 7602 7603 7604 7605 7606 7607
6 7608 7609 7610 7611 7612 7613
6 7614 7615 7616 7617 7618 7619
6 7620 7621 7622 7623 7624 7625
6 7626 7627 7628 7629 7630 7631
6 7632 7633 7634 7635 7636 7637
6 7638 7639 7640 7641 7642 7643
6 7644 7645 7646 7647 7648 7649
6 7650 7651 7652 7653 7654 7655
6 7656 7657 7658 7659 7660 7661
6 7662 7663 7664 7665 7666 7667
6 7668 7669 7670 7671 7672 7673
6 7674 7675 7676 7677 7678 7679
6 7680 7681 7682 7683 7684 7685
6 7686 7687 7688 7689 7690 7691
6 7692 7693 7694 7695 7696 7697
6 7698 7699 7700 7701 7702 7703
6 7704 7705 7706 7707 7708 7709
6 7710 7711 7712 7713 7714 7715
6 7716 7717 7718 7719 7720 7721
6 7722 7723 7724 7725 7726 7727
6 7728 7729 7730 7731 7732 7733
6 7734 7735 7736 7737 7738 7739
6 7740 7741 7742 7743 7744 7745
6 7746 7747 7748 7749 7750 7751
6 7752 7753 7754 7755 7756 7757
6 7758 7759 7760 7761 7762 7763
6 7764 7765 7766 7767 7768 7769
6 7770 7771 7772 7773 7774 7775
6 7776 7777 7778 7779 7780 7781
6 7782 7783 7784 7785 7786 7787
6 7788 7789 7790 7791 7792 7793
6 7794 7795 7796 7797 7798 7799
6 7800 7801 7802 7803 7804 7805
6 7806 7807 7808 7809 7810 7811
6 7812 7813 7814 7815 7816 7817
6 7818 7819 7820 7821 7822 7823
6 7824 7825 7826 7827 7828 7829
6 7830 7831 7832 7833 7834 7835
6 7836 7837 7838 7839 7840 7841
6 7842 7843 7844 7845 7846 7847
6 7848 7849 7850 7851 7852 7853
6 7854 7855 7856 7857 7858 7859
6 7860 7861 7862 7863 7864 7865
6 7866 7867 7868 7869 7870 7871
6 7872 7873 7874 7875 7876 7877
6 7878 7879 7880 7881 7882 7883
6 7884 7885 7886 7887 7888 7889
6 7890 7891 7892 7893 7894 7895
6 7896 7897 7898 7899 7900 7901
6 7902 7903 7904 7905 7906 7907
6 7908 7909 7910 7911 7912 7913
6 7914 7915 7916 7917 7918 7919
6 7920 7921 7922 7923 7924 7925
6 7926 7927 7928 7929 7930 7931
6 7932 7933 7934 7935 7936 7937
6 7938 7939 7940 7941 7942 7943
6 7944 7945 7946 7947 7948 7949
6 7950 7951 7952 7953 7954 7955
6 7956 7957 7958 7959 7960 7961
6 7962 7963 7964 7965 7966 7967
6 7968 7969 7970 7971 7972 7973
6 7974 7975 7976 7977 7978 7979
6 7980 7981 7982 7983 7984 7985
6 7986 7987 7988 7989 7990 7991
6 7992 7993 7994 7995 7996 7997
6 7998 7999 8000 8001 8002 8003
6 8004 8005 8006 8007 8008 8009
6 8010 8011 8012 8013 8014 8015
6 8016 8017 8018 8019 8020 8021
6 8022 8023 8024 8025 8026 8027
6 8028 8029 8030 8031 8032 8033
6 8034 8035 8036 8037 8038 8039
6 8040 8041 8042 8043 8044 8045
6 8046 8047 8048 8049 8050 8051
6 8052 8053 8054 8055 8056 8057
6 8058 8059 8060 8061 8062 8063
6 8064 8065 8066 8067 8068 8069
6 8070 8071 8072 8073 8074 8075
6 8076 8077 8078 8079 8080 8081
6 8082 8083 8084 8085 8086 8087
6 8088 8089 8090 8091 8092 8093
6 8094 8095 8096 8097 8098 8099
6 8100 8101 8102 8103 8104 8105
6 8106 8107 8108 8109 8110 8111
6 8112 8113 8114 8115 8116 8117
6 8118 8119 8120 8121 8122 8123
6 8124 8125 8126 8127 8128 8129
6 8130 8131 8132 8133 8134 8135
6 8136 8137 8138 8139 8140 8141
6 8142 8143 8144 8145 8146 8147
6 8148 8149 8150 8151 8152 8153
6 8154 8155 8156 8157 8158 8159
6 8160 8161 8162 8163 8164 8165
6 8166 8167 8168 8169 8170 8171
6 8172 8173 8174 8175 8176 8177
6 8178 8179 8180 8181 8182 8183
6 8184 8185 8186 8187 8188 8189
6 8190 8191 8192 8193 8194 8195
6 8196 8197 8198 8199 8200 8201
6 8202 8203 8204 8205 8206 8207
6 8208 8209 8210 8211 8212 8213
6 8214 8215 8216 8217 8218 8219
6 8220 8221 8222 8223 8224 8225
6 8226 8227 8228 8229 8230 8231
6 8232 8233 8234 8235 8236 8237
6 8238 8239 8240 8241 8242 8243
6 8244 8245 8246 8247 8248 8249
6 8250 8251 8252 8253 8254 8255
6 8256 8257 8258 8259 8260 8261
6 8262 8263 8264 8265 8266 8267
6 8268 8269 8270 8271 8272 8273
6 8274 8275 8276 8277 8278 8279
6 8280 8281 8282 8283 8284 8285
6 8286 8287 8288 8289 8290 8291
6 8292 8293 8294 8295 8296 8297
6 8298 8299 8300 8301 8302 8303
6 8304 8305 8306 8307 8308 8309
6 8310 8311 8312 8313 8314 8315
6 8316 8317 8318 8319 8320 8321
6 8322 8323 8324 8325 8326 8327
6 8328 8329 8330 8331 8332 8333
6 8334 8335 8336 8337 8338 8339
6 8340 8341 8342 8343 8344 8345
6 8346 8347 8348 8349 8350 8351
6 8352 8353 8354 8355 8356 8357
6 8358 8359 8360 8361 8362 8363
6 8364 8365 8366 8367 8368 8369
6 8370 8371 8372 8373 8374 8375
6 8376 8377 8378 8379 8380 8381
6 8382 8383 8384 8385 8386 8387
6 8388 8389 8390 8391 8392 8393
6 8394 8395 8396 8397 8398 8399
6 8400 8401 8402 8403 8404 8405
6 8406 8407 8408 8409 8410 8411
6 8412 8413 8414 8415 8416 8417
6 8418 8419 8420 8421 8422 8423
6 8424 8425 8426 8427 8428 8429
6 8430 8431 8432 8433 8434 8435
6 8436 8437 8438 8439 8440 8441
6 8442 8443 8444 8445 8446 8447
6 8448 8449 8450 8451 8452 8453
6 8454 8455 8456 8457 8458 8459
6 8460 8461 8462 8463 8464 8465
6 8466 8467 8468 8469 8470 8471
6 8472 8473 8474 8475 8476 8477
6 8478 8479 8480 8481 8482 8483
6 8484 8485 8486 8487 8488 8489
6 8490 8491 8492 8493 8494 8495
6 8496 8497 8498 8499 8500 8501
6 8502 8503 8504 8505 8506 8507
6 8508 8509 8510 8511 8512 8513
6 8514 8515 8516 8517 8518 8519
6 8520 8521 8522 8523 8524 8525
6 8526 8527 8528 8529 8530 8531
6 8532 8533 8534 8535 8536 8537
6 8538 8539 8540 8541 8542 8543
6 8544 8545 8546 8547 8548 8549
6 8550 8551 8552 8553 8554 8555
6 8556 8557 8558 8559 8560 8561
6 8562 8563 8564 8565 8566 8567
6 8568 8569 8570 8571 8572 8573
6 8574 8575 8576 8577 8578 8579
6 8580 8581 8582 8583 8584 8585
6 8586 8587 8588 8589 8590 8591
6 8592 8593 8594 8595 8596 8597
6 8598 8599 8600 8601 8602 8603
6 8604 8605 8606 8607 8608 8609
6 8610 8611 8612 8613 8614 8615
6 8616 8617 8618 8619 8620 8621
6 8622 8623 8624 8625 8626 8627
6 8628 8629 8630 8631 8632 8633
6 8634 8635 8636 8637 8638 8639
6 8640 8641 8642 8643 8644 8645
6 8646 8647 8648 8649 8650 8651
6 8652 8653 8654 8655 8656 8657
6 8658 8659 8660 8661 8662 8663
6 8664 8665 8666 8667 8668 8669
6 8670 8671 8672 8673 8674 8675
6 8676 8677 8678 8679 8680 8681
6 8682 8683 8684 8685 8686 8687
6 8688 8689 8690 8691 8692 8693
6 8694 8695 8696 8697 8698 8699
6 8700 8701 8702 8703 8704 8705
6 8706 8707 8708 8709 8710 8711
6 8712 8713 8714 8715 8716 8717
6 8718 8719 8720 8721 8722 8723
6 8724 8725 8726 8727 8728 8729
6 8730 8731 8732 8733 8734 8735
6 8736 8737 8738 8739 8740 8741
6 8742 8743 8744 8745 8746 8747
6 8748 8749 8750 8751 8752 8753
6 8754 8755 8756 8757 8758 8759
6 8760 8761 8762 8763 8764 8765
6 8766 8767 8768 8769 8770 8771
6 8772 8773 8774 8775 8776 8777
6 8778 8779 8780 8781 8782 8783
6 8784 8785 8786 8787 8788 8789
6 8790 8791 8792 8793 8794 8795
6 8796 8797 8798 8799 8800 8801
6 8802 8803 8804 8805 8806 8807
6 8808 8809 8810 8811 8812 8813
6 8814 8815 8816 8817 8818 8819
6 8820 8821 8822 8823 8824 8825
6 8826 8827 8828 8829 8830 8831
6 8832 8833 8834 8835 8836 8837
6 8838 8839 8840 8841 8842 8843
6 8844 8845 8846 8847 8848 8849
6 8850 8851 8852 8853 8854 8855
6 8856 8857 8858 8859 8860 8861
6 8862 8863 8864 8865 8866 8867
6 8868 8869 8870 8871 8872 8873
6 8874 8875 8876 8877 8878 8879
6 8880 8881 8882 8883 8884 8885
6 8886 8887 8888 8889 8890 8891
6 8892 8893 8894 8895 8896 8897
6 8898 8899 8900 8901 8902 8903
6 8904 8905 8906 8907 8908 8909
6 8910 8911 8912 8913 8914 8915
6 8916 8917 8918 8919 8920 8921
6 8922 8923 8924 8925 8926 8927
6 8928 8929 8930 8931 8932 8933
6 8934 8935 8936 8937 8938 8939
6 8940 8941 8942 8943 8944 8945
6 8946 8947 8948 8949 8950 8951
6 8952 8953 8954 8955 8956 8957
6 8958 8959 8960 8961 8962 8963
6 8964 8965 8966 8967 8968 8969
6 8970 8971 8972 8973 8974 8975
6 8976 8977 8978 8979 8980 8981
6 8982 8983 8984 8985 8986 8987
6 8988 8989 8990 8991 8992 8993
6 8994 8995 8996 8997 8998 8999
6 9000 9001 9002 9003 9004 9005
6 9006 9007 9008 9009 9010 9011
6 9012 9013 9014 9015 9016 9017
6 9018 9019 9020 9021 9022 9023
6 9024 9025 9026 9027 9028 9029
6 9030 9031 9032 9033 9034 9035
6 9036 9037 9038 9039 9040 9041
6 9042 9043 9044 9045 9046 9047
6 9048 9049 9050 9051 9052 9053
6 9054 9055 9056 9057 9058 9059
6 9060 9061 9062 9063 9064 9065
6 9066 9067 9068 9069 9070 9071
6 9072 9073 9074 9075 9076 9077
6 9078 9079 9080 9081 9082 9083
6 9084 9085 9086 9087 9088 9089
6 9090 9091 9092 9093 9094 9095
6 9096 9097 9098 9099 9100 9101
6 9102 9103 9104 9105 9106 9107
6 9108 9109 9110 9111 9112 9113
6 9114 9115 9116 9117 9118 9119
6 9120 9121 9122 9123 9124 9125
6 9126 9127 9128 9129 9130 9131
6 9132 9133 9134 9135 9136 9137
6 9138 9139 9140 9141 9142 9143
6 9144 9145 9146 9147 9148 9149
6 9150 9151 9152 9153 9154 9155
6 9156 9157 9158 9159 9160 9161
6 9162 9163 9164 9165 9166 9167
6 9168 9169 9170 9171 9172 9173
6 9174 9175 9176 9177 9178 9179
6 9180 9181 9182 9183 9184 9185
6 9186 9187 9188 9189 9190 9191
6 9192 9193 9194 9195 9196 9197
6 9198 9199 9200 9201 9202 9203
6 9204 9205 9206 9207 9208 9209
6 9210 9211 9212 9213 9214 9215
6 9216 9217 9218 9219 9220 9221
6 9222 9223 9224 9225 9226 9227
6 9228 9229 9230 9231 9232 9233
6 9234 9235 9236 9237 9238 9239
6 9240 9241 9242 9243 9244 9245
6 9246 9247 9248 9249 9250 9251
6 9252 9253 9254 9255 9256 9257
6 9258 9259 9260 9261 9262 9263
6 9264 9265 9266 9267 9268 9269
6 9270 9271 9272 9273 9274 9275
6 9276 9277 9278 9279 9280 9281
6 9282 9283 9284 9285 9286 9287
6 9288 9289 9290 9291 9292 9293
6 9294 9295 9296 9297 9298 9299
6 9300 9301 9302 9303 9304 9305
6 9306 9307 9308 9309 9310 9311
6 9312 9313 9314 9315 9316 9317
6 9318 9319 9320 9321 9322 9323
6 9324 9325 9326 9327 9328 9329
6 9330 9331 9332 9333 9334 9335
6 9336 9337 9338 9339 9340 9341
6 9342 9343 9344 9345 9346 9347
6 9348 9349 9350 9351 9352 9353
6 9354 9355 9356 9357 9358 9359
6 9360 9361 9362 9363 9364 9365
6 9366 9367 9368 9369 9370 9371
6 9372 9373 9374 9375 9376 9377
6 9378 9379 9380 9381 9382 9383
6 9384 9385 9386 9387 9388 9389
6 9390 9391 9392 9393 9394 9395
6 9396 9397 9398 9399 9400 9401
6 9402 9403 9404 9405 9406 9407
6 9408 9409 9410 9411 9412 9413
6 9414 9415 9416 9417 9418 9419
6 9420 9421 9422 9423 9424 9425
6 9426 9427 9428 9429 9430 9431
6 9432 9433 9434 9435 9436 9437
6 9438 9439 9440 9441 9442 9443
6 9444 9445 9446 9447 9448 9449
6 9450 9451 9452 9453 9454 9455
6 9456 9457 9458 9459 9460 9461
6 9462 9463 9464 9465 9466 9467
6 9468 9469 9470 9471 9472 9473
6 9474 9475 9476 9477 9478 9479
6 9480 9481 9482 9483 9484 9485
6 9486 9487 9488 9489 9490 9491
6 9492 9493 9494 9495 9496 9497
6 9498 9499 9500 9501 9502 9503
6 9504 9505 9506 9507 9508 9509
6 9510 9511 9512 9513 9514 9515
6 9516 9517 9518 9519 9520 9521
6 9522 9523 9524 9525 9526 9527
6 9528 9529 9530 9531 9532 9533
6 9534 9535 9536 9537 9538 9539
6 9540 9541 9542 9543 9544 9545
6 9546 9547 9548 9549 9550 9551
6 9552 9553 9554 9555 9556 9557
6 9558 9559 9560 9561 9562 9563
6 9564 9565 9566 9567 9568 9569
6 9570 9571 9572 9573 9574 9575
6 9576 9577 9578 9579 9580 9581
6 9582 9583 9584 9585 9586 9587
6 9588 9589 9590 9591 9592 9593
6 9594 9595 9596 9597 9598 9599
6 9600 9601 9602 9603 9604 9605
6 9606 9607 9608 9609 9610 9611
6 9612 9613 9614 9615 9616 9617
6 9618 9619 9620 9621 9622 9623
6 9624 9625 9626 9627 9628 9629
6 9630 9631 9632 9633 9634 9635
6 9636 9637 9638 9639 9640 9641
6 9642 9643 9644 9645 9646 9647
6 9648 9649 9650 9651 9652 9653
6 9654 9655 9656 9657 9658 9659
6 9660 9661 9662 9663 9664 9665
6 9666 9667 9668 9669 9670 9671
6 9672 9673 9674 9675 9676 9677
6 9678 9679 9680 9681 9682 9683
6 9684 9685 9686 9687 9688 9689
6 9690 9691 9692 9693 9694 9695
6 9696 9697 9698 9699 9700 9701
6 9702 9703 9704 9705 9706 9707
6 9708 9709 9710 9711 9712 9713
6 9714 9715 9716 9717 9718 9719
6 9720 9721 9722 9723 9724 9725
6 9726 9727 9728 9729 9730 9731
6 9732 9733 9734 9735 9736 9737
6 9738 9739 9740 9741 9742 9743
6 9744 9745 9746 9747 9748 9749
6 9750 9751 9752 9753 9754 9755
6 9756 9757 9758 9759 9760 9761
6 9762 9763 9764 9765 9766 9767
6 9768 9769 9770 9771 9772 9773
6 9774 9775 9776 9777 9778 9779
6 9780 9781 9782 9783 9784 9785
6 9786 9787 9788 9789 9790 9791
6 9792 9793 9794 9795 9796 9797
6 9798 9799 9800 9801 9802 9803
6 9804 9805 9806 9807 9808 9809
6 9810 9811 9812 9813 9814 9815
6 9816 9817 9818 9819 9820 9821
6 9822 9823 9824 9825 9826 9827
6 9828 9829 9830 9831 9832 9833
6 9834 9835 9836 9837 9838 9839
6 9840 9841 9842 9843 9844 9845
6 9846 9847 9848 9849 9850 9851
6 9852 9853 9854 9855 9856 9857
6 9858 9859 9860 9861 9862 9863
6 9864 9865 9866 9867 9868 9869
6 9870 9871 9872 9873 9874 9875
6 9876 9877 9878 9879 9880 9881
6 9882 9883 9884 9885 9886 9887
6 9888 9889 9890 9891 9892 9893
6 9894 9895 9896 9897 9898 9899
6 9900 9901 9902 9903 9904 9905
6 9906 9907 9908 9909 9910 9911
6 9912 9913 9914 9915 9916 9917
6 9918 9919 9920 9921 9922 9923
6 9924 9925 9926 9927 9928 9929
6 9930 9931 9932 9933 9934 9935
6 9936 9937 9938 9939 9940 9941
6 9942 9943 9944 9945 9946 9947
6 9948 9949 9950 9951 9952 9953
6 9954 9955 9956 9957 9958 9959
6 9960 9961 9962 9963 9964 9965
6 9966 9967 9968 9969 9970 9971
6 9972 9973 9974 9975 9976 9977
6 9978 9979 9980 9981 9982 9983
6 9984 9985 9986 9987 9988 9989
6 9990 9991 9992 9993 9994 9995
6 9996 9997 9998 9999 10000 10001
6 10002 10003 10004 10005 10006 10007
6 10008 10009 10010 10011 10012 10013
6 10014 10015 10016 10017 10018 10019
6 10020 10021 10022 10023 10024 10025
6 10026 10027 10028 10029 10030 10031
6 10032 10033 10034 10035 10036 10037
6 10038 10039 10040 10041 10042 10043
6 10044 10045 10046 10047 10048 10049
6 10050 10051 10052 10053 10054 10055
6 10056 10057 10058 10059 10060 10061
6 10062 10063 10064 10065 10066 10067
6 10068 10069 10070 10071 10072 10073
6 10074 10075 10076 10077 10078 10079
6 10080 10081 10082 10083 10084 10085
6 10086 10087 10088 10089 10090 10091
6 10092 10093 10094 10095 10096 10097
6 10098 10099 10100 10101 10102 10103
6 10104 10105 10106 10107 10108 10109
6 10110 10111 10112 10113 10114 10115
6 10116 10117 10118 10119 10120 10121
6 10122 10123 10124 10125 10126 10127
6 10128 10129 10130 10131 10132 10133
6 10134 10135 10136 10137 10138 10139
6 10140 10141 10142 10143 10144 10145
6 10146 10147 10148 10149 10150 10151
6 10152 10153 10154 10155 10156 10157
6 10158 10159 10160 10161 10162 10163
6 10164 10165 10166 10167 10168 10169
6 10170 10171 10172 10173 10174 10175
6 10176 10177 10178 10179 10180 10181
6 10182 10183 10184 10185 10186 10187
6 10188 10189 10190 10191 10192 10193
6 10194 10195 10196 10197 10198 10199
6 10200 10201 10202 10203 10204 10205
6 10206 10207 10208 10209 10210 10211
6 10212 10213 10214 10215 10216 10217
6 10218 10219 10220 10221 10222 10223
6 10224 10225 10226 10227 10228 10229
6 10230 10231 10232 10233 10234 10235
6 10236 10237 10238 10239 10240 10241
6 10242 10243 10244 10245 10246 10247
6 10248 10249 10250 10251 10252 10253
6 10254 10255 10256 10257 10258 10259
6 10260 10261 10262 10263 10264 10265
6 10266 10267 10268 10269 10270 10271
6 10272 10273 10274 10275 10276 10277
6 10278 10279 10280 10281 10282 10283
6 10284 10285 10286 10287 10288 10289
6 10290 10291 10292 10293 10294 10295
6 10296 10297 10298 10299 10300 10301
6 10302 10303 10304 10305 10306 10307
6 10308 10309 10310 10311 10312 10313
6 10314 10315 10316 10317 10318 10319
6 10320 10321 10322 10323 10324 10325
6 10326 10327 10328 10329 10330 10331
6 10332 10333 10334 10335 10336 10337
6 10338 10339 10340 10341 10342 10343
6 10344 10345 10346 10347 10348 10349
6 10350 10351 10352 10353 10354 10355
6 10356 10357 10358 10359 10360 10361
6 10362 10363 10364 10365 10366 10367
6 10368 10369 10370 10371 10372 10373
6 10374 10375 10376 10377 10378 10379
6 10380 10381 10382 10383 10384 10385
6 10386 10387 10388 10389 10390 10391
6 10392 10393 10394 10395 10396 10397
6 10398 10399 10400 10401 10402 10403
6 10404 10405 10406 10407 10408 10409
6 10410 10411 10412 10413 10414 10415
6 10416 10417 10418 10419 10420 10421
6 10422 10423 10424 10425 10426 10427
6 10428 10429 10430 10431 10432 10433
6 10434 10435 10436 10437 10438 10439
6 10440 10441 10442 10443 10444 10445
6 10446 10447 10448 10449 10450 10451
6 10452 10453 10454 10455 10456 10457
6 10458 10459 10460 10461 10462 10463
6 10464 10465 10466 10467 10468 10469
6 10470 10471 10472 10473 10474 10475
6 10476 10477 10478 10479 10480 10481
6 10482 10483 10484 10485 10486 10487
6 10488 10489 10490 10491 10492 10493
6 10494 10495 10496 10497 10498 10499
6 10500 10501 10502 10503 10504 10505
6 10506 10507 10508 10509 10510 10511
6 10512 10513 10514 10515 10516 10517
6 10518 10519 10520 10521 10522 10523
6 10524 10525 10526 10527 10528 10529
6 10530 10531 10532 10533 10534 10535
6 10536 10537 10538 10539 10540 10541
6 10542 10543 10544 10545 10546 10547
6 10548 10549 10550 10551 10552 10553
6 10554 10555 10556 10557 10558 10559
6 10560 10561 10562 10563 10564 10565
6 10566 10567 10568 10569 10570 10571
6 10572 10573 10574 10575 10576 10577
6 10578 10579 10580 10581 10582 10583
6 10584 10585 10586 10587 10588 10589
6 10590 10591 10592 10593 10594 10595
6 10596 10597 10598 10599 10600 10601
6 10602 10603 10604 10605 10606 10607
6 10608 10609 10610 10611 10612 10613
6 10614 10615 10616 10617 10618 10619
6 10620 10621 10622 10623 10624 10625
6 10626 10627 10628 10629 10630 10631
6 10632 10633 10634 10635 10636 10637
6 10638 10639 10640 10641 10642 10643
6 10644 10645 10646 10647 10648 10649
6 10650 10651 10652 10653 10654 10655
6 10656 10657 10658 10659 10660 10661
6 10662 10663 10664 10665 10666 10667
6 10668 10669 10670 10671 10672 10673
6 10674 10675 10676 10677 10678 10679
6 10680 10681 10682 10683 10684 10685
6 10686 10687 10688 10689 10690 10691
6 10692 10693 10694 10695 10696 10697
6 10698 10699 10700 10701 10702 10703
6 10704 10705 10706 10707 10708 10709
6 10710 10711 10712 10713 10714 10715
6 10716 10717 10718 10719 10720 10721
6 10722 10723 10724 10725 10726 10727
6 10728 10729 10730 10731 10732 10733
6 10734 10735 10736 10737 10738 10739
6 10740 10741 10742 10743 10744 10745
6 10746 10747 10748 10749 10750 10751
6 10752 10753 10754 10755 10756 10757
6 10758 10759 10760 10761 10762 10763
6 10764 10765 10766 10767 10768 10769
6 10770 10771 10772 10773 10774 10775
6 10776 10777 10778 10779 10780 10781
6 10782 10783 10784 10785 10786 10787
6 10788 10789 10790 10791 10792 10793
6 10794 10795 10796 10797 10798 10799
6 10800 10801 10802 10803 10804 10805
6 10806 10807 10808 10809 10810 10811
6 10812 10813 10814 10815 10816 10817
6 10818 10819 10820 10821 10822 10823
6 10824 10825 10826 10827 10828 10829
6 10830 10831 10832 10833 10834 10835
6 10836 10837 10838 10839 10840 10841
6 10842 10843 10844 10845 10846 10847
6 10848 10849 10850 10851 10852 10853
6 10854 10855 10856 10857 10858 10859
6 10860 10861 10862 10863 10864 10865
6 10866 10867 10868 10869 10870 10871
6 10872 10873 10874 10875 10876 10877
6 10878 10879 10880 10881 10882 10883
6 10884 10885 10886 10887 10888 10889
6 10890 10891 10892 10893 10894 10895
6 10896 10897 10898 10899 10900 10901
6 10902 10903 10904 10905 10906 10907
6 10908 10909 10910 10911 10912 10913
6 10914 10915 10916 10917 10918 10919
6 10920 10921 10922 10923 10924 10925
6 10926 10927 10928 10929 10930 10931
6 10932 10933 10934 10935 10936 10937
6 10938 10939 10940 10941 10942 10943
6 10944 10945 10946 10947 10948 10949
6 10950 10951 10952 10953 10954 10955
6 10956 10957 10958 10959 10960 10961
6 10962 10963 10964 10965 10966 10967
6 10968 10969 10970 10971 10972 10973
6 10974 10975 10976 10977 10978 10979
6 10980 10981 10982 10983 10984 10985
6 10986 10987 10988 10989 10990 10991
6 10992 10993 10994 10995 10996 10997
6 10998 10999 11000 11001 11002 11003
6 11004 11005 11006 11007 11008 11009
6 11010 11011 11012 11013 11014 11015
6 11016 11017 11018 11019 11020 11021
6 11022 11023 11024 11025 11026 11027
6 11028 11029 11030 11031 11032 11033
6 11034 11035 11036 11037 11038 11039
6 11040 11041 11042 11043 11044 11045
6 11046 11047 11048 11049 11050 11051
6 11052 11053 11054 11055 11056 11057
6 11058 11059 11060 11061 11062 11063
6 11064 11065 11066 11067 11068 11069
6 11070 11071 11072 11073 11074 11075
6 11076 11077 11078 11079 11080 11081
6 11082 11083 11084 11085 11086 11087
6 11088 11089 11090 11091 11092 11093
6 11094 11095 11096 11097 11098 11099
6 11100 11101 11102 11103 11104 11105
6 11106 11107 11108 11109 11110 11111
6 11112 11113 11114 11115 11116 11117
6 11118 11119 11120 11121 11122 11123
6 11124 11125 11126 11127 11128 11129
6 11130 11131 11132 11133 11134 11135
6 11136 11137 11138 11139 11140 11141
6 11142 11143 11144 11145 11146 11147
6 11148 11149 11150 11151 11152 11153
6 11154 11155 11156 11157 11158 11159
6 11160 11161 11162 11163 11164 11165
6 11166 11167 11168 11169 11170 11171
6 11172 11173 11174 11175 11176 11177
6 11178 11179 11180 11181 11182 11183
6 11184 11185 11186 11187 11188 11189
6 11190 11191 11192 11193 11194 11195
6 11196 11197 11198 11199 11200 11201
6 11202 11203 11204 11205 11206 11207
6 11208 11209 11210 11211 11212 11213
6 11214 11215 11216 11217 11218 11219
6 11220 11221 11222 11223 11224 11225
6 11226 11227 11228 11229 11230 11231
6 11232 11233 11234 11235 11236 11237
6 11238 11239 11240 11241 11242 11243
6 11244 11245 11246 11247 11248 11249
6 11250 11251 11252 11253 11254 11255
6 11256 11257 11258 11259 11260 11261
6 11262 11263 11264 11265 11266 11267
6 11268 11269 11270 11271 11272 11273
6 11274 11275 11276 11277 11278 11279
6 11280 11281 11282 11283 11284 11285
6 11286 11287 11288 11289 11290 11291
6 11292 11293 11294 11295 11296 11297
6 11298 11299 11300 11301 11302 11303
6 11304 11305 11306 11307 11308 11309
6 11310 11311 11312 11313 11314 11315
6 11316 11317 11318 11319 11320 11321
6 11322 11323 11324 11325 11326 11327
6 11328 11329 11330 11331 11332 11333
6 11334 11335 11336 11337 11338 11339
6 11340 11341 11342 11343 11344 11345
6 11346 11347 11348 11349 11350 11351
6 11352 11353 11354 11355 11356 11357
6 11358 11359 11360 11361 11362 11363
6 11364 11365 11366 11367 11368 11369
6 11370 11371 11372 11373 11374 11375
6 11376 11377 11378 11379 11380 11381
6 11382 11383 11384 11385 11386 11387
6 11388 11389 11390 11391 11392 11393
6 11394 11395 11396 11397 11398 11399
6 11400 11401 11402 11403 11404 11405
6 11406 11407 11408 11409 11410 11411
6 11412 11413 11414 11415 11416 11417
6 11418 11419 11420 11421 11422 11423
6 11424 11425 11426 11427 11428 11429
6 11430 11431 11432 11433 11434 11435
6 11436 11437 11438 11439 11440 11441
6 11442 11443 11444 11445 11446 11447
6 11448 11449 11450 11451 11452 11453
6 11454 11455 11456 11457 11458 11459
6 11460 11461 11462 11463 11464 11465
6 11466 11467 11468 11469 11470 11471
6 11472 11473 11474 11475 11476 11477
6 11478 11479 11480 11481 11482 11483
6 11484 11485 11486 11487 11488 11489
6 11490 11491 11492 11493 11494 11495
6 11496 11497 11498 11499 11500 11501
6 11502 11503 11504 11505 11506 11507
6 11508 11509 11510 11511 11512 11513
6 11514 11515 11516 11517 11518 11519
6 11520 11521 11522 11523 11524 11525
6 11526 11527 11528 11529 11530 11531
6 11532 11533 11534 11535 11536 11537
6 11538 11539 11540 11541 11542 11543
6 11544 11545 11546 11547 11548 11549
6 11550 11551 11552 11553 11554 11555
6 11556 11557 11558 11559 11560 11561
6 11562 11563 11564 11565 11566 11567
6 11568 11569 11570 11571 11572 11573
6 11574 11575 11576 11577 11578 11579
6 11580 11581 11582 11583 11584 11585
6 11586 11587 11588 11589 11590 11591
6 11592 11593 11594 11595 11596 11597
6 11598 11599 11600 11601 11602 11603
6 11604 11605 11606 11607 11608 11609
6 11610 11611 11612 11613 11614 11615
6 11616 11617 11618 11619 11620 11621
6 11622 11623 11624 11625 11626 11627
6 11628 11629 11630 11631 11632 11633
6 11634 11635 11636 11637 11638 11639
6 11640 11641 11642 11643 11644 11645
6 11646 11647 11648 11649 11650 11651
6 11652 11653 11654 11655 11656 11657
6 11658 11659 11660 11661 11662 11663
6 11664 11665 11666 11667 11668 11669
6 11670 11671 11672 11673 11674 11675
6 11676 11677 11678 11679 11680 11681
6 11682 11683 11684 11685 11686 11687
6 11688 11689 11690 11691 11692 11693
6 11694 11695 11696 11697 11698 11699
6 11700 11701 11702 11703 11704 11705
6 11706 11707 11708 11709 11710 11711
6 11712 11713 11714 11715 11716 11717
6 11718 11719 11720 11721 11722 11723
6 11724 11725 11726 11727 11728 11729
6 11730 11731 11732 11733 11734 11735
6 11736 11737 11738 11739 11740 11741
6 11742 11743 11744 11745 11746 11747
6 11748 11749 11750 11751 11752 11753
6 11754 11755 11756 11757 11758 11759
6 11760 11761 11762 11763 11764 11765
6 11766 11767 11768 11769 11770 11771
6 11772 11773 11774 11775 11776 11777
6 11778 11779 11780 11781 11782 11783
6 11784 11785 11786 11787 11788 11789
6 11790 11791 11792 11793 11794 11795
6 11796 11797 11798 11799 11800 11801
6 11802 11803 11804 11805 11806 11807
6 11808 11809 11810 11811 11812 11813
6 11814 11815 11816 11817 11818 11819
6 11820 11821 11822 11823 11824 11825
6 11826 11827 11828 11829 11830 11831
6 11832 11833 11834 11835 11836 11837
6 11838 11839 11840 11841 11842 11843
6 11844 11845 11846 11847 11848 11849
6 11850 11851 11852 11853 11854 11855
6 11856 11857 11858 11859 11860 11861
6 11862 11863 11864 11865 11866 11867
6 11868 11869 11870 11871 11872 11873
6 11874 11875 11876 11877 11878 11879
6 11880 11881 11882 11883 11884 11885
6 11886 11887 11888 11889 11890 11891
6 11892 11893 11894 11895 11896 11897
6 11898 11899 11900 11901 11902 11903
6 11904 11905 11906 11907 11908 11909
6 11910 11911 11912 11913 11914 11915
6 11916 11917 11918 11919 11920 11921
6 11922 11923 11924 11925 11926 11927
6 11928 11929 11930 11931 11932 11933
6 11934 11935 11936 11937 11938 11939
6 11940 11941 11942 11943 11944 11945
6 11946 11947 11948 11949 11950 11951
6 11952 11953 11954 11955 11956 11957
6 11958 11959 11960 11961 11962 11963
6 11964 11965 11966 11967 11968 11969
6 11970 11971 11972 11973 11974 11975
6 11976 11977 11978 11979 11980 11981
6 11982 11983 11984 11985 11986 11987
6 11988 11989 11990 11991 11992 11993
6 11994 11995 11996 11997 11998 11999
6 12000 12001 12002 12003 12004 12005
6 12006 12007 12008 12009 12010 12011
6 12012 12013 12014 12015 12016 12017
6 12018 12019 12020 12021 12022 12023
6 12024 12025 12026 12027 12028 12029
6 12030 12031 12032 12033 12034 12035
6 12036 12037 12038 12039 12040 12041
6 12042 12043 12044 12045 12046 12047
6 12048 12049 12050 12051 12052 12053
6 12054 12055 12056 12057 12058 12059
6 12060 12061 12062 12063 12064 12065
6 12066 12067 12068 12069 12070 12071
6 12072 12073 12074 12075 12076 12077
6 12078 12079 12080 12081 12082 12083
6 12084 12085 12086 12087 12088 12089
6 12090 12091 12092 12093 12094 12095
6 12096 12097 12098 12099 12100 12101
6 12102 12103 12104 12105 12106 12107
6 12108 12109 12110 12111 12112 12113
6 12114 12115 12116 12117 12118 12119
6 12120 12121 12122 12123 12124 12125
6 12126 12127 12128 12129 12130 12131
6 12132 12133 12134 12135 12136 12137
6 12138 12139 12140 12141 12142 12143
6 12144 12145 12146 12147 12148 12149
6 12150 12151 12152 12153 12154 12155
6 12156 12157 12158 12159 12160 12161
6 12162 12163 12164 12165 12166 12167
6 12168 12169 12170 12171 12172 12173
6 12174 12175 12176 12177 12178 12179
6 12180 12181 12182 12183 12184 12185
6 12186 12187 12188 12189 12190 12191
6 12192 12193 12194 12195 12196 12197
6 12198 12199 12200 12201 12202 12203
6 12204 12205 12206 12207 12208 12209
6 12210 12211 12212 12213 12214 12215
6 12216 12217 12218 12219 12220 12221
6 12222 12223 12224 12225 12226 12227
6 12228 12229 12230 12231 12232 12233
6 12234 12235 12236 12237 12238 12239
6 12240 12241 12242 12243 12244 12245
6 12246 12247 12248 12249 12250 12251
6 12252 12253 12254 12255 12256 12257
6 12258 12259 12260 12261 12262 12263
6 12264 12265 12266 12267 12268 12269
6 12270 12271 12272 12273 12274 12275
6 12276 12277 12278 12279 12280 12281
6 12282 12283 12284 12285 12286 12287

CELL_TYPES 2048
22
22
22
22
22
22
22
22
22
22
22
22
22
22
22
22
22
22
22
22
22
22
22
22
22
22
22
22
22
22
22
22
22
22
22
22
22
22
22
22
22
22
22
22
22
22
22
22
22
22
22
22
22
22
22
22
22
22
22
22
22
22
22
22
22
22
22
22
22
22
22
22
22
22
22
22
22
22
22
22
22
22
22
22
22
22
22
22
22
22
22
22
22
22
22
22
22
22
22
22
22
22
22
22
22
22
22
22
22
22
22
22
22
22
22
22
22
22
22
22
22
22
22
22
22
22
22
22
22
22
22
22
22
22
22
22
22
22
22
22
22
22
22
22
22
22
22
22
22
22
22
22
22
22
22
22
22
22
22
22
22
22
22
22
22
22
22
22
22
22
22
22
22
22
22
22
22
22
22
22
22
22
22
22
22
22
22
22
22
22
22
22
22
22
22
22
22
22
22
22
22
22
22
22
22
22
22
22
22
22
22
22
22
22
22
22
22
22
22
22
22
22
22
22
22
22
22
22
22
22
22
22
22
22
22
22
22
22
22
22
22
22
22
22
22
22
22
22
22
22
22
22
22
22
22
22
22
22
22
22
22
22
22
22
22
22
22
22
22
22
22
22
22
22
22
22
22
22
22
22
22
22
22
22
22
22
22
22
22
22
22
22
22
22
22
22
22
22
22
22
22
22
22
22
22
22
22
22
22
22
22
22
22
22
22
22
22
22
22
22
22
22
22
22
22
22
22
22
22
22
22
22
22
22
22
22
22
22
22
22
22
22
22
22
22
22
22
22
22
22
22
22
22
22
22
22
22
22
22
22
22
22
22
22
22
22
22
22
22
22
22
22
22
22
22
22
22
22
22
22
22
22
22
22
22
22
22
22
22
22
22
22
22
22
22
22
22
22
22
22
22
22
22
22
22
22
22
22
22
22
22
22
22
22
22
22
22
22
22
22
22
22
22
22
22
22
22
22
22
22
22
22
22
22
22
22
22
22
22
22
22
22
22
22
22
22
22
22
22
22
22
22
22
22
22
22
22
22
22
22
22
22
22
22
22
22
22
22
22
22
22
22
22
22
22
22
22
22
22
22
22
22
22
22
22
22
22
22
22
22
22
22
22
22
22
22
22
22
22
22
22
22
22
22
22
22
22
22
22
22
22
22
22
22
22
22
22
22
22
22
22
22
22
22
22
22
22
22
22
22
22
22
22
22
22
22
22
22
22
22
22
22
22
22
22
22
22
22
22
22
22
22
22
22
22
22
22
22
22
22
22
22
22
22
22
22
22
22
22
22
22
22
22
22
22
22
22
22
22
22
22
22
22
22
22
22
22
22
22
22
22
22
22
22
22
22
22
22
22
22
22
22
22
22
22
22
22
22
22
22
22
22
22
22
22
22
22
22
22
22
22
22
22
22
22
22
22
22
22
22
22
22
22
22
22
22
22
22
22
22
22
22
22
22
22
22
22
22
22
22
22
22
22
22
22
22
22
22
22
22
22
22
22
22
22
22
22
22
22
22
22
22
22
22
22
22
22
22
22
22
22
22
22
22
22
22
22
22
22
22
22
22
22
22
22
22
22
22
22
22
22
22
22
22
22
22
22
22
22
22
22
22
22
22
22
22
22
22
22
22
22
22
22
22
22
22
22
22
22
22
22
22
22
22
22
22
22
22
22
22
22
22
22
22
22
22
22
22
22
22
22
22
22
22
22
22
22
22
22
22
22
22
22
22
22
22
22
22
22
22
22
22
22
22
22
22
22
22
22
22
22
22
22
22
22
22
22
22
22
22
22
22
22
22
22
22
22
22
22
22
22
22
22
22
22
22
22
22
22
22
22
22
22
22
22
22
22
22
22
22
22
22
22
22
22
22
22
22
22
22
22
22
22
22
22
22
22
22
22
22
22
22
22
22
22
22
22
22
22
22
22
22
22
22
22
22
22
22
22
22
22
22
22
22
22
22
22
22
22
22
22
22
22
22
22
22
22
22
22
22
22
22
22
22
22
22
22
22
22
22
22
22
22
22
22
22
22
22
22
22
22
22
22
22
22
22
22
22
22
22
22
22
22
22
22
22
22
22
22
22
22
22
22
22
22
22
22
22
22
22
22
22
22
22
22
22
22
22
22
22
22
22
22
22
22
22
22
22
22
22
22
22
22
22
22
22
22
22
22
22
22
22
22
22
22
22
22
22
22
22
22
22
22
22
22
22
22
22
22
22
22
22
22
22
22
22
22
22
22
22
22
22
22
22
22
22
22
22
22
22
22
22
22
22
22
22
22
22
22
22
22
22
22
22
22
22
22
22
22
22
22
22
22
22
22
22
22
22
22
22
22
22
22
22
22
22
22
22
22
22
22
22
22
22
22
22
22
22
22
22
22
22
22
22
22
22
22
22
22
22
22
22
22
22
22
22
22
22
22
22
22
22
22
22
22
22
22
22
22
22
22
22
22
22
22
22
22
22
22
22
22
22
22
22
22
22
22
22
22
22
22
22
22
22
22
22
22
22
22
22
22
22
22
22
22
22
22
22
22
22
22
22
22
22
22
22
22
22
22
22
22
22
22
22
22
22
22
22
22
22
22
22
22
22
22
22
22
22
22
22
22
22
22
22
22
22
22
22
22
22
22
22
22
22
22
22
22
22
22
22
22
22
22
22
22
22
22
22
22
22
22
22
22
22
22
22
22
22
22
22
22
22
22
22
22
22
22
22
22
22
22
22
22
22
22
22
22
22
22
22
22
22
22
22
22
22
22
22
22
22
22
22
22
22
22
22
22
22
22
22
22
22
22
22
22
22
22
22
22
22
22
22
22
22
22
22
22
22
22
22
22
22
22
22
22
22
22
22
22
22
22
22
22
22
22
22
22
22
22
22
22
22
22
22
22
22
22
22
22
22
22
22
22
22
22
22
22
22
22
22
22
22
22
22
22
22
22
22
22
22
22
22
22
22
22
22
22
22
22
22
22
22
22
22
22
22
22
22
22
22
22
22
22
22
22
22
22
22
22
22
22
22
22
22
22
22
22
22
22
22
22
22
22
22
22
22
22
22
22
22
22
22
22
22
22
22
22
22
22
22
22
22
22
22
22
22
22
22
22
22
22
22
22
22
22
22
22
22
22
22
22
22
22
22
22
22
22
22
22
22
22
22
22
22
22
22
22
22
22
22
22
22
22
22
22
22
22
22
22
22
22
22
22
22
22
22
22
22
22
22
22
22
22
22
22
22
22
22
22
22
22
22
22
22
22
22
22
22
22
22
22
22
22
22
22
22
22
22
22
22
22
22
22
22
22
22
22
22
22
22
22
22
22
22
22
22
22
22
22
22
22
22
22
22
22
22
22
22
22
22
22
22
22
22
22
22
22
22
22
22
22
22
22
22
22
22
22
22
22
22
22
22
22
22
22
22
22
22
22
22
22
22
22
22
22
22
22
22
22
22
22
22
22
22
22
22
22
22
22
22
22
22
22
22
22
22
22
22
22
22
22
22
22
22
22
22
22
22
22
22
22
22
22
22
22
22
22
22
22
22
22
22
22
22
22
22
22
22
22
22
22
22
22
22
22
22
22
22
22
22
22
22
22
22
22
22
22
22
22
22
22
22
22
22
22
22
22
22
22
22
22
22
22
22
22
22
22
22
22
22
22
22
22
22
22
22
22
22
22
22
22
22
22
22
22
22
22
22
22
22
22
22
22
22
22
22
22
22
22
22
22
22
22
22
22
22
22
22
22
22
22
22
22
22
22
22
22
22
22
22
22
22
22
22
22
22
22
22
22
22
22
22
22
22
22
22
22
22
22
22
22
22
22
22
22
22
22
22
22
22
22
22
22
22
22
22
22
22
22
22
22
22
22
22
22
22
22
22
22
22
22
22
22
22
22
22
22
22
22
22
22
22
22
22
22
22
22
22
22
22
22
22
22
22
22
22
22
22
22
22
22
22
22
22
22
22
22
22
22
22
22
22
22
22
22
22
22
22
22
22
22
22
22
22
22
22
22
22
22
22
22
22
22
22
22
22
22
22
22
22
22
22
22
22
22
22
22
22
22
22
22
22
22
22
22
22
22
22
22
22
22
22
22
22
22
22
22
22
22
22
22
22
22
22
22
22
22
22
22
22
22
22
22
22
22
22
22
22
22
22
22
22
22
22
22
22
22
22
22
22
22
22
22
22
22
22
22
22
22
22
22
22
22
22
22
22
22
22
22
22
22
22
22
22
22
22
22
22
22
22
22
22
22
22
22
22
22
22
22
22
22
22
22
22
22
22
22
22
22
22
22
22
22
22
22
22
22
22
22
22
22
22
22
22
22
22
22
22
22
22
22
22
22
22
22
22
22
22
22
22
22
22
22
22
22
22
22
22
22
22
22
22
22
22
22
22
22
22
22
22
22
22
22
22
22
22
22
22
22
22
22
22
22
22
22
22
22
22
22
22
22
22
22
22
22
22
22
22
22
22
22
22
22
22
22
22
22
22
22
22
22
22
22
22
22
22
22
22
22
22
22
22
22
22
22
22
22
22
22
22
22
22
22
22
22
22
22
22
22
22
22
22
22
22
22
22
22
22
22
22
22
22
22
22
22
22
22
22
22
22
22
22
22
22
22
22
22
22
22
22
22
22
22
22
22
22
22
22

POINT_DATA 12288
VECTORS stress_1 float
0.0283219 0.0309398 0
0.172464 0.0668313 0
0.0642134 0.0263698 0
0.100393 0.0488856 0
0.118339 0.0466005 0
0.0462676 0.0286548 0
0.061864 0.0309398 0
0.0715295 0.0263698 0
0.0547327 0.0212743 0
0.0666967 0.0286548 0
0.0631311 0.023822 0
0.0582983 0.026107 0
0.0554805 0.0217779 0
0.0720774 0.0219035 0
0.0556061 0.0153193 0
0.0637789 0.0218407 0
0.0638418 0.0186114 0
0.0555433 0.0185486 0
0.0554805 0.0216226 0
0.0512812 0.0247257 0
0.0720774 0.0258219 0
0.0533808 0.0231742 0
0.0616793 0.0252738 0
0.0637789 0.0237223 0
0.055791 0.0217779 0
0.0580494 0.0153193 0
0.0465245 0.0195195 0
0.0569202 0.0185486 0
0.052287 0.0174194 0
0.0511577 0.0206487 0
0.055791 0.0216226 0
0.0465245 0.0177747 0
0.0519431 0.0247257 0
0.0511577 0.0196987 0
0.0492338 0.0212502 0
0.053867 0.0231742 0
0.0638277 0 0
0.079649 0.0418054 0
0.105633 0 0
0.0717384 0.0209027 0
0.0926411 0.0209027 0
0.0847305 0 0
0.0638277 0 0
0.0497139 0 0
0.079649 0.0141139 0
0.0567708 0 0
0.0646814 0.00705694 0
0.0717384 0.00705694 0
0.0612555 0.00973292 0
0.0571371 0.0168503 0
0.0683729 0.018199 0
0.0591963 0.0132916 0
0.062755 0.0175246 0
0.0648142 0.0139659 0
0.0618391 0.00973292 0
0.0755639 0.018199 0
0.0537058 -0.00399193 0
0.0687015 0.0139659 0
0.0646349 0.00710352 0
0.0577724 0.0028705 0
0.0612555 0.00944114 0
0.0548914 0.00397266 0
0.0571371 0.0158052 0
0.0580735 0.0067069 0
0.0560143 0.00988892 0
0.0591963 0.0126232 0
0.0618391 0.00944114 0
0.0537058 0.0011382 0
0.0535361 0.00397266 0
0.0577724 0.00528967 0
0.053621 0.00255543 0
0.0576876 0.0067069 0
0.0423797 0.0146397 0
0.0454891 0.019031 0
0.0369096 0.0115303 0
0.0439344 0.0168354 0
0.0411994 0.0152807 0
0.0396446 0.013085 0
0.0406057 0.0146397 0
0.0490322 0.0218148 0
0.0477808 0.019031 0
0.0448189 0.0182273 0
0.0484065 0.0204229 0
0.0441932 0.0168354 0
0.0395769 0.014818 0
0.036219 0.0122209 0
0.0463443 0.0181759 0
0.0378979 0.0135194 0
0.0412816 0.0151984 0
0.0429606 0.0164969 0
0.0395769 0.0148324 0
0.0463443 0.0176422 0
0.0423867 0.0153235 0
0.0429606 0.0162373 0
0.0443655 0.0164828 0
0.0409818 0.015078 0
0.0396059 0.014818 0
0.0343025 0.0122619 0
0.0370498 0.0122209 0
0.0369542 0.0135399 0
0.0356761 0.0122414 0
0.0383278 0.0135194 0
0.0396059 0.0148324 0
0.0418457 0.0153235 0
0.0343025 0.0125927 0
0.0407258 0.015078 0
0.0380741 0.0139581 0
0.0369542 0.0137125 0
0.0482426 0.0160974 0
0.0476243 0.0184196 0
0.056653 0.0167157 0
0.0479335 0.0172585 0
0.0521387 0.0175676 0
0.0524478 0.0164065 0
0.0482895 0.0160974 0
0.0419927 0.0149295 0
0.0471216 0.0184196 0
0.0451411 0.0155135 0
0.0445572 0.0166746 0
0.0477056 0.0172585 0
0.0482426 0.0161208 0
0.056653 0.0156691 0
0.0477909 0.0124813 0
0.0524478 0.015895 0
0.052222 0.0140752 0
0.0480168 0.0143011 0
0.0482895 0.0161208 0
0.0487623 0.0124813 0
0.0419927 0.0156481 0
0.0485259 0.0143011 0
0.0453775 0.0140647 0
0.0451411 0.0158844 0
0.0422749 0.0133398 0
0.0481547 0.0126685 0
0.0416036 0.0112939 0
0.0452148 0.0130042 0
0.0448792 0.0119812 0
0.0419392 0.0123169 0
0.0422749 0.0133349 0
0.0425209 0.0151199 0
0.0481547 0.0130888 0
0.0423979 0.0142274 0
0.0453378 0.0141044 0
0.0452148 0.0132118 0
0.0422847 0.0133398 0
0.0421224 0.0112939 0
0.0372625 0.0135021 0
0.0422036 0.0123169 0
0.0396925 0.012398 0
0.0397736 0.013421 0
0.0422847 0.0133349 0
0.0372625 0.0131509 0
0.0421008 0.0151199 0
0.0397736 0.0132429 0
0.0396817 0.0141354 0
0.0421928 0.0142274 0
0.0458498 0.00958181 0
0.0418341 0.0115245 0
0.0477925 0.0123062 0
0.043842 0.0105531 0
0.0448133 0.0119153 0
0.0468211 0.010944 0
0.0458844 0.00958181 0
0.0488049 0.0123062 0
0.0491063 0.00666137 0
0.0473446 0.010944 0
0.0489556 0.0094838 0
0.0474954 0.00812159 0
0.0458498 0.0095645 0
0.0438801 0.00740016 0
0.0418341 0.0115342 0
0.044865 0.00848233 0
0.0428571 0.00946716 0
0.043842 0.0105493 0
0.0458844 0.0095645 0
0.0491063 0.00689404 0
0.043214 0.00740016 0
0.0474954 0.00822927 0
0.0461601 0.0071471 0
0.0445492 0.00848233 0
0.0526144 0.00977865 0
0.048268 0.0129584 0
0.0557941 0.0148102 0
0.0504412 0.0113685 0
0.0520311 0.0138843 0
0.0542043 0.0122944 0
0.0526144 0.00972264 0
0.0494939 0.00627376 0
0.048268 0.0128431 0
0.0510542 0.0079982 0
0.048881 0.00955843 0
0.0504412 0.0112829 0
0.0527264 0.00977865 0
0.0581321 0.0148102 0
0.0544911 0.00437299 0
0.0554292 0.0122944 0
0.0563116 0.00959161 0
0.0536088 0.00707582 0
0.0527264 0.00972264 0
0.0544911 0.00527233 0
0.0482761 0.00627376 0
0.0536088 0.00749749 0
0.0513836 0.00577305 0
0.0505012 0.0079982 0
0.0361047 0.0135268 0
0.0372908 0.0133084 0
0.0313967 0.0123407 0
0.0366978 0.0134176 0
0.0343437 0.0128246 0
0.0337507 0.0129338 0
0.0360791 0.0135268 0
0.0418487 0.0148678 0
0.0374201 0.0133084 0
0.0389639 0.0141973 0
0.0396344 0.0140881 0
0.0367496 0.0134176 0
0.0361047 0.013514 0
0.0313967 0.0120675 0
0.0346582 0.0126225 0
0.0337507 0.0127907 0
0.0330274 0.012345 0
0.0353814 0.0130682 0
0.0360791 0.013514 0
0.0342727 0.0126225 0
0.0418487 0.0153204 0
0.0351759 0.0130682 0
0.0380607 0.0139714 0
0.0389639 0.0144172 0
0.0370614 0.0121172 0
0.0375592 0.0132055 0
0.0417969 0.0116195 0
0.0373103 0.0126614 0
0.039678 0.0124125 0
0.0394291 0.0118683 0
0.0370629 0.0121172 0
0.0327622 0.0123198 0
0.0372654 0.0132055 0
0.0349126 0.0122185 0
0.0350138 0.0127626 0
0.0371642 0.0126614 0
0.0370614 0.012118 0
0.0417969 0.0114109 0
0.0363543 0.0109078 0
0.0394291 0.0117644 0
0.0390756 0.0111593 0
0.0367079 0.0115129 0
0.0370629 0.012118 0
0.0366629 0.0109078 0
0.0327622 0.012518 0
0.0368629 0.0115129 0
0.0347125 0.0117129 0
0.0349126 0.012318 0
0.0322901 0.0125914 0
0.0314678 0.0122696 0
0.0371855 0.0134138 0
0.031879 0.0124305 0
0.0343267 0.0128417 0
0.0347378 0.0130026 0
0.0322901 0.0125974 0
0.0371855 0.0131256 0
0.0328183 0.0123758 0
0.0347378 0.0128615 0
0.0350019 0.0127507 0
0.0325542 0.0124866 0
0.0323021 0.0125914 0
0.0280878 0.0118623 0
0.031573 0.0122696 0
0.0301949 0.0122269 0
0.0298304 0.012066 0
0.0319376 0.0124305 0
0.0323021 0.0125974 0
0.0328329 0.0123758 0
0.0280878 0.0120666 0
0.0325675 0.0124866 0
0.0304603 0.0122212 0
0.0301949 0.012332 0
0.0320756 0.00913942 0
0.0365624 0.0117334 0
0.0346696 0.012629 0
0.034319 0.0104364 0
0.035616 0.0121812 0
0.0333726 0.0108842 0
0.0323652 0.00913942 0
0.0340481 0.012629 0
0.0281966 0.00745647 0
0.0332067 0.0108842 0
0.0311224 0.0100427 0
0.0302809 0.00829795 0
0.029877 0.0104954 0
0.0343004 0.0122646 0
0.0316463 0.0123171 0
0.0320887 0.01138 0
0.0329733 0.0122909 0
0.0307616 0.0114062 0
0.029877 0.0104947 0
0.027995 0.00765809 0
0.0343004 0.0123767 0
0.028936 0.0090764 0
0.0311477 0.0100174 0
0.0320887 0.0114357 0
0.0298783 0.0104954 0
0.0312711 0.0123171 0
0.0259119 0.00910265 0
0.0305747 0.0114062 0
0.0285915 0.0107099 0
0.0278951 0.00979901 0
0.0298783 0.0104947 0
0.0259119 0.00899989 0
0.0283835 0.00765809 0
0.0278951 0.0097473 0
0.0271477 0.00832899 0
0.0291309 0.0090764 0
0.0479613 0 0
0.0452962 0 0
0.0541698 0.0026651 0
0.0466287 0 0
0.049733 0.00133255 0
0.0510655 0.00133255 0
0.0479613 0 0
0.0541698 0.00460632 0
0.0525676 0 0
0.0510655 0.00230316 0
0.0533687 0.00230316 0
0.0502644 0 0
0.0490652 0.00276607 0
0.0527305 0.0041044 0
0.0461954 -0.000899199 0
0.0508979 0.00343523 0
0.0494629 0.0016026 0
0.0476303 0.000933435 0
0.0490862 0.00276607 0
0.0490053 0.00700302 0
0.0533232 0.0041044 0
0.0490458 0.00488455 0
0.0511643 0.00555371 0
0.0512047 0.00343523 0
0.0490652 0.00277657 0
0.0461954 -0.00014368 0
0.046145 0.00189884 0
0.0476303 0.00131644 0
0.0461702 0.000877581 0
0.0476051 0.0023377 0
0.0490862 0.00277657 0
0.0457623 0.00189884 0
0.0490053 0.00610053 0
0.0474242 0.0023377 0
0.0473838 0.00399968 0
0.0490458 0.00443855 0
0.0455772 0.00481534 0
0.0429678 0.00380646 0
0.0435957 0.00742471 0
0.0442725 0.0043109 0
0.0432818 0.00561558 0
0.0445865 0.00612002 0
0.0455772 0.00482169 0
0.0435957 0.00778193 0
0.0485375 0.00632517 0
0.0445865 0.00630181 0
0.0460666 0.00705355 0
0.0470573 0.00557343 0
0.0455899 0.00481534 0
0.0460302 0.00207705 0
0.0428516 0.00380646 0
0.0458101 0.0034462 0
0.0444409 0.00294175 0
0.0442208 0.0043109 0
0.0455899 0.00482169 0
0.0487807 0.00632517 0
0.0460302 0.00163091 0
0.0471853 0.00557343 0
0.0474055 0.00397804 0
0.0458101 0.0032263 0
0.0401944 0.00959685 0
0.0421374 0.0112309 0
0.0436264 0.00765391 0
0.0411659 0.0104139 0
0.0428819 0.00944241 0
0.0419104 0.00862538 0
0.0401944 0.00959062 0
0.0436264 0.00770807 0
0.0383119 0.00823527 0
0.0419104 0.00864934 0
0.0409691 0.00797167 0
0.0392532 0.00891294 0
0.040182 0.00959685 0
0.0364784 0.0110318 0
0.0416169 0.0112309 0
0.0383302 0.0103143 0
0.0390476 0.0111314 0
0.0408994 0.0104139 0
0.040182 0.00959062 0
0.0387076 0.00823527 0
0.0364784 0.0110649 0
0.0394448 0.00891294 0
0.037593 0.00965011 0
0.0383302 0.0103278 0
0.0411415 0.00625766 0
0.0436153 0.00740517 0
0.0429904 0.00378386 0
0.0423784 0.00683142 0
0.0433029 0.00559452 0
0.042066 0.00502076 0
0.0411312 0.00625766 0
0.0385266 0.00844995 0
0.0433235 0.00740517 0
0.0398289 0.00735381 0
0.040925 0.00792756 0
0.0422273 0.00683142 0
0.0411415 0.00625252 0
0.0429904 0.00400337 0
0.0388923 0.00541208 0
0.042066 0.00512794 0
0.0409414 0.00470772 0
0.0400169 0.0058323 0
0.0411312 0.00625252 0
0.0390813 0.00541208 0
0.0385266 0.00830242 0
0.0401062 0.0058323 0
0.0388039 0.00685725 0
0.0398289 0.00727747 0
0.044583 0 0
0.0460022 0.00175603 0
0.046339 0 0
0.0452926 0.000878013 0
0.0461706 0.000878013 0
0.045461 0 0
0.044583 0 0
0.0431289 0 0
0.0460022 0.00145409 0
0.043856 0 0
0.0445655 0.000727044 0
0.0452926 0.000727044 0
0.043594 0.00160706 0
0.0429607 0.00391555 0
0.0459025 0.00194935 0
0.0432774 0.00276131 0
0.0444316 0.00293245 0
0.0447483 0.00177821 0
0.0435822 0.00160706 0
0.0455069 0.00194935 0
0.0434465 -0.000317612 0
0.0445446 0.00177821 0
0.0444767 0.000815871 0
0.0435144 0.000644724 0
0.043594 0.00161295 0
0.0415506 0.00144896 0
0.0429607 0.00365637 0
0.0425723 0.00153095 0
0.0422557 0.00255266 0
0.0432774 0.00263466 0
0.0435822 0.00161295 0
0.0434465 -0.000140897 0
0.0418284 0.00144896 0
0.0435144 0.000736027 0
0.0426375 0.000654029 0
0.0427053 0.00153095 0
0.0248145 0.00610557 0
0.025797 0.00916674 0
0.0213898 0.00512316 0
0.0253058 0.00763616 0
0.0235934 0.00714495 0
0.0231022 0.00561437 0
0.0247113 0.00610557 0
0.0281985 0.00747306 0
0.0260788 0.00916674 0
0.0264549 0.00678931 0
0.0271386 0.0083199 0
0.025395 0.00763616 0
0.022409 0.00791864 0
0.0212867 0.00522625 0
0.0259228 0.00904088 0
0.0218478 0.00657244 0
0.0236048 0.00713356 0
0.0241659 0.00847976 0
0.022409 0.00791813 0
0.0259228 0.00900638 0
0.0234972 0.010048 0
0.0241659 0.00846225 0
0.02471 0.00952719 0
0.0229531 0.00898307 0
0.0224079 0.00791864 0
0.0191009 0.00701199 0
0.0215013 0.00522625 0
0.0207544 0.00746532 0
0.0203011 0.00611912 0
0.0219546 0.00657244 0
0.0224079 0.00791813 0
0.0232724 0.010048 0
0.0191009 0.0070537 0
0.0228401 0.00898307 0
0.0211866 0.00855086 0
0.0207544 0.00748592 0
0.0271226 0.0109329 0
0.0258281 0.00918649 0
0.0313608 0.0122274 0
0.0264753 0.0100597 0
0.0285944 0.0107069 0
0.0292417 0.0115801 0
0.0271306 0.0109329 0
0.0233544 0.00990524 0
0.0261029 0.00918649 0
0.0252425 0.0104191 0
0.0247287 0.00954586 0
0.0266167 0.0100597 0
0.0271226 0.0109368 0
0.0313608 0.0120573 0
0.0282431 0.0120177 0
0.0292417 0.0114971 0
0.0298019 0.0120375 0
0.0276828 0.0114773 0
0.0271306 0.0109368 0
0.0280478 0.0120177 0
0.0233544 0.0100196 0
0.0275892 0.0114773 0
0.0257011 0.0110186 0
0.0252425 0.0104782 0
0.0241118 0.0112343 0
0.0280588 0.0118613 0
0.0247387 0.0119943 0
0.0260853 0.0115478 0
0.0263988 0.0119278 0
0.0244252 0.0116143 0
0.0241118 0.0112316 0
0.0233367 0.0100373 0
0.0280588 0.0120067 0
0.0237242 0.0106345 0
0.0256977 0.011022 0
0.0260853 0.0116192 0
0.0241171 0.0112343 0
0.024648 0.0119943 0
0.0205526 0.0107035 0
0.0243826 0.0116143 0
0.0226003 0.0113489 0
0.0223349 0.0109689 0
0.0241171 0.0112316 0
0.0205526 0.0105956 0
0.0234811 0.0100373 0
0.0223349 0.0109136 0
0.0220169 0.0103165 0
0.0237991 0.0106345 0
0.0284688 0.0121925 0
0.0246469 0.0119025 0
0.0281788 0.0119813 0
0.0265578 0.0120475 0
0.0264128 0.0119419 0
0.0283238 0.0120869 0
0.0284634 0.0121925 0
0.0281731 0.0119813 0
0.0327259 0.0124828 0
0.0283182 0.0120869 0
0.0304495 0.0122321 0
0.0305947 0.0123376 0
0.0284688 0.0121952 0
0.0286164 0.0120993 0
0.0246469 0.0120477 0
0.0285426 0.0121473 0
0.0266316 0.0120735 0
0.0265578 0.0121214 0
0.0284634 0.0121952 0
0.0327259 0.0122995 0
0.0285677 0.0120993 0
0.0305947 0.0122474 0
0.0306468 0.0121994 0
0.0285155 0.0121473 0
0.019888 0.00912393 0
0.0166588 0.00844964 0
0.0192138 0.00712073 0
0.0182734 0.00878678 0
0.0179363 0.00778518 0
0.0195509 0.00812233 0
0.0198852 0.00912393 0
0.0190339 0.00712073 0
0.0233451 0.00997525 0
0.0194596 0.00812233 0
0.0211895 0.00854799 0
0.0216152 0.00954959 0
0.019888 0.00912534 0
0.0205096 0.0107042 0
0.0166588 0.00850376 0
0.0201988 0.00991477 0
0.0185842 0.00960398 0
0.0182734 0.00881455 0
0.0198852 0.00912534 0
0.0233451 0.00990134 0
0.0206612 0.0107042 0
0.0216152 0.00951334 0
0.0220032 0.0103028 0
0.0202732 0.00991477 0
0.0183914 0.00432904 0
0.0214067 0.00513171 0
0.0191941 0.00710516 0
0.0198991 0.00473038 0
0.0203004 0.00611844 0
0.0187928 0.0057171 0
0.0184477 0.00432904 0
0.0190345 0.00710516 0
0.0154578 0.00374229 0
0.0187411 0.0057171 0
0.0172461 0.00542372 0
0.0169528 0.00403566 0
0.016076 0.00634664 0
0.0191103 0.00701729 0
0.0167466 0.00853752 0
0.0175932 0.00668196 0
0.0179285 0.0077774 0
0.0164113 0.00744208 0
0.016076 0.0063472 0
0.0153939 0.00380621 0
0.0191103 0.00702931 0
0.0157349 0.0050767 0
0.0172521 0.00541776 0
0.0175932 0.00668825 0
0.0160749 0.00634664 0
0.0166025 0.00853752 0
0.0131508 0.00581905 0
0.0163387 0.00744208 0
0.0148766 0.00717829 0
0.0146128 0.00608284 0
0.0160749 0.0063472 0
0.0131508 0.00579921 0
0.0155269 0.00380621 0
0.0146128 0.0060732 0
0.0143388 0.00480271 0
0.0158009 0.0050767 0
0.0209694 0.0116085 0
0.0205638 0.0106922 0
0.0246282 0.0120142 0
0.0207666 0.0111504 0
0.022596 0.0113532 0
0.0227988 0.0118114 0
0.0209729 0.0116085 0
0.0176075 0.0112727 0
0.020637 0.0106922 0
0.0192902 0.0114406 0
0.0191223 0.0109825 0
0.020805 0.0111504 0
0.0209694 0.0116103 0
0.0246282 0.0119013 0
0.0212605 0.012232 0
0.0227988 0.0117558 0
0.0229443 0.0120667 0
0.021115 0.0119211 0
0.0209729 0.0116103 0
0.0212217 0.012232 0
0.0176075 0.0113614 0
0.0210973 0.0119211 0
0.0194146 0.0117967 0
0.0192902 0.0114858 0
0.0171933 0.0101044 0
0.0166259 0.00853662 0
0.0205419 0.0106719 0
0.0169096 0.00932054 0
0.0185839 0.00960426 0
0.0188676 0.0103882 0
0.0171933 0.0101056 0
0.0205419 0.0105972 0
0.0176848 0.01135 0
0.0188676 0.0103514 0
0.0191134 0.0109736 0
0.0174391 0.0107278 0
0.0171957 0.0101044 0
0.0140619 0.00965486 0
0.0167461 0.00853662 0
0.0156288 0.00987966 0
0.015404 0.00909574 0
0.0169709 0.00932054 0
0.0171957 0.0101056 0
0.0175885 0.01135 0
0.0140619 0.00971286 0
0.0173921 0.0107278 0
0.0158252 0.0105314 0
0.0156288 0.00990925 0
0.0323688 0.0116933 0
0.0364614 0.0109815 0
0.031657 0.0109904 0
0.0344151 0.0113374 0
0.0340592 0.0109859 0
0.0320129 0.0113418 0
0.0323688 0.0116931 0
0.0329526 0.0123276 0
0.0364614 0.0111093 0
0.0326607 0.0120104 0
0.034707 0.0117185 0
0.0344151 0.0114012 0
0.0323692 0.0116933 0
0.0318597 0.0109904 0
0.0285463 0.0122028 0
0.0321144 0.0113418 0
0.030203 0.0115966 0
0.0304577 0.011948 0
0.0323692 0.0116931 0
0.0285463 0.0120779 0
0.032754 0.0123276 0
0.0304577 0.0118855 0
0.0306502 0.0122028 0
0.0325616 0.0120104 0
0.0351782 0.00988857 0
0.0317332 0.0110665 0
0.0363562 0.0108764 0
0.0334557 0.0104776 0
0.0340447 0.0109715 0
0.0357672 0.0103825 0
0.0351838 0.00988857 0
0.036667 0.0108764 0
0.0385375 0.00840544 0
0.0359254 0.0103825 0
0.0376022 0.0096409 0
0.0368606 0.009147 0
0.0351782 0.00988577 0
0.0339616 0.00903239 0
0.0317332 0.0111024 0
0.0345699 0.00945908 0
0.0328474 0.0100674 0
0.0334557 0.0104941 0
0.0351838 0.00988577 0
0.0385375 0.00840869 0
0.0337067 0.00903239 0
0.0368606 0.00914723 0
0.0361221 0.00872054 0
0.0344453 0.00945908 0
0.0247152 0.0121966 0
0.0247233 0.0119712 0
0.0285271 0.0121885 0
0.0247193 0.0120839 0
0.0266252 0.0120799 0
0.0266212 0.0121926 0
0.0247152 0.012198 0
0.0285271 0.0120653 0
0.0245825 0.012227 0
0.0266212 0.0121316 0
0.0265548 0.0121461 0
0.0246489 0.0122125 0
0.0247181 0.0121966 0
0.0212051 0.0121766 0
0.0246981 0.0119712 0
0.0229616 0.0121866 0
0.0229516 0.0120739 0
0.0247081 0.0120839 0
0.0247181 0.012198 0
0.0246359 0.012227 0
0.0212051 0.0122802 0
0.024677 0.0122125 0
0.0229205 0.0122536 0
0.0229616 0.0122391 0
0.0280581 0.0117433 0
0.0286758 0.0120733 0
0.0317244 0.0111256 0
0.028367 0.0119083 0
0.0302001 0.0115995 0
0.0298913 0.0114345 0
0.0280582 0.0117433 0
0.0245757 0.0122203 0
0.0285352 0.0120733 0
0.026317 0.0119818 0
0.0265554 0.0121468 0
0.0282967 0.0119083 0
0.0280581 0.0117434 0
0.0317244 0.01104 0
0.0273548 0.0113588 0
0.0298913 0.0113917 0
0.0295396 0.0111994 0
0.0277065 0.0115511 0
0.0280582 0.0117434 0
0.0274966 0.0113588 0
0.0245757 0.012305 0
0.0277774 0.0115511 0
0.0260362 0.0118319 0
0.026317 0.0120242 0
0.0240429 0.0120813 0
0.0274 0.0113947 0
0.0233563 0.0118999 0
0.0257215 0.011738 0
0.0253781 0.0116473 0
0.0236996 0.0119906 0
0.0240429 0.0120813 0
0.0246688 0.0122119 0
0.0274 0.0114555 0
0.0243559 0.0121466 0
0.0260344 0.0118337 0
0.0257215 0.0117684 0
0.0240431 0.0120813 0
0.0234618 0.0118999 0
0.0208184 0.0126626 0
0.0237524 0.0119906 0
0.0221401 0.0122813 0
0.0224307 0.0123719 0
0.0240431 0.0120813 0
0.0208184 0.0126025 0
0.0245643 0.0122119 0
0.0224307 0.0123419 0
0.0226914 0.0124072 0
0.0243037 0.0121466 0
0.0264291 0.0110114 0
0.0233927 0.0119364 0
0.0273541 0.0113488 0
0.0249109 0.0114739 0
0.0253734 0.0116426 0
0.0268916 0.0111801 0
0.0264305 0.0110114 0
0.0274988 0.0113488 0
0.0294788 0.00994313 0
0.0269646 0.0111801 0
0.0284888 0.010646 0
0.0279547 0.0104772 0
0.0264291 0.0110106 0
0.0254748 0.0106975 0
0.0233927 0.0119649 0
0.025952 0.0108541 0
0.0244338 0.0113312 0
0.0249109 0.0114878 0
0.0264305 0.0110106 0
0.0294788 0.00992475 0
0.0253446 0.0106975 0
0.0279547 0.0104677 0
0.0274117 0.0103111 0
0.0258876 0.0108541 0
0.0306306 0.0103819 0
0.0274052 0.0114093 0
0.0316579 0.0109736 0
0.0290179 0.0108956 0
0.0295316 0.0111914 0
0.0311443 0.0106778 0
0.0306306 0.0103806 0
0.0295689 0.0098531 0
0.0274052 0.0114423 0
0.0300997 0.0101168 0
0.028487 0.0106477 0
0.0290179 0.0109114 0
0.0306334 0.0103819 0
0.031862 0.0109736 0
0.0338407 0.00915325 0
0.0312477 0.0106778 0
0.0328514 0.0100634 0
0.032237 0.0097676 0
0.0306334 0.0103806 0
0.0338407 0.00913945 0
0.0293922 0.0098531 0
0.032237 0.00976001 0
0.0316165 0.00949628 0
0.0300128 0.0101168 0
0.021088 0.0124807 0
0.0208682 0.0126022 0
0.0178181 0.0127005 0
0.0209781 0.0125414 0
0.0193431 0.0126514 0
0.0194531 0.0125906 0
0.0210864 0.0124807 0
0.0245648 0.0122124 0
0.0208181 0.0126022 0
0.0228256 0.0123465 0
0.0226914 0.0124073 0
0.0209522 0.0125414 0
0.021088 0.0124799 0
0.0178181 0.0126262 0
0.0212344 0.0122172 0
0.0194531 0.012553 0
0.0195263 0.0124217 0
0.0211612 0.0123485 0
0.0210864 0.0124799 0
0.0212681 0.0122172 0
0.0245648 0.0122982 0
0.0211772 0.0123485 0
0.0229164 0.0122577 0
0.0228256 0.012389 0
0.0202721 0.0125886 0
0.0208883 0.0125927 0
0.0233893 0.0119725 0
0.0205802 0.0125907 0
0.0221388 0.0122826 0
0.0218307 0.0122806 0
0.0202723 0.0125886 0
0.0172525 0.0131226 0
0.0208062 0.0125927 0
0.0187624 0.0128556 0
0.0190294 0.0128576 0
0.0205393 0.0125907 0
0.0202721 0.0125887 0
0.0233893 0.0119282 0
0.0196116 0.0125347 0
0.0218307 0.0122584 0
0.0215004 0.0122314 0
0.0199419 0.0125617 0
0.0202723 0.0125887 0
0.0196952 0.0125347 0
0.0172525 0.0131658 0
0.0199838 0.0125617 0
0.0184738 0.0128503 0
0.0187624 0.0128773 0
0.0175888 0.0129389 0
0.017869 0.0126497 0
0.0208116 0.0126588 0
0.0177289 0.0127943 0
0.0193403 0.0126542 0
0.0192002 0.0127989 0
0.0175888 0.0129395 0
0.0208116 0.0125981 0
0.0172474 0.0131175 0
0.0192002 0.0127688 0
0.0190295 0.0128578 0
0.0174181 0.0130285 0
0.0175899 0.0129389 0
0.0145139 0.0131827 0
0.0178336 0.0126497 0
0.0160519 0.0130608 0
0.0161738 0.0129162 0
0.0177117 0.0127943 0
0.0175899 0.0129395 0
0.0172936 0.0131175 0
0.0145139 0.0132358 0
0.0174417 0.0130285 0
0.0159038 0.0131766 0
0.0160519 0.0130876 0
0.0177831 0.0121075 0
0.0211931 0.0121759 0
0.0178515 0.0126595 0
0.0194881 0.0121417 0
0.0195223 0.0124177 0
0.0178173 0.0123835 0
0.0177831 0.0121064 0
0.0176288 0.0113402 0
0.0211931 0.0122607 0
0.0177059 0.0117233 0
0.0194109 0.0118004 0
0.0194881 0.0121835 0
0.0177854 0.0121075 0
0.017839 0.0126595 0
0.0145936 0.0120539 0
0.0178122 0.0123835 0
0.0162163 0.0123567 0
0.0161895 0.0120807 0
0.0177854 0.0121064 0
0.0145936 0.011985 0
0.0176639 0.0113402 0
0.0161895 0.0120457 0
0.0161288 0.0116626 0
0.0177246 0.0117233 0
0.0322788 0.00848272 0
0.0339076 0.00902958 0
0.0348835 0.00685389 0
0.0330932 0.00875615 0
0.0343956 0.00794173 0
0.0335812 0.0076683 0
0.0322753 0.00848272 0
0.0294774 0.00993824 0
0.0337309 0.00902958 0
0.0308764 0.00921048 0
0.0316041 0.00948391 0
0.0330031 0.00875615 0
0.0322788 0.00848098 0
0.0348835 0.00690227 0
0.0307001 0.00804385 0
0.0335812 0.00769162 0
0.0327918 0.00747306 0
0.0314895 0.00826242 0
0.0322753 0.00848098 0
0.0308422 0.00804385 0
0.0294774 0.00991415 0
0.0315588 0.00826242 0
0.0301598 0.008979 0
0.0308764 0.00919757 0
0.0366227 0.00741918 0
0.0349414 0.00679604 0
0.0338367 0.00910053 0
0.035782 0.00710761 0
0.034389 0.00794829 0
0.0352297 0.00825986 0
0.0366227 0.00742217 0
0.0338367 0.00916234 0
0.0383629 0.0082341 0
0.0352297 0.00829226 0
0.0360998 0.00869822 0
0.0374928 0.00782814 0
0.0366287 0.00741918 0
0.0390374 0.00555961 0
0.0347691 0.00679604 0
0.037833 0.0064894 0
0.0369033 0.00617783 0
0.0356989 0.00710761 0
0.0366287 0.00742217 0
0.0385949 0.0082341 0
0.0390374 0.00545597 0
0.0376118 0.00782814 0
0.0388161 0.00684503 0
0.037833 0.00643907 0
0.0281433 0.00949513 0
0.0268878 0.00920126 0
0.0254045 0.0107506 0
0.0275156 0.0093482 0
0.0261462 0.00997594 0
0.0267739 0.0101229 0
0.0281433 0.00949615 0
0.0254045 0.0107573 0
0.0294045 0.00985043 0
0.0267739 0.0101267 0
0.0274045 0.0103039 0
0.0287739 0.00967329 0
0.0281454 0.00949513 0
0.0307856 0.00812141 0
0.0267717 0.00920126 0
0.0294655 0.00880827 0
0.0287786 0.00866133 0
0.0274585 0.0093482 0
0.0281454 0.00949615 0
0.0295411 0.00985043 0
0.0307856 0.00810044 0
0.0288432 0.00967329 0
0.0301633 0.00897543 0
0.0294655 0.0087983 0
0.0225116 0.0117201 0
0.0234641 0.0118935 0
0.0254048 0.0107675 0
0.0229879 0.0118068 0
0.0244345 0.0113305 0
0.0239582 0.0112438 0
0.0225116 0.0117197 0
0.0254048 0.0107493 0
0.0215412 0.0115473 0
0.0239582 0.0112345 0
0.023473 0.0111483 0
0.0220264 0.0116335 0
0.0225109 0.0117201 0
0.0196407 0.0125638 0
0.0233546 0.0118935 0
0.0210758 0.0121419 0
0.0214976 0.0122286 0
0.0229327 0.0118068 0
0.0225109 0.0117197 0
0.0216432 0.0115473 0
0.0196407 0.0125874 0
0.022077 0.0116335 0
0.0206419 0.0120673 0
0.0210758 0.0121535 0
0.0242361 0.0104768 0
0.0254599 0.0106952 0
0.0268362 0.00925286 0
0.024848 0.010586 0
0.0261481 0.00997401 0
0.0255361 0.00986481 0
0.0242348 0.0104768 0
0.0215865 0.0115926 0
0.0253506 0.0106952 0
0.0229107 0.0110347 0
0.0234686 0.0111439 0
0.0247927 0.010586 0
0.0242361 0.0104761 0
0.0268362 0.00925999 0
0.0230199 0.0102869 0
0.0255361 0.00986807 0
0.0249281 0.00977346 0
0.023628 0.0103815 0
0.0242348 0.0104761 0
0.0231171 0.0102869 0
0.0215865 0.0115939 0
0.023676 0.0103815 0
0.0223518 0.0109404 0
0.0229107 0.011035 0
0.0331248 0.00646539 0
0.0307806 0.00812435 0
0.0347838 0.00680255 0
0.0319527 0.00729487 0
0.0327822 0.00746345 0
0.0339543 0.00663397 0
0.0331248 0.0064644 0
0.0315199 0.0062192 0
0.0307806 0.00806934 0
0.0323224 0.0063418 0
0.0311502 0.00714427 0
0.0319527 0.00726687 0
0.0331268 0.00646539 0
0.034875 0.00680255 0
0.0352207 0.00471719 0
0.0340009 0.00663397 0
0.0350478 0.00575987 0
0.0341737 0.00559129 0
0.0331268 0.0064644 0
0.0352207 0.00478606 0
0.0314485 0.0062192 0
0.0341737 0.00562523 0
0.0333346 0.00550263 0
0.0322876 0.0063418 0
0.0292433 0.00779562 0
0.0268336 0.00926316 0
0.0307108 0.00804664 0
0.0280384 0.00852939 0
0.0287722 0.0086549 0
0.029977 0.00792113 0
0.0292448 0.00779562 0
0.0308033 0.00804664 0
0.031502 0.00623711 0
0.030024 0.00792113 0
0.0311526 0.00714188 0
0.0303734 0.00701637 0
0.0292433 0.00779486 0
0.0278049 0.00760243 0
0.0268336 0.00923327 0
0.0285241 0.00769865 0
0.0273192 0.00841785 0
0.0280384 0.00851407 0
0.0292448 0.00779486 0
0.031502 0.00627764 0
0.0277276 0.00760243 0
0.0303734 0.00703625 0
0.0296148 0.00694003 0
0.0284862 0.00769865 0
0.0370115 0.00500862 0
0.0348743 0.00690125 0
0.0389042 0.00542637 0
0.0359429 0.00595493 0
0.0368892 0.00616381 0
0.0379578 0.00521749 0
0.0370136 0.00500862 0
0.0389663 0.00542637 0
0.0387473 0.0030559 0
0.0379899 0.00521749 0
0.0388568 0.00424114 0
0.0378804 0.00403226 0
0.0370115 0.0050076 0
0.0352159 0.00472196 0
0.0348743 0.00680324 0
0.0361137 0.00486478 0
0.0350451 0.0057626 0
0.0359429 0.00590542 0
0.0370136 0.0050076 0
0.0387473 0.00316826 0
0.0351742 0.00472196 0
0.0378804 0.00408793 0
0.0369608 0.00394511 0
0.0360939 0.00486478 0
0.0406753 0.00338811 0
0.0390205 0.00554028 0
0.0428275 0.00384044 0
0.0398479 0.00446419 0
0.040924 0.00469036 0
0.0417514 0.00361427 0
0.0406753 0.00338821 0
0.0386914 0.00311176 0
0.0390205 0.00537214 0
0.0396834 0.00324999 0
0.038856 0.00424195 0
0.0398479 0.00438018 0
0.0406751 0.00338811 0
0.0427767 0.00384044 0
0.041713 0.00128658 0
0.0417259 0.00361427 0
0.0422448 0.00256351 0
0.0411941 0.00233734 0
0.0406751 0.00338821 0
0.041713 0.00145325 0
0.0387402 0.00311176 0
0.0411941 0.00242073 0
0.0402266 0.0022825 0
0.0397077 0.00324999 0
0.0143825 0.0110082 0
0.014587 0.0120387 0
0.011342 0.0108037 0
0.0144848 0.0115235 0
0.0129645 0.0114212 0
0.0128623 0.010906 0
0.0143806 0.0110082 0
0.0175988 0.011275 0
0.0146473 0.0120387 0
0.0159897 0.0111416 0
0.0161231 0.0116568 0
0.014514 0.0115235 0
0.0143825 0.0110073 0
0.011342 0.0107527 0
0.014128 0.00972671 0
0.0128623 0.01088 0
0.012735 0.0102397 0
0.0142552 0.010367 0
0.0143806 0.0110073 0
0.0140481 0.00972671 0
0.0175988 0.0113398 0
0.0142143 0.010367 0
0.0158234 0.0105332 0
0.0159897 0.0111735 0
0.0114933 0.0118832 0
0.0113376 0.0108081 0
0.0145869 0.0120388 0
0.0114155 0.0113456 0
0.0129623 0.0114235 0
0.0130401 0.011961 0
0.0114933 0.0118839 0
0.0145869 0.0119877 0
0.011597 0.0127574 0
0.0130401 0.0119358 0
0.0130919 0.0123725 0
0.0115452 0.0123207 0
0.0114949 0.0118832 0
0.00853653 0.0117783 0
0.01139 0.0108081 0
0.0100157 0.0118307 0
0.00996327 0.0112932 0
0.0114424 0.0113456 0
0.0114949 0.0118839 0
0.0115604 0.0127574 0
0.00853653 0.0118184 0
0.0115276 0.0123207 0
0.0100485 0.0122879 0
0.0100157 0.0118512 0
0.014606 0.0126988 0
0.0146164 0.0120311 0
0.0178101 0.0126884 0
0.0146112 0.012365 0
0.0162133 0.0123598 0
0.0162081 0.0126936 0
0.0146076 0.0126988 0
0.0115612 0.0127216 0
0.0146303 0.0120311 0
0.0130844 0.0127102 0
0.0130958 0.0123763 0
0.014619 0.012365 0
0.014606 0.0126996 0
0.0178101 0.0126262 0
0.0145326 0.0132013 0
0.0162081 0.0126629 0
0.0161713 0.0129138 0
0.0145693 0.0129505 0
0.0146076 0.0126996 0
0.0145346 0.0132013 0
0.0115612 0.0127726 0
0.0145711 0.0129505 0
0.0130479 0.012987 0
0.0130844 0.0127361 0
0.0110733 0.00932896 0
0.0140582 0.00965692 0
0.0114012 0.0108119 0
0.0125657 0.00949294 0
0.0127297 0.0102344 0
0.0112373 0.0100704 0
0.0110733 0.00932838 0
0.0107062 0.00759492 0
0.0140582 0.00969549 0
0.0108897 0.00846165 0
0.0123822 0.0086452 0
0.0125657 0.00951193 0
0.0110745 0.00932896 0
0.0113161 0.0108119 0
0.00820741 0.00908732 0
0.0111953 0.0100704 0
0.00976176 0.00994963 0
0.00964094 0.00920814 0
0.0110745 0.00932838 0
0.00820741 0.00905695 0
0.010803 0.00759492 0
0.00964094 0.00919266 0
0.00950522 0.00832593 0
0.0109387 0.00846165 0
0.0136364 0.00794695 0
0.0166571 0.00844762 0
0.014137 0.00972997 0
0.0151467 0.00819729 0
0.0153971 0.0090888 0
0.0138867 0.00883846 0
0.0136375 0.00794695 0
0.0140237 0.00972997 0
0.0107403 0.00756078 0
0.0138306 0.00883846 0
0.012382 0.00864538 0
0.0121889 0.00775387 0
0.0136364 0.00794638 0
0.0130999 0.00586993 0
0.0166571 0.00848284 0
0.0133681 0.00690816 0
0.0148785 0.00717639 0
0.0151467 0.00821461 0
0.0136375 0.00794638 0
0.0107403 0.00753357 0
0.0132247 0.00586993 0
0.0121889 0.00773997 0
0.0119825 0.00670175 0
0.0134311 0.00690816 0
0.0142293 0.0134901 0
0.0113119 0.0137799 0
0.0145191 0.0131944 0
0.0127706 0.013635 0
0.0129155 0.0134872 0
0.0143742 0.0133422 0
0.0142285 0.0134901 0
0.0145553 0.0131944 0
0.0172478 0.0131633 0
0.0143919 0.0133422 0
0.0159015 0.0131788 0
0.0157381 0.0133267 0
0.0142293 0.0134905 0
0.0139028 0.013693 0
0.0113119 0.0138169 0
0.014066 0.0135917 0
0.0126073 0.013755 0
0.0127706 0.0136537 0
0.0142285 0.0134905 0
0.0172478 0.0131205 0
0.0138585 0.013693 0
0.0157381 0.0133055 0
0.0155531 0.0134067 0
0.0140435 0.0135917 0
0.0114732 0.0133374 0
0.0145082 0.0131835 0
0.0113194 0.0137874 0
0.0129907 0.0132605 0
0.0129138 0.0134855 0
0.0113963 0.0135624 0
0.0114732 0.0133368 0
0.0115823 0.0127515 0
0.0145082 0.0132277 0
0.0115278 0.0130441 0
0.0130453 0.0129896 0
0.0129907 0.0132822 0
0.0114745 0.0133374 0
0.0113312 0.0137874 0
0.0085486 0.0134806 0
0.0114028 0.0135624 0
0.00993992 0.013634 0
0.0100115 0.013409 0
0.0114745 0.0133368 0
0.0085486 0.013445 0
0.0115827 0.0127515 0
0.0100115 0.0133909 0
0.0100657 0.0130982 0
0.0115286 0.0130441 0
0.0167174 0.0131818 0
0.0196381 0.0125594 0
0.016095 0.0132033 0
0.0181777 0.0128706 0
0.0178665 0.0128813 0
0.0164062 0.0131925 0
0.0167174 0.0131817 0
0.0173072 0.0131111 0
0.0196381 0.0125918 0
0.0170123 0.0131464 0
0.0184727 0.0128514 0
0.0181777 0.0128867 0
0.0167176 0.0131818 0
0.016166 0.0132033 0
0.0138679 0.0137334 0
0.0164418 0.0131925 0
0.0150169 0.0134683 0
0.0152928 0.0134576 0
0.0167176 0.0131817 0
0.0138679 0.0137025 0
0.0172384 0.0131111 0
0.0152928 0.0134421 0
0.0155532 0.0134068 0
0.016978 0.0131464 0
0.0188407 0.0124609 0
0.0161208 0.0132292 0
0.019609 0.0125302 0
0.0174808 0.012845 0
0.0178649 0.0128797 0
0.0192249 0.0124956 0
0.0188411 0.0124609 0
0.0196978 0.0125302 0
0.0215863 0.0116042 0
0.0192695 0.0124956 0
0.020642 0.0120672 0
0.0202137 0.0120326 0
0.0188407 0.0124607 0
0.0180535 0.0123789 0
0.0161208 0.013248 0
0.0184471 0.0124198 0
0.0170871 0.0128135 0
0.0174808 0.0128544 0
0.0188411 0.0124607 0
0.0215863 0.0115879 0
0.0179683 0.0123789 0
0.0202137 0.0120243 0
0.0197773 0.0119834 0
0.0184047 0.0124198 0
0.011014 0.0140639 0
0.0113465 0.0137823 0
0.0138644 0.0137314 0
0.0111803 0.0139231 0
0.0126055 0.0137568 0
0.0124392 0.0138976 0
0.011014 0.0140642 0
0.0138644 0.0137021 0
0.0106519 0.014266 0
0.0124392 0.0138832 0
0.0122581 0.013984 0
0.0108329 0.0141651 0
0.0110147 0.0140639 0
0.00823228 0.0143574 0
0.0113082 0.0137823 0
0.00962349 0.0142106 0
0.00977024 0.0140698 0
0.0111615 0.0139231 0
0.0110147 0.0140642 0
0.0106971 0.014266 0
0.00823228 0.0143819 0
0.0108559 0.0141651 0
0.00946466 0.0143239 0
0.00962349 0.0142231 0
0.0133669 0.0137966 0
0.0139129 0.0136884 0
0.0161187 0.0132505 0
0.0136399 0.0137425 0
0.0150158 0.0134695 0
0.0147428 0.0135235 0
0.0133672 0.0137966 0
0.010666 0.0142801 0
0.0138507 0.0136884 0
0.0120166 0.0140383 0
0.0122584 0.0139842 0
0.013609 0.0137425 0
0.0133669 0.0137967 0
0.0161187 0.0132272 0
0.0127974 0.013858 0
0.0147428 0.0135119 0
0.0144581 0.0135426 0
0.0130822 0.0138273 0
0.0133672 0.0137967 0
0.0128623 0.013858 0
0.010666 0.0143016 0
0.0131148 0.0138273 0
0.0117642 0.0140798 0
0.0120166 0.0140491 0
0.00857332 0.0127261 0
0.00568319 0.0127216 0
0.00856879 0.0118187 0
0.00712825 0.0127239 0
0.00712599 0.0122701 0
0.00857105 0.0122724 0
0.008572 0.0127261 0
0.00853629 0.0118187 0
0.0115559 0.0127619 0
0.00855414 0.0122724 0
0.0100461 0.0122903 0
0.010064 0.012744 0
0.00857332 0.0127268 0
0.00855057 0.0134663 0
0.00568319 0.0127495 0
0.00856194 0.0130966 0
0.00711688 0.0131079 0
0.00712825 0.0127382 0
0.008572 0.0127268 0
0.0115559 0.0127247 0
0.00856988 0.0134663 0
0.010064 0.0127257 0
0.0100629 0.0130955 0
0.00857094 0.0130966 0
0.00839933 0.0105747 0
0.011338 0.010756 0
0.00858069 0.0118225 0
0.00986864 0.0106653 0
0.00995932 0.0112892 0
0.00849001 0.0111986 0
0.00840052 0.0105747 0
0.00851791 0.0118225 0
0.0055568 0.0104573 0
0.00845922 0.0111986 0
0.00703736 0.0111399 0
0.00697866 0.010516 0
0.00839933 0.0105741 0
0.00818331 0.00911142 0
0.011338 0.0107901 0
0.00829132 0.00984274 0
0.00976063 0.00995075 0
0.00986864 0.0106821 0
0.00840052 0.0105741 0
0.0055568 0.0104316 0
0.00825806 0.00911142 0
0.00697866 0.0105028 0
0.00690743 0.00977151 0
0.00832929 0.00984274 0
0.00563871 0.011708 0
0.00853265 0.0117825 0
0.0057132 0.0127516 0
0.00708568 0.0117453 0
0.00712293 0.0122671 0
0.00567596 0.0122298 0
0.00563871 0.0117074 0
0.00553844 0.0104756 0
0.00853265 0.0118077 0
0.00558858 0.0110915 0
0.00703555 0.0111417 0
0.00708568 0.0117576 0
0.00563989 0.011708 0
0.00566891 0.0127516 0
0.00280996 0.011679 0
0.0056544 0.0122298 0
0.00423943 0.0122153 0
0.00422492 0.0116935 0
0.00563989 0.0117074 0
0.00280996 0.011662 0
0.00559445 0.0104756 0
0.00422492 0.0116847 0
0.00420221 0.0110688 0
0.00561717 0.0110915 0
0.00841402 0.0139648 0
0.00856773 0.0134615 0
0.0113075 0.0138111 0
0.00849087 0.0137132 0
0.00993763 0.0136363 0
0.00986078 0.013888 0
0.00841502 0.0139648 0
0.00559147 0.0141069 0
0.00855713 0.0134615 0
0.00700324 0.0140359 0
0.0070743 0.0137842 0
0.00848607 0.0137132 0
0.00841402 0.0139653 0
0.0113075 0.0137816 0
0.00823028 0.0143554 0
0.00986078 0.0138735 0
0.00976891 0.0140685 0
0.00832215 0.0141604 0
0.00841502 0.0139653 0
0.0082509 0.0143554 0
0.00559147 0.0141295 0
0.00833296 0.0141604 0
0.00692118 0.0142424 0
0.00700324 0.0140474 0
0.00565474 0.0135027 0
0.00568483 0.0127479 0
0.00854424 0.0134726 0
0.00566979 0.0131253 0
0.00711454 0.0131103 0
0.00709949 0.0134877 0
0.00565474 0.0135033 0
0.00854424 0.0134486 0
0.00560004 0.0141155 0
0.00709949 0.013476 0
0.00707214 0.0137821 0
0.00562739 0.0138094 0
0.00565589 0.0135027 0
0.00282262 0.0135477 0
0.00570087 0.0127479 0
0.00423926 0.0135252 0
0.00426174 0.0131478 0
0.00567838 0.0131253 0
0.00565589 0.0135033 0
0.00559552 0.0141155 0
0.00282262 0.0135637 0
0.00562571 0.0138094 0
0.00420907 0.0138396 0
0.00423926 0.0135335 0
0.0127698 0.00327434 0
0.0131076 0.00585795 0
0.0100475 0.00293652 0
0.0129387 0.00456614 0
0.0115775 0.00439723 0
0.0114086 0.00310543 0
0.0127342 0.00327434 0
0.0154704 0.00374969 0
0.0132095 0.00585795 0
0.0141023 0.00351201 0
0.0143399 0.00480382 0
0.0129718 0.00456614 0
0.0104032 0.00540781 0
0.0100039 0.00298017 0
0.0131583 0.00580719 0
0.0102036 0.00419399 0
0.0115811 0.00439368 0
0.0117808 0.0056075 0
0.0104032 0.00540733 0
0.0131583 0.00580359 0
0.0107995 0.00759275 0
0.0117808 0.00560546 0
0.0119789 0.00669817 0
0.0106014 0.00650004 0
0.0104023 0.00540781 0
0.00770736 0.00510101 0
0.0100955 0.00298017 0
0.00905482 0.00525441 0
0.00890142 0.00404059 0
0.0102489 0.00419399 0
0.0104023 0.00540733 0
0.0106982 0.00759275 0
0.00770736 0.00511144 0
0.0105502 0.00650004 0
0.00920276 0.00635209 0
0.00905482 0.00525938 0
0.00797301 0.0072438 0
0.00817211 0.00911137 0
0.00526681 0.0070447 0
0.00807256 0.00817759 0
0.00671946 0.00807804 0
0.00661991 0.00714425 0
0.00797249 0.0072438 0
0.0107413 0.00753314 0
0.00826183 0.00911137 0
0.00935688 0.00738847 0
0.00950154 0.00832226 0
0.00811716 0.00817759 0
0.00797301 0.00724354 0
0.00526681 0.00703182 0
0.00776128 0.00515242 0
0.00661991 0.00713768 0
0.00651405 0.00609212 0
0.00786715 0.00619798 0
0.00797249 0.00724354 0
0.00766638 0.00515242 0
0.0107413 0.00754965 0
0.00781944 0.00619798 0
0.00920382 0.00635103 0
0.00935688 0.0073966 0
0.00542598 0.00888329 0
0.00523221 0.00707931 0
0.00820642 0.00907706 0
0.00532909 0.0079813 0
0.00671931 0.00807819 0
0.0068162 0.00898017 0
0.00542598 0.00888363 0
0.00820642 0.00905978 0
0.00560214 0.0104769 0
0.0068162 0.0089717 0
0.00690428 0.00976836 0
0.00551406 0.00968028 0
0.00542666 0.00888329 0
0.00269898 0.00877151 0
0.00531489 0.00707931 0
0.00406282 0.0088274 0
0.00400693 0.00792541 0
0.00537078 0.0079813 0
0.00542666 0.00888363 0
0.00552626 0.0104769 0
0.00269898 0.00878403 0
0.00547646 0.00968028 0
0.00411262 0.00963049 0
0.00406282 0.00883383 0
0.00748657 0.00267969 0
0.0100572 0.00294185 0
0.00774873 0.00514238 0
0.00877186 0.00281077 0
0.00890294 0.00404212 0
0.00761765 0.00391104 0
0.00751148 0.00267969 0
0.00767601 0.00514238 0
0.00494824 0.00251515 0
0.00759375 0.00391104 0
0.00631213 0.00382877 0
0.00622986 0.00259742 0
0.00511283 0.00490666 0
0.00771379 0.00510492 0
0.00531109 0.0070761 0
0.00641331 0.00500579 0
0.00651244 0.00609051 0
0.00521196 0.00599138 0
0.00511283 0.00490709 0
0.00491531 0.00254809 0
0.00771379 0.00510461 0
0.00501407 0.00372759 0
0.00631455 0.00382635 0
0.00641331 0.00500585 0
0.00511196 0.00490666 0
0.00523104 0.0070761 0
0.0025381 0.00478758 0
0.0051715 0.00599138 0
0.00388457 0.00593184 0
0.00382503 0.00484712 0
0.00511196 0.00490709 0
0.0025381 0.00478183 0
0.0049867 0.00254809 0
0.00382503 0.00484446 0
0.0037624 0.00366496 0
0.00504933 0.00372759 0
0.0422575 0 0
0.0409702 0 0
0.0417094 0.00128727 0
0.0416139 0 0
0.0413398 0.000643634 0
0.0419834 0.000643634 0
0.0422575 0 0
0.0417094 0.00132994 0
0.0435874 0 0
0.0419834 0.000664969 0
0.0426484 0.000664969 0
0.0429225 0 0
0.0400106 0.00139767 0
0.0415268 0.00146986 0
0.0410888 -0.000118556 0
0.0407687 0.00143376 0
0.0413078 0.000675651 0
0.0405497 0.000639555 0
0.0400165 0.00139767 0
0.0387392 0.00311076 0
0.0417296 0.00146986 0
0.0393778 0.00225421 0
0.0402344 0.00229031 0
0.040873 0.00143376 0
0.0400106 0.00140063 0
0.0410888 -8.30729e-05 0
0.0385269 0.00139254 0
0.0405497 0.000658777 0
0.0398078 0.000654735 0
0.0392687 0.00139659 0
0.0400165 0.00140063 0
0.0383833 0.00139254 0
0.0387392 0.0030338 0
0.0391999 0.00139659 0
0.0385612 0.00221317 0
0.0393778 0.00221722 0
0.0369532 0.00301161 0
0.0384582 0.00137705 0
0.0353186 0.00295977 0
0.0377057 0.00219433 0
0.0368884 0.00216841 0
0.0361359 0.00298569 0
0.0369532 0.00301085 0
0.0386463 0.00312663 0
0.0384582 0.00131769 0
0.0377998 0.00306874 0
0.0385522 0.00222216 0
0.0377057 0.00216427 0
0.0369547 0.00301161 0
0.0352746 0.00295977 0
0.0352141 0.00469177 0
0.0361146 0.00298569 0
0.0352443 0.00382577 0
0.0360844 0.00385169 0
0.0369547 0.00301085 0
0.0352141 0.00476179 0
0.0387056 0.00312663 0
0.0360844 0.00388632 0
0.0369599 0.00394421 0
0.0378302 0.00306874 0
0.0398483 0 0
0.0384579 0.00132357 0
0.0411719 0 0
0.0391531 0.000661784 0
0.0398149 0.000661784 0
0.0405101 0 0
0.0398483 0 0
0.0385125 0 0
0.0384579 0.00133575 0
0.0391804 0 0
0.0384852 0.000667875 0
0.0391531 0.000667875 0
0.0369457 0.0014083 0
0.0353056 0.00294675 0
0.0384841 0.00140301 0
0.0361256 0.00217753 0
0.0368949 0.00217488 0
0.0377149 0.00140565 0
0.0369425 0.0014083 0
0.0383906 0.00140301 0
0.0385523 -3.9798e-05 0
0.0376666 0.00140565 0
0.0384715 0.000681606 0
0.0377474 0.00068425 0
0.0369457 0.00140987 0
0.0354281 0.00143621 0
0.0353056 0.00292745 0
0.0361869 0.00142304 0
0.0353668 0.00218183 0
0.0361256 0.00216866 0
0.0369425 0.00140987 0
0.0385523 -4.24461e-05 0
0.0354902 0.00143621 0
0.0377474 0.00068371 0
0.0370213 0.000696881 0
0.0362164 0.00142304 0
0.0334993 0.00460222 0
0.0351753 0.00473054 0
0.0353081 0.00292622 0
0.0343373 0.00466638 0
0.0352417 0.00382838 0
0.0344037 0.00376422 0
0.0334993 0.00460222 0
0.0314973 0.00626807 0
0.0351651 0.00473054 0
0.0324983 0.00543514 0
0.0333312 0.0054993 0
0.0343322 0.00466638 0
0.0334993 0.00460221 0
0.0353081 0.0029778 0
0.0318749 0.00452534 0
0.0344037 0.00379001 0
0.0335915 0.00375157 0
0.0326871 0.00456378 0
0.0334993 0.00460221 0
0.031885 0.00452534 0
0.0314973 0.00621654 0
0.0326921 0.00456378 0
0.0316912 0.00537094 0
0.0324983 0.00540938 0
0.0299034 0.00610385 0
0.0283927 0.00602116 0
0.0277743 0.00761453 0
0.0291481 0.00606251 0
0.0280835 0.00681785 0
0.0288388 0.00685919 0
0.0299034 0.0061041 0
0.0277743 0.00764915 0
0.0314485 0.00622412 0
0.0288388 0.00687662 0
0.0296114 0.00693663 0
0.0306759 0.00616411 0
0.0299039 0.00610385 0
0.031892 0.00455637 0
0.0283564 0.00602116 0
0.030898 0.00533011 0
0.0301242 0.00528877 0
0.0291302 0.00606251 0
0.0299039 0.0061041 0
0.0314898 0.00622412 0
0.031892 0.00451826 0
0.0306968 0.00616411 0
0.0316909 0.00537119 0
0.030898 0.00531118 0
0.0263098 0.00750342 0
0.0277837 0.00760513 0
0.0283844 0.00602952 0
0.0270467 0.00755428 0
0.028084 0.00681733 0
0.0273471 0.00676647 0
0.0263092 0.00750342 0
0.0241386 0.00892401 0
0.0277298 0.00760513 0
0.0252239 0.00821372 0
0.0259342 0.00826457 0
0.0270195 0.00755428 0
0.0263098 0.00750313 0
0.0283844 0.00605521 0
0.0248619 0.00742535 0
0.0273471 0.00677917 0
0.0266231 0.00674028 0
0.0255858 0.00746424 0
0.0263092 0.00750313 0
0.0249099 0.00742535 0
0.0241386 0.00890238 0
0.0256096 0.00746424 0
0.0245243 0.00816387 0
0.0252239 0.00820276 0
0.025469 0.00902549 0
0.0268646 0.00920228 0
0.0277773 0.00762997 0
0.0261668 0.00911389 0
0.0273209 0.00841612 0
0.0266232 0.00832773 0
0.025469 0.00902496 0
0.0277773 0.00765266 0
0.0240967 0.00888218 0
0.0266232 0.00833881 0
0.025937 0.00826742 0
0.0247829 0.00895357 0
0.025468 0.00902549 0
0.023069 0.0103361 0
0.0267785 0.00920228 0
0.0242685 0.00968078 0
0.0249238 0.00976917 0
0.0261232 0.00911389 0
0.025468 0.00902496 0
0.024172 0.00888218 0
0.023069 0.0103209 0
0.02482 0.00895357 0
0.0236205 0.00960154 0
0.0242685 0.00967292 0
0.0303245 0.00450578 0
0.0283822 0.00604694 0
0.0318657 0.00453002 0
0.0293534 0.00527636 0
0.030124 0.00528848 0
0.0310951 0.0045179 0
0.0303242 0.00450578 0
0.0318715 0.00453002 0
0.0321772 0.00295842 0
0.0310978 0.0045179 0
0.0320244 0.00374422 0
0.0312507 0.0037321 0
0.0303245 0.00450595 0
0.0288088 0.0044965 0
0.0283822 0.00602165 0
0.0295667 0.00450123 0
0.0285955 0.00525908 0
0.0293534 0.0052638 0
0.0303242 0.00450595 0
0.0321772 0.00298126 0
0.0287995 0.0044965 0
0.0312507 0.0037436 0
0.0304884 0.00373888 0
0.0295618 0.00450123 0
0.0337163 0.00295912 0
0.0318895 0.00453992 0
0.0352971 0.00296684 0
0.0328029 0.00374952 0
0.0335933 0.00375338 0
0.0345067 0.00296298 0
0.0337163 0.00295973 0
0.032164 0.00297167 0
0.0318895 0.00451208 0
0.0329402 0.0029657 0
0.0320267 0.00374188 0
0.0328029 0.0037359 0
0.0337151 0.00295912 0
0.0352662 0.00296684 0
0.0354563 0.00140802 0
0.0344907 0.00296298 0
0.0353612 0.00218743 0
0.0345857 0.00218357 0
0.0337151 0.00295973 0
0.0354563 0.00142736 0
0.0321828 0.00297167 0
0.0345857 0.00219355 0
0.0338195 0.00219952 0
0.0329489 0.0029657 0
0.0205484 0.01142 0
0.0230704 0.0103337 0
0.0194621 0.0113049 0
0.0218094 0.0108769 0
0.0212663 0.0108193 0
0.0200053 0.0113625 0
0.0205484 0.0114204 0
0.0216352 0.0115452 0
0.0230704 0.0103336 0
0.0210918 0.0114828 0
0.0223528 0.0109394 0
0.0218094 0.010877 0
0.0205477 0.01142 0
0.0195467 0.0113049 0
0.0180055 0.0124211 0
0.0200472 0.0113625 0
0.0187761 0.011863 0
0.0192766 0.0119205 0
0.0205477 0.0114204 0
0.0180055 0.0124162 0
0.0215436 0.0115452 0
0.0192766 0.0119183 0
0.0197745 0.0119807 0
0.0210456 0.0114828 0
0.0218469 0.0101691 0
0.0195031 0.0113459 0
0.0230237 0.010287 0
0.020675 0.0107575 0
0.0212634 0.0108165 0
0.0224353 0.010228 0
0.0218476 0.0101691 0
0.0231029 0.010287 0
0.0241404 0.00891377 0
0.0224752 0.010228 0
0.0236217 0.0096004 0
0.022994 0.00954141 0
0.0218469 0.0101687 0
0.0206761 0.0100678 0
0.0195031 0.0113395 0
0.0212615 0.0101182 0
0.0200896 0.0107036 0
0.020675 0.0107541 0
0.0218476 0.0101687 0
0.0241404 0.00892522 0
0.0206041 0.0100678 0
0.022994 0.00954696 0
0.0223723 0.00949648 0
0.0212258 0.0101182 0
0.0170821 0.0123154 0
0.0180494 0.0123772 0
0.0195036 0.011348 0
0.0175657 0.0123463 0
0.0187765 0.0118626 0
0.0182929 0.0118317 0
0.0170817 0.0123154 0
0.0146555 0.0132019 0
0.0179683 0.0123772 0
0.0158686 0.0127586 0
0.0163119 0.0127895 0
0.017525 0.0123463 0
0.0170821 0.0123152 0
0.0195036 0.0113446 0
0.0161115 0.0122517 0
0.0182929 0.0118299 0
0.0178076 0.0117982 0
0.0165968 0.0122834 0
0.0170817 0.0123152 0
0.0161888 0.0122517 0
0.0146555 0.013208 0
0.0166353 0.0122834 0
0.0154222 0.0127299 0
0.0158686 0.0127616 0
0.0154023 0.0131941 0
0.0161689 0.0131999 0
0.018005 0.0124275 0
0.0157856 0.013197 0
0.0170869 0.0128137 0
0.0167036 0.0128108 0
0.0154023 0.013194 0
0.018005 0.0124138 0
0.0146221 0.0131686 0
0.0167036 0.0128039 0
0.0163135 0.0127912 0
0.0150122 0.0131813 0
0.0154021 0.0131941 0
0.0128228 0.0138834 0
0.0160915 0.0131999 0
0.0141125 0.0135387 0
0.0144572 0.0135417 0
0.0157468 0.013197 0
0.0154021 0.013194 0
0.0146982 0.0131686 0
0.0128228 0.0138979 0
0.0150502 0.0131813 0
0.0137605 0.0135332 0
0.0141125 0.013546 0
0.0227973 0.00880276 0
0.0248924 0.00745849 0
0.021453 0.00873554 0
0.0238448 0.00813063 0
0.0231727 0.00809702 0
0.0221251 0.00876915 0
0.0227973 0.00880301 0
0.0241574 0.00888355 0
0.0248924 0.00744288 0
0.0234773 0.00884328 0
0.0245249 0.00816321 0
0.0238448 0.00812295 0
0.0227968 0.00880276 0
0.0215066 0.00873554 0
0.0206414 0.0100929 0
0.0221517 0.00876915 0
0.021074 0.00941424 0
0.0217191 0.00944785 0
0.0227968 0.00880301 0
0.0206414 0.010105 0
0.0240988 0.00888355 0
0.0217191 0.00945402 0
0.0223701 0.00949429 0
0.0234478 0.00884328 0
0.0268871 0.00598814 0
0.0248908 0.00745433 0
0.0283533 0.00602412 0
0.025889 0.00672123 0
0.0266221 0.00673922 0
0.0276202 0.00600613 0
0.0268871 0.0059881 0
0.02544 0.00596163 0
0.0248908 0.00743523 0
0.0261635 0.00597487 0
0.0251654 0.00669843 0
0.025889 0.00671167 0
0.0268872 0.00598814 0
0.0283798 0.00602412 0
0.0288098 0.00449554 0
0.0276335 0.00600613 0
0.0285948 0.00525983 0
0.0278485 0.00524184 0
0.0268872 0.0059881 0
0.0288098 0.0045151 0
0.0254142 0.00596163 0
0.0278485 0.0052516 0
0.027112 0.00523836 0
0.0261507 0.00597487 0
0.0234825 0.007386 0
0.021482 0.0087645 0
0.024861 0.00742709 0
0.0224822 0.00807525 0
0.0231715 0.0080958 0
0.0241718 0.00740655 0
0.0234827 0.007386 0
0.024899 0.00742709 0
0.0254318 0.00596978 0
0.0241909 0.00740655 0
0.0251654 0.00669843 0
0.0244573 0.00667789 0
0.0234825 0.00738589 0
0.0221161 0.00734945 0
0.021482 0.00875231 0
0.0227993 0.00736767 0
0.021799 0.00805088 0
0.0224822 0.0080691 0
0.0234827 0.00738589 0
0.0254318 0.00598354 0
0.0220804 0.00734945 0
0.0244573 0.00668471 0
0.0237561 0.00666649 0
0.0227816 0.00736767 0
0.0184077 0.0112317 0
0.019538 0.0113046 0
0.0206424 0.0101014 0
0.0189729 0.0112681 0
0.0200902 0.010703 0
0.0195251 0.0106665 0
0.0184077 0.0112314 0
0.0206424 0.0101056 0
0.0172819 0.0111647 0
0.0195251 0.0106685 0
0.0189622 0.0106352 0
0.0178448 0.0111981 0
0.0184073 0.0112317 0
0.0161478 0.012288 0
0.0194636 0.0113046 0
0.0172776 0.0117598 0
0.0178057 0.0117963 0
0.0189354 0.0112681 0
0.0184073 0.0112314 0
0.0173518 0.0111647 0
0.0161478 0.0122869 0
0.0178795 0.0111981 0
0.0167498 0.0117258 0
0.0172776 0.0117592 0
0.0194159 0.0100093 0
0.020666 0.0100683 0
0.021483 0.00875911 0
0.020041 0.0100388 0
0.0210745 0.0094137 0
0.0204495 0.00938419 0
0.0194155 0.0100093 0
0.0173161 0.0111988 0
0.0206051 0.0100683 0
0.0183658 0.010604 0
0.0189606 0.0106336 0
0.0200103 0.0100388 0
0.0194159 0.0100091 0
0.021483 0.00876689 0
0.0181737 0.00995599 0
0.0204495 0.00938798 0
0.0198284 0.00936144 0
0.0187948 0.00998253 0
0.0194155 0.0100091 0
0.0182309 0.00995599 0
0.0173161 0.0111937 0
0.0188232 0.00998253 0
0.0177735 0.0105748 0
0.0183658 0.0106014 0
0.0371923 0 0
0.035769 0 0
0.0354565 0.00142332 0
0.0364806 0 0
0.0356127 0.000711661 0
0.0363244 0.000711661 0
0.0371923 0 0
0.0354565 0.0014025 0
0.0385948 0 0
0.0363244 0.000701248 0
0.0370256 0.000701248 0
0.0378935 0 0
0.0339678 0.00146401 0
0.0354379 0.00144191 0
0.035775 -6.06776e-06 0
0.0347029 0.00145296 0
0.0356065 0.000717921 0
0.0348714 0.000728972 0
0.0339695 0.00146401 0
0.0321764 0.00296529 0
0.0354708 0.00144191 0
0.033073 0.00221465 0
0.0338236 0.0022036 0
0.0347202 0.00145296 0
0.0339678 0.00146486 0
0.035775 -1.6161e-05 0
0.0324868 0.00149041 0
0.0348714 0.000724348 0
0.0341309 0.000737124 0
0.0332273 0.00147763 0
0.0339695 0.00146486 0
0.0324708 0.00149041 0
0.0321764 0.00296355 0
0.0332202 0.00147763 0
0.0323236 0.00222698 0
0.033073 0.00221421 0
0.030658 0.00299294 0
0.0291562 0.00301088 0
0.0288087 0.0044948 0
0.0299071 0.00300191 0
0.0289824 0.00375284 0
0.0297334 0.00374387 0
0.030658 0.00299257 0
0.0288087 0.00450576 0
0.0321712 0.00297523 0
0.0297334 0.00374917 0
0.03049 0.0037405 0
0.0314146 0.0029839 0
0.0306573 0.00299294 0
0.0324761 0.00149088 0
0.0291552 0.00301088 0
0.0315667 0.00224191 0
0.0308157 0.00225088 0
0.0299062 0.00300191 0
0.0306573 0.00299257 0
0.0321647 0.00297523 0
0.0324761 0.00148513 0
0.031411 0.0029839 0
0.0323204 0.00223018 0
0.0315667 0.00223885 0
0.0273146 0.00449955 0
0.0288046 0.00449896 0
0.0291574 0.00300961 0
0.0280596 0.00449925 0
0.028981 0.00375428 0
0.028236 0.00375458 0
0.0273149 0.00449955 0
0.0254308 0.00597831 0
0.0287936 0.00449896 0
0.0263729 0.00523893 0
0.0271122 0.00523864 0
0.0280543 0.00449925 0
0.0273146 0.00449967 0
0.0291574 0.00301989 0
0.0258349 0.00449813 0
0.028236 0.00375978 0
0.0274961 0.00375901 0
0.0265747 0.0044989 0
0.0273149 0.00449967 0
0.0258483 0.00449813 0
0.0254308 0.00596627 0
0.0265816 0.0044989 0
0.0256396 0.0052322 0
0.0263729 0.00523297 0
0.0343113 0 0
0.0324763 0.00147992 0
0.0357912 0 0
0.0333938 0.000739961 0
0.0341338 0.000739961 0
0.0350512 0 0
0.0343113 0 0
0.0328155 0 0
0.0324763 0.00149578 0
0.0335634 0 0
0.0326459 0.000747889 0
0.0333938 0.000747889 0
0.0309764 0.00151052 0
0.0291571 0.00301277 0
0.0324787 0.00149347 0
0.0300668 0.00226165 0
0.0308179 0.00225312 0
0.0317276 0.001502 0
0.0309756 0.00151052 0
0.0324786 0.00149347 0
0.032808 7.50011e-06 0
0.0317271 0.001502 0
0.0326433 0.000750487 0
0.0318918 0.000759012 0
0.0309764 0.00151094 0
0.0294737 0.00152366 0
0.0291571 0.00301365 0
0.0302251 0.0015173 0
0.0293154 0.00226866 0
0.0300668 0.0022623 0
0.0309756 0.00151094 0
0.032808 7.64539e-07 0
0.0294654 0.00152366 0
0.0318918 0.000755853 0
0.0311367 0.000762213 0
0.0302205 0.0015173 0
0.00248524 0.00241131 0
0.00251151 0.00481536 0
-3.93622e-06 0.00238504 0
0.00249837 0.00361333 0
0.00125379 0.0036002 0
0.00124065 0.00239817 0
0.00246503 0.00241131 0
0.00495651 0.0025179 0
0.00257162 0.00481536 0
0.00371077 0.0024646 0
0.00376407 0.00366663 0
0.00251832 0.00361333 0
4.1419e-07 0.00474982 0
-3.2637e-05 0.00241374 0
0.002544 0.00478287 0
-1.61114e-05 0.00358178 0
0.00125568 0.0035983 0
0.00127221 0.00476634 0
4.1419e-07 0.0047494 0
0.002544 0.00478577 0
3.6779e-05 0.00691185 0
0.00127221 0.00476759 0
0.00129039 0.00584881 0
1.85966e-05 0.00583063 0
-4.14206e-07 0.00474982 0
-0.002544 0.00478287 0
3.2637e-05 0.00241374 0
-0.00127221 0.00476634 0
-0.00125568 0.0035983 0
1.61114e-05 0.00358178 0
-4.14206e-07 0.0047494 0
-3.6779e-05 0.00691185 0
-0.002544 0.00478577 0
-1.85966e-05 0.00583063 0
-0.00129039 0.00584881 0
-0.00127221 0.00476759 0
0.00262402 0.00691557 0
0.00250112 0.00482455 0
0.00526866 0.00703848 0
0.00256257 0.00587006 0
0.00388489 0.00593152 0
0.00394634 0.00697702 0
0.00262432 0.00691557 0
-1.04157e-06 0.00687403 0
0.00258279 0.00482455 0
0.00131164 0.0068948 0
0.00129087 0.00584929 0
0.00260355 0.00587006 0
0.00262402 0.00691572 0
0.00526866 0.00703308 0
0.00274139 0.00881392 0
0.00394634 0.0069744 0
0.00400503 0.0079235 0
0.00268271 0.00786482 0
0.00262432 0.00691572 0
0.00266269 0.00881392 0
-1.04157e-06 0.00687735 0
0.00264351 0.00786482 0
0.00133082 0.00784563 0
0.00131164 0.00689653 0
-2.73402e-07 0.00873914 0
0.002699 0.0087757 0
3.62874e-05 0.0103646 0
0.00134936 0.00875742 0
0.00136764 0.00957015 0
1.8007e-05 0.00955187 0
-2.73402e-07 0.00873886 0
-3.90213e-05 0.00691533 0
0.002699 0.00877761 0
-1.96473e-05 0.00782709 0
0.00132999 0.00784647 0
0.00134936 0.00875824 0
2.73378e-07 0.00873914 0
-3.62874e-05 0.0103646 0
-0.002699 0.0087757 0
-1.8007e-05 0.00955187 0
-0.00136764 0.00957015 0
-0.00134936 0.00875742 0
2.73378e-07 0.00873886 0
-0.002699 0.00877761 0
3.90213e-05 0.00691533 0
-0.00134936 0.00875824 0
-0.00132999 0.00784647 0
1.96473e-05 0.00782709 0
0.00276328 0.0103538 0
6.92715e-07 0.010329 0
0.00273845 0.00881515 0
0.00138199 0.0103414 0
0.00136957 0.00957208 0
0.00275087 0.00958449 0
0.00276239 0.0103538 0
0.00266787 0.00881515 0
0.00555484 0.0104484 0
0.00271513 0.00958449 0
0.00411135 0.00963175 0
0.00415861 0.0104011 0
0.00276328 0.0103543 0
0.00278245 0.0116962 0
6.92715e-07 0.0103351 0
0.00277286 0.0110252 0
0.00139157 0.0110156 0
0.00138199 0.0103447 0
0.00276239 0.0103543 0
0.00555484 0.010436 0
0.00284413 0.0116962 0
0.00415861 0.0103952 0
0.00419949 0.0110661 0
0.00280326 0.0110252 0
-0.00262402 0.00691557 0
-0.00526866 0.00703848 0
-0.00250112 0.00482455 0
-0.00394634 0.00697702 0
-0.00388489 0.00593152 0
-0.00256257 0.00587006 0
-0.00262432 0.00691557 0
-0.00258279 0.00482455 0
1.04154e-06 0.00687403 0
-0.00260355 0.00587006 0
-0.00129087 0.00584929 0
-0.00131164 0.0068948 0
-0.00262402 0.00691572 0
-0.00274139 0.00881392 0
-0.00526866 0.00703308 0
-0.00268271 0.00786482 0
-0.00400503 0.0079235 0
-0.00394634 0.0069744 0
-0.00262432 0.00691572 0
1.04154e-06 0.00687735 0
-0.00266269 0.00881392 0
-0.00131164 0.00689653 0
-0.00133082 0.00784563 0
-0.00264351 0.00786482 0
-0.00248524 0.00241131 0
3.9362e-06 0.00238504 0
-0.00251151 0.00481536 0
-0.00124065 0.00239817 0
-0.00125379 0.0036002 0
-0.00249837 0.00361333 0
-0.00246503 0.00241131 0
-0.00257162 0.00481536 0
-0.00495651 0.0025179 0
-0.00251832 0.00361333 0
-0.00376407 0.00366663 0
-0.00371077 0.0024646 0
-0.00511196 0.00490666 0
-0.0025381 0.00478758 0
-0.00523104 0.0070761 0
-0.00382503 0.00484712 0
-0.00388457 0.00593184 0
-0.0051715 0.00599138 0
-0.00511196 0.00490709 0
-0.0049867 0.00254809 0
-0.0025381 0.00478183 0
-0.00504933 0.00372759 0
-0.0037624 0.00366496 0
-0.00382503 0.00484446 0
-0.00511283 0.00490666 0
-0.00531109 0.0070761 0
-0.00771379 0.00510492 0
-0.00521196 0.00599138 0
-0.00651244 0.00609051 0
-0.00641331 0.00500579 0
-0.00511283 0.00490709 0
-0.00771379 0.00510461 0
-0.00491531 0.00254809 0
-0.00641331 0.00500585 0
-0.00631455 0.00382635 0
-0.00501407 0.00372759 0
-0.00276328 0.0103538 0
-0.00273845 0.00881515 0
-6.92747e-07 0.010329 0
-0.00275087 0.00958449 0
-0.00136957 0.00957208 0
-0.00138199 0.0103414 0
-0.00276239 0.0103538 0
-0.00555484 0.0104484 0
-0.00266787 0.00881515 0
-0.00415861 0.0104011 0
-0.00411135 0.00963175 0
-0.00271513 0.00958449 0
-0.00276328 0.0103543 0
-6.92747e-07 0.0103351 0
-0.00278245 0.0116962 0
-0.00138199 0.0103447 0
-0.00139157 0.0110156 0
-0.00277286 0.0110252 0
-0.00276239 0.0103543 0
-0.00284413 0.0116962 0
-0.00555484 0.010436 0
-0.00280326 0.0110252 0
-0.00419949 0.0110661 0
-0.00415861 0.0103952 0
-0.00542666 0.00888329 0
-0.00531489 0.00707931 0
-0.00269898 0.00877151 0
-0.00537078 0.0079813 0
-0.00400693 0.00792541 0
-0.00406282 0.0088274 0
-0.00542666 0.00888363 0
-0.00269898 0.00878403 0
-0.00552626 0.0104769 0
-0.00406282 0.00883383 0
-0.00411262 0.00963049 0
-0.00547646 0.00968028 0
-0.00542598 0.00888329 0
-0.00820642 0.00907706 0
-0.00523221 0.00707931 0
-0.0068162 0.00898017 0
-0.00671931 0.00807819 0
-0.00532909 0.0079813 0
-0.00542598 0.00888363 0
-0.00560214 0.0104769 0
-0.00820642 0.00905978 0
-0.00551406 0.00968028 0
-0.00690428 0.00976836 0
-0.0068162 0.0089717 0
-5.22978e-07 0.0116436 0
-2.81993e-05 0.010364 0
0.0028073 0.0116713 0
-1.43611e-05 0.0110038 0
0.00138955 0.0110177 0
0.00140339 0.0116575 0
-5.22978e-07 0.0116442 0
0.0028073 0.0116677 0
2.29697e-05 0.0127408 0
0.00140339 0.0116559 0
0.00141514 0.0122042 0
1.12233e-05 0.0121925 0
5.22948e-07 0.0116436 0
-0.0028073 0.0116713 0
2.81993e-05 0.010364 0
-0.00140339 0.0116575 0
-0.00138955 0.0110177 0
1.43611e-05 0.0110038 0
5.22948e-07 0.0116442 0
-2.29697e-05 0.0127408 0
-0.0028073 0.0116677 0
-1.12234e-05 0.0121925 0
-0.00141514 0.0122042 0
-0.00140339 0.0116559 0
0.00282454 0.0127115 0
0.00279501 0.0116939 0
0.00567947 0.0127411 0
0.00280977 0.0122027 0
0.00423724 0.0122175 0
0.00425201 0.0127263 0
0.00282569 0.0127115 0
1.61147e-06 0.0127194 0
0.00283359 0.0116939 0
0.00141365 0.0127155 0
0.0014176 0.0122067 0
0.00282964 0.0122027 0
0.00282454 0.0127121 0
0.00567947 0.0127265 0
0.00283894 0.013564 0
0.00425201 0.0127193 0
0.00425921 0.0131453 0
0.00283174 0.0131381 0
0.00282569 0.0127121 0
0.00281186 0.013564 0
1.61147e-06 0.0127259 0
0.00281878 0.0131381 0
0.00140674 0.013145 0
0.00141365 0.012719 0
-5.56596e-07 0.0135479 0
0.00281898 0.013553 0
4.6127e-06 0.0142134 0
0.00140921 0.0135504 0
0.0014118 0.0138832 0
2.02805e-06 0.0138806 0
-5.56596e-07 0.0135473 0
-1.01786e-05 0.0127377 0
0.00281898 0.0135569 0
-5.36758e-06 0.0131425 0
0.0014044 0.0131473 0
0.00140921 0.0135521 0
5.56572e-07 0.0135479 0
-4.61273e-06 0.0142134 0
-0.00281898 0.013553 0
-2.02808e-06 0.0138806 0
-0.0014118 0.0138832 0
-0.00140921 0.0135504 0
5.56572e-07 0.0135473 0
-0.00281898 0.0135569 0
1.01785e-05 0.0127377 0
-0.00140921 0.0135521 0
-0.0014044 0.0131473 0
5.36756e-06 0.0131425 0
0.00278304 0.0141674 0
1.78377e-06 0.0142106 0
0.00282625 0.0135603 0
0.00139241 0.014189 0
0.00141402 0.0138854 0
0.00280465 0.0138638 0
0.00278201 0.0141674 0
0.002826 0.0135603 0
0.00558768 0.0141234 0
0.00280401 0.0138638 0
0.00420684 0.0138418 0
0.00418485 0.0141454 0
0.00278304 0.0141679 0
0.00273503 0.0146542 0
1.78377e-06 0.0142159 0
0.00275903 0.014411 0
0.00136841 0.014435 0
0.00139241 0.0141919 0
0.00278201 0.0141679 0
0.00558768 0.0141109 0
0.00272501 0.0146542 0
0.00418485 0.0141394 0
0.00415634 0.0143825 0
0.00275351 0.014411 0
-0.00282454 0.0127121 0
-0.00283894 0.013564 0
-0.00567947 0.0127265 0
-0.00283174 0.0131381 0
-0.00425921 0.0131453 0
-0.00425201 0.0127193 0
-0.00282569 0.0127121 0
-1.6115e-06 0.0127259 0
-0.00281186 0.013564 0
-0.00141365 0.012719 0
-0.00140674 0.013145 0
-0.00281878 0.0131381 0
-0.00282454 0.0127115 0
-0.00567947 0.0127411 0
-0.00279501 0.0116939 0
-0.00425201 0.0127263 0
-0.00423724 0.0122175 0
-0.00280978 0.0122027 0
-0.00282569 0.0127115 0
-0.00283359 0.0116939 0
-1.6115e-06 0.0127194 0
-0.00282964 0.0122027 0
-0.0014176 0.0122067 0
-0.00141365 0.0127155 0
-0.00278304 0.0141674 0
-0.00282625 0.0135603 0
-1.7838e-06 0.0142106 0
-0.00280465 0.0138638 0
-0.00141402 0.0138854 0
-0.00139241 0.014189 0
-0.00278201 0.0141674 0
-0.00558768 0.0141234 0
-0.002826 0.0135603 0
-0.00418485 0.0141454 0
-0.00420684 0.0138418 0
-0.00280401 0.0138638 0
-0.00278304 0.0141679 0
-1.7838e-06 0.0142159 0
-0.00273503 0.0146542 0
-0.00139241 0.0141919 0
-0.00136841 0.014435 0
-0.00275903 0.014411 0
-0.00278201 0.0141679 0
-0.00272501 0.0146542 0
-0.00558768 0.0141109 0
-0.00275351 0.014411 0
-0.00415634 0.0143825 0
-0.00418485 0.0141394 0
-0.00565589 0.0135027 0
-0.00570087 0.0127479 0
-0.00282262 0.0135477 0
-0.00567838 0.0131253 0
-0.00426174 0.0131478 0
-0.00423926 0.0135252 0
-0.00565589 0.0135033 0
-0.00282262 0.0135637 0
-0.00559552 0.0141155 0
-0.00423926 0.0135335 0
-0.00420907 0.0138396 0
-0.00562571 0.0138094 0
-0.00565474 0.0135027 0
-0.00854424 0.0134726 0
-0.00568483 0.0127479 0
-0.00709949 0.0134877 0
-0.00711454 0.0131103 0
-0.00566979 0.0131253 0
-0.00565474 0.0135033 0
-0.00560004 0.0141155 0
-0.00854424 0.0134486 0
-0.00562739 0.0138094 0
-0.00707214 0.0137821 0
-0.00709949 0.013476 0
-0.00563989 0.011708 0
-0.00280996 0.011679 0
-0.00566891 0.0127516 0
-0.00422492 0.0116935 0
-0.00423943 0.0122153 0
-0.0056544 0.0122298 0
-0.00563989 0.0117074 0
-0.00559445 0.0104756 0
-0.00280996 0.011662 0
-0.00561717 0.0110915 0
-0.00420221 0.0110688 0
-0.00422492 0.0116847 0
-0.00563871 0.011708 0
-0.0057132 0.0127516 0
-0.00853265 0.0117825 0
-0.00567596 0.0122298 0
-0.00712293 0.0122671 0
-0.00708568 0.0117453 0
-0.00563871 0.0117074 0
-0.00853265 0.0118077 0
-0.00553844 0.0104756 0
-0.00708568 0.0117576 0
-0.00703555 0.0111417 0
-0.00558858 0.0110915 0
0.00545939 0.014529 0
0.00531924 0.014851 0
0.00272816 0.0146691 0
0.00538932 0.01469 0
0.0040237 0.0147601 0
0.00409378 0.014599 0
0.00545939 0.0145285 0
0.00272816 0.0146573 0
0.00558819 0.0141114 0
0.00409378 0.0145929 0
0.00415817 0.0143844 0
0.00552379 0.01432 0
0.00545853 0.014529 0
0.00822876 0.0143597 0
0.00528927 0.014851 0
0.00684365 0.0144443 0
0.00675902 0.0146053 0
0.0053739 0.01469 0
0.00545853 0.0145285 0
0.00560956 0.0141114 0
0.00822876 0.0143775 0
0.00553405 0.01432 0
0.00691916 0.0142444 0
0.00684365 0.014453 0
-4.49721e-07 0.0146729 0
8.04038e-06 0.0142096 0
0.00272478 0.0146644 0
3.79533e-06 0.0144413 0
0.00136641 0.014437 0
0.00136217 0.0146687 0
-4.49721e-07 0.0146734 0
0.00272478 0.0146613 0
-1.25375e-05 0.015037 0
0.00136217 0.0146673 0
0.00135612 0.0148492 0
-6.4936e-06 0.0148552 0
4.49693e-07 0.0146729 0
-0.00272478 0.0146644 0
-8.04041e-06 0.0142096 0
-0.00136217 0.0146687 0
-0.00136641 0.014437 0
-3.79536e-06 0.0144413 0
4.49693e-07 0.0146734 0
1.25375e-05 0.015037 0
-0.00272478 0.0146613 0
6.49357e-06 0.0148552 0
-0.00135612 0.0148492 0
-0.00136217 0.0146673 0
0.00264105 0.0149789 0
0.00274682 0.0146505 0
0.0052971 0.0148731 0
0.00269394 0.0148147 0
0.00402196 0.0147618 0
0.00396908 0.014926 0
0.00264179 0.0149789 0
1.49757e-06 0.0150511 0
0.00271397 0.0146505 0
0.00132164 0.015015 0
0.00135773 0.0148508 0
0.00267788 0.0148147 0
0.00264105 0.0149793 0
0.0052971 0.0148644 0
0.0025262 0.0152294 0
0.00396908 0.0149218 0
0.00391165 0.0150469 0
0.00258363 0.0151043 0
0.00264179 0.0149793 0
0.00256645 0.0152294 0
1.49757e-06 0.0150546 0
0.00260412 0.0151043 0
0.00128397 0.015142 0
0.00132164 0.0150169 0
0.00796094 0.0146024 0
0.00530008 0.0148618 0
0.00822032 0.0143513 0
0.00663051 0.0147321 0
0.0067602 0.0146065 0
0.00809063 0.0144768 0
0.00796033 0.0146024 0
0.00826291 0.0143513 0
0.0106632 0.0142998 0
0.00811162 0.0144768 0
0.00946304 0.0143256 0
0.00931176 0.0144511 0
0.00796094 0.0146027 0
0.00768713 0.0147855 0
0.00530008 0.0148765 0
0.00782403 0.0146941 0
0.0064936 0.014831 0
0.00663051 0.0147396 0
0.00796033 0.0146027 0
0.0106632 0.0142808 0
0.00763846 0.0147855 0
0.00931176 0.0144418 0
0.00915082 0.0145332 0
0.0077994 0.0146941 0
-0.00839933 0.0105741 0
-0.011338 0.0107901 0
-0.00818331 0.00911142 0
-0.00986864 0.0106821 0
-0.00976063 0.00995075 0
-0.00829132 0.00984274 0
-0.00840052 0.0105741 0
-0.00825806 0.00911142 0
-0.0055568 0.0104316 0
-0.00832929 0.00984274 0
-0.00690743 0.00977151 0
-0.00697866 0.0105028 0
-0.00839933 0.0105747 0
-0.00858069 0.0118225 0
-0.011338 0.010756 0
-0.00849001 0.0111986 0
-0.00995932 0.0112892 0
-0.00986864 0.0106653 0
-0.00840052 0.0105747 0
-0.0055568 0.0104573 0
-0.00851791 0.0118225 0
-0.00697866 0.010516 0
-0.00703736 0.0111399 0
-0.00845922 0.0111986 0
-0.0110745 0.00932896 0
-0.00820741 0.00908732 0
-0.0113161 0.0108119 0
-0.00964094 0.00920814 0
-0.00976176 0.00994963 0
-0.0111953 0.0100704 0
-0.0110745 0.00932838 0
-0.010803 0.00759492 0
-0.00820741 0.00905695 0
-0.0109387 0.00846165 0
-0.00950522 0.00832593 0
-0.00964094 0.00919266 0
-0.0110733 0.00932896 0
-0.0114012 0.0108119 0
-0.0140582 0.00965692 0
-0.0112373 0.0100704 0
-0.0127297 0.0102344 0
-0.0125657 0.00949294 0
-0.0110733 0.00932838 0
-0.0140582 0.00969549 0
-0.0107062 0.00759492 0
-0.0125657 0.00951193 0
-0.0123822 0.0086452 0
-0.0108897 0.00846165 0
-0.00797301 0.0072438 0
-0.00526681 0.0070447 0
-0.00817211 0.00911137 0
-0.00661991 0.00714425 0
-0.00671946 0.00807804 0
-0.00807256 0.00817759 0
-0.00797249 0.0072438 0
-0.00826183 0.00911137 0
-0.0107413 0.00753314 0
-0.00811716 0.00817759 0
-0.00950154 0.00832226 0
-0.00935688 0.00738847 0
-0.00797301 0.00724354 0
-0.00776128 0.00515242 0
-0.00526681 0.00703182 0
-0.00786715 0.00619798 0
-0.00651405 0.00609212 0
-0.00661991 0.00713768 0
-0.00797249 0.00724354 0
-0.0107413 0.00754965 0
-0.00766638 0.00515242 0
-0.00935688 0.0073966 0
-0.00920382 0.00635103 0
-0.00781944 0.00619798 0
-0.0114949 0.0118832 0
-0.01139 0.0108081 0
-0.00853653 0.0117783 0
-0.0114424 0.0113456 0
-0.00996327 0.0112932 0
-0.0100157 0.0118307 0
-0.0114949 0.0118839 0
-0.00853653 0.0118184 0
-0.0115604 0.0127574 0
-0.0100157 0.0118512 0
-0.0100485 0.0122879 0
-0.0115276 0.0123207 0
-0.0114933 0.0118832 0
-0.0145869 0.0120388 0
-0.0113376 0.0108081 0
-0.0130401 0.011961 0
-0.0129623 0.0114235 0
-0.0114155 0.0113456 0
-0.0114933 0.0118839 0
-0.011597 0.0127574 0
-0.0145869 0.0119877 0
-0.0115452 0.0123207 0
-0.0130919 0.0123725 0
-0.0130401 0.0119358 0
-0.00857332 0.0127261 0
-0.00856879 0.0118187 0
-0.00568319 0.0127216 0
-0.00857105 0.0122724 0
-0.00712599 0.0122701 0
-0.00712825 0.0127239 0
-0.008572 0.0127261 0
-0.0115559 0.0127619 0
-0.00853629 0.0118187 0
-0.010064 0.012744 0
-0.0100461 0.0122903 0
-0.00855414 0.0122724 0
-0.00857332 0.0127268 0
-0.00568319 0.0127495 0
-0.00855057 0.0134663 0
-0.00712825 0.0127382 0
-0.00711688 0.0131079 0
-0.00856194 0.0130966 0
-0.008572 0.0127268 0
-0.00856988 0.0134663 0
-0.0115559 0.0127247 0
-0.00857094 0.0130966 0
-0.0100629 0.0130955 0
-0.010064 0.0127257 0
-0.00748657 0.00267969 0
-0.00774873 0.00514238 0
-0.0100572 0.00294185 0
-0.00761765 0.00391104 0
-0.00890294 0.00404212 0
-0.00877186 0.00281077 0
-0.00751148 0.00267969 0
-0.00494824 0.00251515 0
-0.00767601 0.00514238 0
-0.00622986 0.00259742 0
-0.00631213 0.00382877 0
-0.00759375 0.00391104 0
-0.0104023 0.00540781 0
-0.0100955 0.00298017 0
-0.00770736 0.00510101 0
-0.0102489 0.00419399 0
-0.00890142 0.00404059 0
-0.00905482 0.00525441 0
-0.0104023 0.00540733 0
-0.00770736 0.00511144 0
-0.0106982 0.00759275 0
-0.00905482 0.00525938 0
-0.00920276 0.00635209 0
-0.0105502 0.00650004 0
-0.0104032 0.00540781 0
-0.0131583 0.00580719 0
-0.0100039 0.00298017 0
-0.0117808 0.0056075 0
-0.0115811 0.00439368 0
-0.0102036 0.00419399 0
-0.0104032 0.00540733 0
-0.0107995 0.00759275 0
-0.0131583 0.00580359 0
-0.0106014 0.00650004 0
-0.0119789 0.00669817 0
-0.0117808 0.00560546 0
-0.0136364 0.00794695 0
-0.014137 0.00972997 0
-0.0166571 0.00844762 0
-0.0138867 0.00883846 0
-0.0153971 0.0090888 0
-0.0151467 0.00819729 0
-0.0136375 0.00794695 0
-0.0107403 0.00756078 0
-0.0140237 0.00972997 0
-0.0121889 0.00775387 0
-0.012382 0.00864538 0
-0.0138306 0.00883846 0
-0.0136364 0.00794638 0
-0.0166571 0.00848284 0
-0.0130999 0.00586993 0
-0.0151467 0.00821461 0
-0.0148785 0.00717639 0
-0.0133681 0.00690816 0
-0.0136375 0.00794638 0
-0.0132247 0.00586993 0
-0.0107403 0.00753357 0
-0.0134311 0.00690816 0
-0.0119825 0.00670175 0
-0.0121889 0.00773997 0
-0.0143825 0.0110073 0
-0.014128 0.00972671 0
-0.011342 0.0107527 0
-0.0142552 0.010367 0
-0.012735 0.0102397 0
-0.0128623 0.01088 0
-0.0143806 0.0110073 0
-0.0175988 0.0113398 0
-0.0140481 0.00972671 0
-0.0159897 0.0111735 0
-0.0158234 0.0105332 0
-0.0142143 0.010367 0
-0.0143825 0.0110082 0
-0.011342 0.0108037 0
-0.014587 0.0120387 0
-0.0128623 0.010906 0
-0.0129645 0.0114212 0
-0.0144848 0.0115235 0
-0.0143806 0.0110082 0
-0.0146473 0.0120387 0
-0.0175988 0.011275 0
-0.014514 0.0115235 0
-0.0161231 0.0116568 0
-0.0159897 0.0111416 0
-0.0171957 0.0101044 0
-0.0167461 0.00853662 0
-0.0140619 0.00965486 0
-0.0169709 0.00932054 0
-0.015404 0.00909574 0
-0.0156288 0.00987966 0
-0.0171957 0.0101056 0
-0.0140619 0.00971286 0
-0.0175885 0.01135 0
-0.0156288 0.00990925 0
-0.0158252 0.0105314 0
-0.0173921 0.0107278 0
-0.0171933 0.0101044 0
-0.0205419 0.0106719 0
-0.0166259 0.00853662 0
-0.0188676 0.0103882 0
-0.0185839 0.00960426 0
-0.0169096 0.00932054 0
-0.0171933 0.0101056 0
-0.0176848 0.01135 0
-0.0205419 0.0105972 0
-0.0174391 0.0107278 0
-0.0191134 0.0109736 0
-0.0188676 0.0103514 0
-0.0127698 0.00327434 0
-0.0100475 0.00293652 0
-0.0131076 0.00585795 0
-0.0114086 0.00310543 0
-0.0115775 0.00439723 0
-0.0129387 0.00456614 0
-0.0127342 0.00327434 0
-0.0132095 0.00585795 0
-0.0154704 0.00374969 0
-0.0129718 0.00456614 0
-0.0143399 0.00480382 0
-0.0141023 0.00351201 0
-0.0160749 0.00634664 0
-0.0131508 0.00581905 0
-0.0166025 0.00853752 0
-0.0146128 0.00608284 0
-0.0148766 0.00717829 0
-0.0163387 0.00744208 0
-0.0160749 0.0063472 0
-0.0155269 0.00380621 0
-0.0131508 0.00579921 0
-0.0158009 0.0050767 0
-0.0143388 0.00480271 0
-0.0146128 0.0060732 0
-0.016076 0.00634664 0
-0.0167466 0.00853752 0
-0.0191103 0.00701729 0
-0.0164113 0.00744208 0
-0.0179285 0.0077774 0
-0.0175932 0.00668196 0
-0.016076 0.0063472 0
-0.0191103 0.00702931 0
-0.0153939 0.00380621 0
-0.0175932 0.00668825 0
-0.0172521 0.00541776 0
-0.0157349 0.0050767 0
-0.00841402 0.0139648 0
-0.0113075 0.0138111 0
-0.00856773 0.0134615 0
-0.00986078 0.013888 0
-0.00993763 0.0136363 0
-0.00849087 0.0137132 0
-0.00841502 0.0139648 0
-0.00855713 0.0134615 0
-0.00559147 0.0141069 0
-0.00848607 0.0137132 0
-0.0070743 0.0137842 0
-0.00700324 0.0140359 0
-0.00841402 0.0139653 0
-0.00823028 0.0143554 0
-0.0113075 0.0137816 0
-0.00832215 0.0141604 0
-0.00976891 0.0140685 0
-0.00986078 0.0138735 0
-0.00841502 0.0139653 0
-0.00559147 0.0141295 0
-0.0082509 0.0143554 0
-0.00700324 0.0140474 0
-0.00692118 0.0142424 0
-0.00833296 0.0141604 0
-0.0114745 0.0133374 0
-0.0085486 0.0134806 0
-0.0113312 0.0137874 0
-0.0100115 0.013409 0
-0.00993992 0.013634 0
-0.0114028 0.0135624 0
-0.0114745 0.0133368 0
-0.0115827 0.0127515 0
-0.0085486 0.013445 0
-0.0115286 0.0130441 0
-0.0100657 0.0130982 0
-0.0100115 0.0133909 0
-0.0114732 0.0133374 0
-0.0113194 0.0137874 0
-0.0145082 0.0131835 0
-0.0113963 0.0135624 0
-0.0129138 0.0134855 0
-0.0129907 0.0132605 0
-0.0114732 0.0133368 0
-0.0145082 0.0132277 0
-0.0115823 0.0127515 0
-0.0129907 0.0132822 0
-0.0130453 0.0129896 0
-0.0115278 0.0130441 0
-0.00545939 0.014529 0
-0.00272816 0.0146691 0
-0.00531924 0.014851 0
-0.00409378 0.014599 0
-0.0040237 0.0147601 0
-0.00538932 0.01469 0
-0.00545939 0.0145285 0
-0.00558819 0.0141114 0
-0.00272816 0.0146573 0
-0.00552379 0.01432 0
-0.00415817 0.0143844 0
-0.00409378 0.0145929 0
-0.00545853 0.014529 0
-0.00528927 0.014851 0
-0.00822876 0.0143597 0
-0.0053739 0.01469 0
-0.00675902 0.0146053 0
-0.00684365 0.0144443 0
-0.00545853 0.0145285 0
-0.00822876 0.0143775 0
-0.00560956 0.0141114 0
-0.00684365 0.014453 0
-0.00691916 0.0142444 0
-0.00553405 0.01432 0
-0.00264105 0.0149789 0
-0.0052971 0.0148731 0
-0.00274682 0.0146505 0
-0.00396908 0.014926 0
-0.00402196 0.0147618 0
-0.00269394 0.0148147 0
-0.00264179 0.0149789 0
-0.00271397 0.0146505 0
-1.4976e-06 0.0150511 0
-0.00267788 0.0148147 0
-0.00135773 0.0148508 0
-0.00132164 0.015015 0
-0.00264105 0.0149793 0
-0.0025262 0.0152294 0
-0.0052971 0.0148644 0
-0.00258363 0.0151043 0
-0.00391165 0.0150469 0
-0.00396908 0.0149218 0
-0.00264179 0.0149793 0
-1.4976e-06 0.0150546 0
-0.00256645 0.0152294 0
-0.00132164 0.0150169 0
-0.00128397 0.015142 0
-0.00260412 0.0151043 0
-0.0110147 0.0140639 0
-0.0113082 0.0137823 0
-0.00823228 0.0143574 0
-0.0111615 0.0139231 0
-0.00977024 0.0140698 0
-0.00962349 0.0142106 0
-0.0110147 0.0140642 0
-0.00823228 0.0143819 0
-0.0106971 0.014266 0
-0.00962349 0.0142231 0
-0.00946466 0.0143239 0
-0.0108559 0.0141651 0
-0.011014 0.0140639 0
-0.0138644 0.0137314 0
-0.0113465 0.0137823 0
-0.0124392 0.0138976 0
-0.0126055 0.0137568 0
-0.0111803 0.0139231 0
-0.011014 0.0140642 0
-0.0106519 0.014266 0
-0.0138644 0.0137021 0
-0.0108329 0.0141651 0
-0.0122581 0.013984 0
-0.0124392 0.0138832 0
-0.00796094 0.0146024 0
-0.00822032 0.0143513 0
-0.00530008 0.0148618 0
-0.00809063 0.0144768 0
-0.0067602 0.0146065 0
-0.00663051 0.0147321 0
-0.00796033 0.0146024 0
-0.0106632 0.0142998 0
-0.00826291 0.0143513 0
-0.00931176 0.0144511 0
-0.00946304 0.0143256 0
-0.00811162 0.0144768 0
-0.00796094 0.0146027 0
-0.00530008 0.0148765 0
-0.00768713 0.0147855 0
-0.00663051 0.0147396 0
-0.0064936 0.014831 0
-0.00782403 0.0146941 0
-0.00796033 0.0146027 0
-0.00763846 0.0147855 0
-0.0106632 0.0142808 0
-0.0077994 0.0146941 0
-0.00915082 0.0145332 0
-0.00931176 0.0144418 0
-0.014606 0.0126988 0
-0.0178101 0.0126884 0
-0.0146164 0.0120311 0
-0.0162081 0.0126936 0
-0.0162133 0.0123598 0
-0.0146112 0.012365 0
-0.0146076 0.0126988 0
-0.0146303 0.0120311 0
-0.0115612 0.0127216 0
-0.014619 0.012365 0
-0.0130958 0.0123763 0
-0.0130844 0.0127102 0
-0.014606 0.0126996 0
-0.0145326 0.0132013 0
-0.0178101 0.0126262 0
-0.0145693 0.0129505 0
-0.0161713 0.0129138 0
-0.0162081 0.0126629 0
-0.0146076 0.0126996 0
-0.0115612 0.0127726 0
-0.0145346 0.0132013 0
-0.0130844 0.0127361 0
-0.0130479 0.012987 0
-0.0145711 0.0129505 0
-0.0177854 0.0121075 0
-0.0145936 0.0120539 0
-0.017839 0.0126595 0
-0.0161895 0.0120807 0
-0.0162163 0.0123567 0
-0.0178122 0.0123835 0
-0.0177854 0.0121064 0
-0.0176639 0.0113402 0
-0.0145936 0.011985 0
-0.0177246 0.0117233 0
-0.0161288 0.0116626 0
-0.0161895 0.0120457 0
-0.0177831 0.0121075 0
-0.0178515 0.0126595 0
-0.0211931 0.0121759 0
-0.0178173 0.0123835 0
-0.0195223 0.0124177 0
-0.0194881 0.0121417 0
-0.0177831 0.0121064 0
-0.0211931 0.0122607 0
-0.0176288 0.0113402 0
-0.0194881 0.0121835 0
-0.0194109 0.0118004 0
-0.0177059 0.0117233 0
-0.0142293 0.0134901 0
-0.0145191 0.0131944 0
-0.0113119 0.0137799 0
-0.0143742 0.0133422 0
-0.0129155 0.0134872 0
-0.0127706 0.013635 0
-0.0142285 0.0134901 0
-0.0172478 0.0131633 0
-0.0145553 0.0131944 0
-0.0157381 0.0133267 0
-0.0159015 0.0131788 0
-0.0143919 0.0133422 0
-0.0142293 0.0134905 0
-0.0113119 0.0138169 0
-0.0139028 0.013693 0
-0.0127706 0.0136537 0
-0.0126073 0.013755 0
-0.014066 0.0135917 0
-0.0142285 0.0134905 0
-0.0138585 0.013693 0
-0.0172478 0.0131205 0
-0.0140435 0.0135917 0
-0.0155531 0.0134067 0
-0.0157381 0.0133055 0
-0.0175899 0.0129389 0
-0.0178336 0.0126497 0
-0.0145139 0.0131827 0
-0.0177117 0.0127943 0
-0.0161738 0.0129162 0
-0.0160519 0.0130608 0
-0.0175899 0.0129395 0
-0.0145139 0.0132358 0
-0.0172936 0.0131175 0
-0.0160519 0.0130876 0
-0.0159038 0.0131766 0
-0.0174417 0.0130285 0
-0.0175888 0.0129389 0
-0.0208116 0.0126588 0
-0.017869 0.0126497 0
-0.0192002 0.0127989 0
-0.0193403 0.0126542 0
-0.0177289 0.0127943 0
-0.0175888 0.0129395 0
-0.0172474 0.0131175 0
-0.0208116 0.0125981 0
-0.0174181 0.0130285 0
-0.0190295 0.0128578 0
-0.0192002 0.0127688 0
0.0102221 0.0143825 0
0.012821 0.013883 0
0.00972255 0.0144595 0
0.0115216 0.0141328 0
0.0112718 0.0141712 0
0.0099723 0.014421 0
0.0102221 0.0143824 0
0.0107052 0.0142624 0
0.012821 0.0138993 0
0.0104636 0.0143224 0
0.0117631 0.0140808 0
0.0115216 0.0141408 0
0.0102224 0.0143825 0
0.00978611 0.0144595 0
0.00765771 0.0148188 0
0.0100042 0.014421 0
0.00872191 0.0146391 0
0.00894004 0.0146007 0
0.0102224 0.0143824 0
0.00765771 0.0148047 0
0.0106447 0.0142624 0
0.00894004 0.0145935 0
0.0091512 0.0145335 0
0.0104335 0.0143224 0
0.0121922 0.0138853 0
0.0097495 0.0144864 0
0.0127933 0.0138553 0
0.0109709 0.0141859 0
0.0112714 0.0141709 0
0.0124928 0.0138703 0
0.0121922 0.0138853 0
0.0128655 0.0138553 0
0.0146547 0.013212 0
0.0125288 0.0138703 0
0.0137601 0.0135337 0
0.0134235 0.0135487 0
0.0121922 0.0138853 0
0.0115805 0.0138932 0
0.0097495 0.0144971 0
0.0118863 0.0138893 0
0.010665 0.0141951 0
0.0109709 0.0141912 0
0.0121922 0.0138853 0
0.0146547 0.0132012 0
0.011508 0.0138932 0
0.0134235 0.0135433 0
0.0130814 0.0135472 0
0.0118501 0.0138893 0
0.00729385 0.0148978 0
0.00769396 0.0147825 0
0.00974791 0.0144977 0
0.0074939 0.0148402 0
0.00872093 0.0146401 0
0.00852088 0.0146977 0
0.00729417 0.0148978 0
0.00486172 0.0152353 0
0.00763173 0.0147825 0
0.00607795 0.0150665 0
0.00624673 0.0150089 0
0.00746295 0.0148402 0
0.00729385 0.0148979 0
0.00974791 0.014487 0
0.00688297 0.0149754 0
0.00852088 0.0146925 0
0.00831544 0.0147312 0
0.00708841 0.0149367 0
0.00729417 0.0148979 0
0.0069484 0.0149754 0
0.00486172 0.0152437 0
0.00712129 0.0149367 0
0.00590506 0.0151095 0
0.00607795 0.0150708 0
0.00508876 0.0150576 0
0.00532907 0.0148475 0
0.00765535 0.0148173 0
0.00520892 0.0149525 0
0.00649221 0.0148324 0
0.00637205 0.0149374 0
0.00508876 0.0150578 0
0.00765535 0.0148062 0
0.00483709 0.0152107 0
0.00637205 0.014932 0
0.00624622 0.0150084 0
0.00496293 0.0151343 0
0.0050893 0.0150576 0
0.00254527 0.0152485 0
0.00528022 0.0148475 0
0.00381729 0.015153 0
0.00391274 0.015048 0
0.00518476 0.0149525 0
0.0050893 0.0150578 0
0.00489134 0.0152107 0
0.00254527 0.0152558 0
0.00499032 0.0151343 0
0.0037183 0.0152332 0
0.00381729 0.0151568 0
0.013842 0.0131469 0
0.0130573 0.0131193 0
0.0115404 0.0139316 0
0.0134496 0.0131331 0
0.0122988 0.0135255 0
0.0126912 0.0135393 0
0.013842 0.013147 0
0.0115404 0.0139255 0
0.0146205 0.013167 0
0.0126912 0.0135363 0
0.0130805 0.0135463 0
0.0142313 0.013157 0
0.0138422 0.0131469 0
0.0161479 0.0122877 0
0.012983 0.0131193 0
0.014995 0.0127173 0
0.0145654 0.0127035 0
0.0134126 0.0131331 0
0.0138422 0.013147 0
0.0146965 0.013167 0
0.0161479 0.0122926 0
0.0142693 0.013157 0
0.0154222 0.0127298 0
0.014995 0.0127198 0
0.00921819 0.0145053 0
0.00978933 0.0144573 0
0.0115396 0.0139341 0
0.00950376 0.0144813 0
0.0106644 0.0141957 0
0.0103789 0.0142197 0
0.00921819 0.0145053 0
0.0115396 0.0139259 0
0.00863876 0.0145316 0
0.0103789 0.0142156 0
0.0100892 0.0142288 0
0.00892847 0.0145185 0
0.00921831 0.0145053 0
0.00691265 0.0150051 0
0.00971813 0.0144573 0
0.00806548 0.0147552 0
0.00831539 0.0147312 0
0.00946822 0.0144813 0
0.00921831 0.0145053 0
0.00871114 0.0145316 0
0.00691265 0.0150125 0
0.00896473 0.0145185 0
0.0078119 0.0147721 0
0.00806548 0.0147589 0
0.0108402 0.0138995 0
0.0115802 0.0138918 0
0.0130171 0.0131595 0
0.0112102 0.0138957 0
0.0122987 0.0135257 0
0.0119286 0.0135295 0
0.0108402 0.0138995 0
0.00867192 0.0145648 0
0.0115055 0.0138918 0
0.00975605 0.0142322 0
0.0100887 0.0142283 0
0.0111728 0.0138957 0
0.0108402 0.0138995 0
0.0130171 0.0131543 0
0.010095 0.0138971 0
0.0119286 0.0135269 0
0.011556 0.0135257 0
0.0104676 0.0138983 0
0.0108402 0.0138995 0
0.0101694 0.0138971 0
0.00867192 0.0145703 0
0.0105048 0.0138983 0
0.00942068 0.0142337 0
0.00975605 0.0142349 0
0.0151705 0.0122129 0
0.0130173 0.0131536 0
0.0161112 0.0122511 0
0.0140939 0.0126832 0
0.0145643 0.0127024 0
0.0156408 0.012232 0
0.0151707 0.0122129 0
0.0161837 0.0122511 0
0.0173166 0.0111999 0
0.0156772 0.012232 0
0.0167501 0.0117255 0
0.0162436 0.0117064 0
0.0151705 0.0122127 0
0.0142275 0.0121743 0
0.0130173 0.0131557 0
0.014699 0.0121935 0
0.0136224 0.012665 0
0.0140939 0.0126842 0
0.0151707 0.0122127 0
0.0173166 0.0111997 0
0.0141576 0.0121743 0
0.0162436 0.0117062 0
0.0157371 0.011687 0
0.0146642 0.0121935 0
-3.04353e-07 0.0152762 0
0.00254272 0.015251 0
-2.54708e-05 0.0154566 0
0.00127121 0.0152636 0
0.00125863 0.0153538 0
-1.28876e-05 0.0153664 0
-3.04353e-07 0.0152759 0
2.24274e-05 0.0150337 0
0.00254272 0.0152531 0
1.10615e-05 0.0151548 0
0.00128258 0.0151434 0
0.00127121 0.0152645 0
3.04323e-07 0.0152762 0
2.54708e-05 0.0154566 0
-0.00254272 0.015251 0
1.28876e-05 0.0153664 0
-0.00125863 0.0153538 0
-0.00127121 0.0152636 0
3.04323e-07 0.0152759 0
-0.00254272 0.0152531 0
-2.24274e-05 0.0150337 0
-0.00127121 0.0152645 0
-0.00128258 0.0151434 0
-1.10616e-05 0.0151548 0
0.00242621 0.0153911 0
1.0572e-06 0.0154831 0
0.00251819 0.0152265 0
0.00121363 0.0154371 0
0.00125962 0.0153548 0
0.0024722 0.0153088 0
0.00242575 0.0153911 0
0.00257459 0.0152265 0
0.00485972 0.0152423 0
0.00250017 0.0153088 0
0.00371716 0.0152344 0
0.00364274 0.0153167 0
0.00242621 0.0153914 0
0.00233241 0.0155102 0
1.0572e-06 0.0154852 0
0.00237931 0.0154508 0
0.00116673 0.0154977 0
0.00121363 0.0154383 0
0.00242575 0.0153914 0
0.00485972 0.015237 0
0.0022714 0.0155102 0
0.00364274 0.0153142 0
0.00356556 0.0153736 0
0.00234857 0.0154508 0
-0.00242621 0.0153911 0
-0.00251819 0.0152265 0
-1.05724e-06 0.0154831 0
-0.0024722 0.0153088 0
-0.00125962 0.0153548 0
-0.00121363 0.0154371 0
-0.00242575 0.0153911 0
-0.00485972 0.0152423 0
-0.00257459 0.0152265 0
-0.00364274 0.0153167 0
-0.00371716 0.0152344 0
-0.00250017 0.0153088 0
-0.00242621 0.0153914 0
-1.05724e-06 0.0154852 0
-0.00233241 0.0155102 0
-0.00121363 0.0154383 0
-0.00116673 0.0154977 0
-0.00237931 0.0154508 0
-0.00242575 0.0153914 0
-0.0022714 0.0155102 0
-0.00485972 0.015237 0
-0.00234857 0.0154508 0
-0.00356556 0.0153736 0
-0.00364274 0.0153142 0
-0.0050893 0.0150576 0
-0.00528022 0.0148475 0
-0.00254527 0.0152485 0
-0.00518476 0.0149525 0
-0.00391274 0.015048 0
-0.00381729 0.015153 0
-0.0050893 0.0150578 0
-0.00254527 0.0152558 0
-0.00489134 0.0152107 0
-0.00381729 0.0151568 0
-0.0037183 0.0152332 0
-0.00499032 0.0151343 0
-0.00508876 0.0150576 0
-0.00765535 0.0148173 0
-0.00532907 0.0148475 0
-0.00637205 0.0149374 0
-0.00649221 0.0148324 0
-0.00520892 0.0149525 0
-0.00508876 0.0150578 0
-0.00483709 0.0152107 0
-0.00765535 0.0148062 0
-0.00496293 0.0151343 0
-0.00624622 0.0150084 0
-0.00637205 0.014932 0
0.00460013 0.0153097 0
0.00691125 0.0150062 0
0.00429667 0.0153796 0
0.00575569 0.015158 0
0.00560396 0.0151929 0
0.0044484 0.0153447 0
0.00460013 0.0153096 0
0.00489714 0.0152083 0
0.00691125 0.0150125 0
0.00474864 0.0152589 0
0.0059042 0.0151104 0
0.00575569 0.015161 0
0.00460043 0.0153097 0
0.0043659 0.0153796 0
0.00230129 0.0155442 0
0.00448317 0.0153447 0
0.0033336 0.0154619 0
0.00345086 0.015427 0
0.00460043 0.0153096 0
0.00230129 0.0155401 0
0.00483097 0.0152083 0
0.00345086 0.0154248 0
0.00356613 0.0153742 0
0.0047157 0.0152589 0
0.00649467 0.0150287 0
0.00432967 0.0154126 0
0.00687859 0.0149736 0
0.00541217 0.0152207 0
0.00560413 0.0151931 0
0.00668663 0.0150011 0
0.00649451 0.0150287 0
0.00695154 0.0149736 0
0.0086711 0.0145717 0
0.00672302 0.0150011 0
0.00781132 0.0147726 0
0.00758281 0.0148002 0
0.00649467 0.0150288 0
0.00610614 0.0150646 0
0.00432967 0.0154173 0
0.00630041 0.0150467 0
0.0052179 0.015241 0
0.00541217 0.0152231 0
0.00649451 0.0150288 0
0.0086711 0.0145658 0
0.00603155 0.0150646 0
0.00758281 0.0147973 0
0.00735133 0.0148152 0
0.00626303 0.0150467 0
-1.83958e-07 0.0155753 0
3.20965e-05 0.0154541 0
0.00229964 0.015543 0
1.59563e-05 0.0155147 0
0.00116587 0.0154986 0
0.00114973 0.0155591 0
-1.83958e-07 0.0155754 0
0.00229964 0.0155417 0
-3.3936e-05 0.0156618 0
0.00114973 0.0155586 0
0.00113285 0.0156017 0
-1.706e-05 0.0156186 0
1.83927e-07 0.0155753 0
-0.00229964 0.015543 0
-3.20966e-05 0.0154541 0
-0.00114973 0.0155591 0
-0.00116587 0.0154986 0
-1.59563e-05 0.0155147 0
1.83927e-07 0.0155754 0
3.3936e-05 0.0156618 0
-0.00229964 0.0155417 0
1.70599e-05 0.0156186 0
-0.00113285 0.0156017 0
-0.00114973 0.0155586 0
0.00216194 0.0155924 0
0.00233728 0.0155082 0
0.0043285 0.015417 0
0.00224961 0.0155503 0
0.00333289 0.0154626 0
0.00324522 0.0155047 0
0.0021622 0.0155924 0
6.37869e-07 0.0156964 0
0.0022662 0.0155082 0
0.00108142 0.0156444 0
0.00113342 0.0156023 0
0.0022142 0.0155503 0
0.00216194 0.0155925 0
0.0043285 0.015414 0
0.00198342 0.0156519 0
0.00324522 0.0155032 0
0.00315596 0.015533 0
0.00207268 0.0156222 0
0.0021622 0.0155925 0
0.00205716 0.0156519 0
6.37869e-07 0.0156975 0
0.00210968 0.0156222 0
0.0010289 0.0156747 0
0.00108142 0.015645 0
-1.05767e-07 0.0157283 0
0.00201887 0.0156895 0
-3.89436e-05 0.0157778 0
0.00100938 0.0157089 0
0.000989961 0.0157337 0
-1.95247e-05 0.0157531 0
-1.05767e-07 0.0157282 0
3.7886e-05 0.0156603 0
0.00201887 0.0156902 0
1.88901e-05 0.0156943 0
0.00102838 0.0156753 0
0.00100938 0.0157092 0
1.05738e-07 0.0157283 0
3.89435e-05 0.0157778 0
-0.00201887 0.0156895 0
1.95246e-05 0.0157531 0
-0.000989961 0.0157337 0
-0.00100938 0.0157089 0
1.05738e-07 0.0157282 0
-0.00201887 0.0156902 0
-3.7886e-05 0.0156603 0
-0.00100938 0.0157092 0
-0.00102838 0.0156753 0
-1.88902e-05 0.0156943 0
0.00186939 0.0157061 0
2.84545e-07 0.0158171 0
0.0019803 0.0156509 0
0.000934835 0.0157616 0
0.000990292 0.015734 0
0.00192484 0.0156785 0
0.00186923 0.0157061 0
0.00205964 0.0156509 0
0.00374219 0.0155157 0
0.00196444 0.0156785 0
0.00290092 0.0155833 0
0.00280571 0.0156109 0
0.00186939 0.0157062 0
0.00175768 0.015748 0
2.84545e-07 0.0158179 0
0.00181353 0.0157271 0
0.000878982 0.015783 0
0.000934835 0.0157621 0
0.00186923 0.0157062 0
0.00374219 0.0155138 0
0.00167681 0.015748 0
0.00280571 0.01561 0
0.0027095 0.0156309 0
0.00177302 0.0157271 0
0.0040391 0.0154346 0
0.00201975 0.0156883 0
0.00429273 0.0153782 0
0.00302942 0.0155615 0
0.00315624 0.0155332 0
0.00416592 0.0154064 0
0.0040391 0.0154347 0
0.00378301 0.0154749 0
0.00201975 0.0156908 0
0.00391105 0.0154548 0
0.00290138 0.0155829 0
0.00302942 0.0155628 0
0.00403893 0.0154346 0
0.00436879 0.0153782 0
0.00606593 0.0151048 0
0.00420386 0.0154064 0
0.00521736 0.0152415 0
0.00505243 0.0152697 0
0.00403893 0.0154347 0
0.00606593 0.015101 0
0.00370524 0.0154749 0
0.00505243 0.0152679 0
0.00488558 0.015288 0
0.00387208 0.0154548 0
-0.00216194 0.0155925 0
-0.00198342 0.0156519 0
-0.0043285 0.015414 0
-0.00207268 0.0156222 0
-0.00315596 0.015533 0
-0.00324522 0.0155032 0
-0.0021622 0.0155925 0
-6.37903e-07 0.0156975 0
-0.00205716 0.0156519 0
-0.00108142 0.015645 0
-0.0010289 0.0156747 0
-0.00210968 0.0156222 0
-0.00216194 0.0155924 0
-0.0043285 0.015417 0
-0.00233728 0.0155082 0
-0.00324522 0.0155047 0
-0.00333289 0.0154626 0
-0.00224961 0.0155503 0
-0.0021622 0.0155924 0
-0.0022662 0.0155082 0
-6.37903e-07 0.0156964 0
-0.0022142 0.0155503 0
-0.00113342 0.0156023 0
-0.00108142 0.0156444 0
-0.00186939 0.0157061 0
-0.0019803 0.0156509 0
-2.84579e-07 0.0158171 0
-0.00192484 0.0156785 0
-0.000990292 0.015734 0
-0.000934835 0.0157616 0
-0.00186923 0.0157061 0
-0.00374219 0.0155157 0
-0.00205964 0.0156509 0
-0.00280571 0.0156109 0
-0.00290092 0.0155833 0
-0.00196444 0.0156785 0
-0.00186939 0.0157062 0
-2.84579e-07 0.0158179 0
-0.00175768 0.015748 0
-0.000934835 0.0157621 0
-0.000878982 0.015783 0
-0.00181353 0.0157271 0
-0.00186923 0.0157062 0
-0.00167681 0.015748 0
-0.00374219 0.0155138 0
-0.00177302 0.0157271 0
-0.0027095 0.0156309 0
-0.00280571 0.01561 0
-0.0040391 0.0154346 0
-0.00429273 0.0153782 0
-0.00201975 0.0156883 0
-0.00416592 0.0154064 0
-0.00315624 0.0155332 0
-0.00302942 0.0155615 0
-0.0040391 0.0154347 0
-0.00201975 0.0156908 0
-0.00378301 0.0154749 0
-0.00302942 0.0155628 0
-0.00290138 0.0155829 0
-0.00391105 0.0154548 0
-0.00403893 0.0154346 0
-0.00606593 0.0151048 0
-0.00436879 0.0153782 0
-0.00505243 0.0152697 0
-0.00521736 0.0152415 0
-0.00420386 0.0154064 0
-0.00403893 0.0154347 0
-0.00370524 0.0154749 0
-0.00606593 0.015101 0
-0.00387208 0.0154548 0
-0.00488558 0.015288 0
-0.00505243 0.0152679 0
-0.00460043 0.0153097 0
-0.00230129 0.0155442 0
-0.0043659 0.0153796 0
-0.00345086 0.015427 0
-0.0033336 0.0154619 0
-0.00448317 0.0153447 0
-0.00460043 0.0153096 0
-0.00483097 0.0152083 0
-0.00230129 0.0155401 0
-0.0047157 0.0152589 0
-0.00356613 0.0153742 0
-0.00345086 0.0154248 0
-0.00460013 0.0153097 0
-0.00429667 0.0153796 0
-0.00691125 0.0150062 0
-0.0044484 0.0153447 0
-0.00560396 0.0151929 0
-0.00575569 0.015158 0
-0.00460013 0.0153096 0
-0.00691125 0.0150125 0
-0.00489714 0.0152083 0
-0.00575569 0.015161 0
-0.0059042 0.0151104 0
-0.00474864 0.0152589 0
0.00561843 0.0151023 0
0.00610709 0.0150637 0
0.00750397 0.0146137 0
0.00586276 0.015083 0
0.00680553 0.0148387 0
0.0065612 0.014858 0
0.00561853 0.0151023 0
0.0037427 0.0155124 0
0.00602856 0.0150637 0
0.00468061 0.0153074 0
0.00488563 0.015288 0
0.00582355 0.015083 0
0.00561843 0.0151024 0
0.00750397 0.0146097 0
0.00512576 0.015131 0
0.0065612 0.0148561 0
0.00631486 0.0148704 0
0.00537209 0.0151167 0
0.00561853 0.0151024 0
0.00520526 0.015131 0
0.0037427 0.0155157 0
0.00541189 0.0151167 0
0.00447398 0.0153233 0
0.00468061 0.015309 0
0.0080927 0.0145567 0
0.00754525 0.0145724 0
0.00606664 0.0151041 0
0.00781898 0.0145645 0
0.00680595 0.0148383 0
0.00707967 0.0148304 0
0.0080927 0.0145566 0
0.00606664 0.0150997 0
0.00863573 0.0145305 0
0.00707967 0.0148282 0
0.00735118 0.0148151 0
0.00836421 0.0145436 0
0.00809265 0.0145567 0
0.0101289 0.0139327 0
0.00746869 0.0145724 0
0.00911079 0.0142447 0
0.00879881 0.0142526 0
0.00778067 0.0145645 0
0.00809265 0.0145566 0
0.00871172 0.0145305 0
0.0101289 0.0139376 0
0.00840218 0.0145436 0
0.00942033 0.014234 0
0.00911079 0.0142471 0
0.00343612 0.0155212 0
0.0031675 0.0155581 0
0.00171655 0.0157898 0
0.00330181 0.0155396 0
0.00244203 0.015674 0
0.00257634 0.0156555 0
0.00343612 0.0155211 0
0.00171655 0.0157878 0
0.00370276 0.0154744 0
0.00257634 0.0156545 0
0.00270966 0.0156311 0
0.00356944 0.0154978 0
0.00343602 0.0155212 0
0.00516313 0.0151704 0
0.00308524 0.0155581 0
0.00429957 0.0153458 0
0.00412418 0.0153643 0
0.00326063 0.0155396 0
0.00343602 0.0155211 0
0.003784 0.0154744 0
0.00516313 0.0151732 0
0.00361001 0.0154978 0
0.00447356 0.0153238 0
0.00429957 0.0153471 0
-5.86304e-08 0.0158304 0
4.09642e-05 0.0157772 0
0.00171631 0.0157894 0
2.04528e-05 0.0158038 0
0.000878639 0.0157833 0
0.000858127 0.0158099 0
-5.86304e-08 0.0158305 0
0.00171631 0.015789 0
-4.15504e-05 0.0158723 0
0.000858127 0.0158097 0
0.000837381 0.0158306 0
-2.08045e-05 0.0158514 0
5.86004e-08 0.0158304 0
-0.00171631 0.0157894 0
-4.09642e-05 0.0157772 0
-0.000858127 0.0158099 0
-0.000878639 0.0157833 0
-2.04528e-05 0.0158038 0
5.86004e-08 0.0158305 0
4.15503e-05 0.0158723 0
-0.00171631 0.015789 0
2.08045e-05 0.0158514 0
-0.000837381 0.0158306 0
-0.000858127 0.0158097 0
0.00156029 0.0157989 0
0.00175848 0.0157479 0
0.00312486 0.0156007 0
0.00165938 0.0157734 0
0.00244167 0.0156743 0
0.00234258 0.0156998 0
0.00156037 0.0157989 0
-3.56358e-08 0.0159138 0
0.00167521 0.0157479 0
0.000780168 0.0158563 0
0.000837589 0.0158308 0
0.00161779 0.0157734 0
0.00156029 0.015799 0
0.00312486 0.0155993 0
0.00136067 0.0158393 0
0.00234258 0.0156992 0
0.00224276 0.0157193 0
0.00146048 0.0158191 0
0.00156037 0.015799 0
0.00144472 0.0158393 0
-3.56358e-08 0.0159146 0
0.00150254 0.0158191 0
0.00072234 0.015877 0
0.000780168 0.0158568 0
0.00689897 0.0146014 0
0.00516332 0.0151686 0
0.0074662 0.014572 0
0.00603115 0.014885 0
0.00631476 0.0148703 0
0.00718258 0.0145867 0
0.00689897 0.0146014 0
0.00632787 0.0146249 0
0.00516332 0.0151725 0
0.00661342 0.0146131 0
0.0057456 0.0148987 0
0.00603115 0.0148869 0
0.00689891 0.0146014 0
0.00754458 0.014572 0
0.00864743 0.0139557 0
0.00722174 0.0145867 0
0.008096 0.0142638 0
0.00777317 0.0142785 0
0.00689891 0.0146014 0
0.00864743 0.0139514 0
0.00624891 0.0146249 0
0.00777317 0.0142764 0
0.00744817 0.0142881 0
0.00657391 0.0146131 0
0.00469912 0.0151732 0
0.0031248 0.0155977 0
0.00512361 0.0151309 0
0.00391196 0.0153854 0
0.0041242 0.0153643 0
0.00491137 0.015152 0
0.00469905 0.0151732 0
0.00520492 0.0151309 0
0.00628541 0.0146673 0
0.00495199 0.015152 0
0.00574516 0.0148991 0
0.00549223 0.0149203 0
0.00469912 0.0151732 0
0.00427166 0.0152077 0
0.0031248 0.0156007 0
0.00448539 0.0151905 0
0.00369823 0.0154042 0
0.00391196 0.015387 0
0.00469905 0.0151732 0
0.00628541 0.0146638 0
0.00418962 0.0152077 0
0.00549223 0.0149185 0
0.00523752 0.0149357 0
0.00444434 0.0151905 0
0.00939266 0.013908 0
0.00750431 0.014608 0
0.0100927 0.0138965 0
0.00844848 0.014258 0
0.00879849 0.0142522 0
0.00974267 0.0139022 0
0.00939266 0.013908 0
0.0101679 0.0138965 0
0.0112915 0.0131327 0
0.00978029 0.0139022 0
0.0107297 0.0135146 0
0.0103421 0.0135204 0
0.00939266 0.013908 0
0.00868844 0.0139147 0
0.00750431 0.0146122 0
0.00904055 0.0139113 0
0.00809637 0.0142635 0
0.00844848 0.0142601 0
0.00939266 0.013908 0
0.0112915 0.0131285 0
0.00861317 0.0139147 0
0.0103421 0.0135183 0
0.00995232 0.0135216 0
0.00900292 0.0139113 0
0.0121578 0.0131078 0
0.0101293 0.0139314 0
0.0129814 0.0131186 0
0.0111436 0.0135196 0
0.0115554 0.013525 0
0.0125696 0.0131132 0
0.0121578 0.0131078 0
0.0113305 0.0130937 0
0.0101293 0.0139351 0
0.0117442 0.0131007 0
0.0107299 0.0135144 0
0.0111436 0.0135214 0
0.0121579 0.0131078 0
0.0130544 0.0131186 0
0.0141905 0.0122114 0
0.0126062 0.0131132 0
0.0136224 0.012665 0
0.0131742 0.0126596 0
0.0121579 0.0131078 0
0.0141905 0.0122084 0
0.0112586 0.0130937 0
0.0131742 0.0126581 0
0.0127245 0.012651 0
0.0117083 0.0131007 0
-0.00729385 0.0148979 0
-0.00688297 0.0149754 0
-0.00974791 0.014487 0
-0.00708841 0.0149367 0
-0.00831544 0.0147312 0
-0.00852088 0.0146925 0
-0.00729417 0.0148979 0
-0.00486172 0.0152437 0
-0.0069484 0.0149754 0
-0.00607795 0.0150708 0
-0.00590506 0.0151095 0
-0.00712129 0.0149367 0
-0.00729385 0.0148978 0
-0.00974791 0.0144977 0
-0.00769396 0.0147825 0
-0.00852088 0.0146977 0
-0.00872093 0.0146401 0
-0.0074939 0.0148402 0
-0.00729417 0.0148978 0
-0.00763173 0.0147825 0
-0.00486172 0.0152353 0
-0.00746295 0.0148402 0
-0.00624673 0.0150089 0
-0.00607795 0.0150665 0
-0.00921831 0.0145053 0
-0.00971813 0.0144573 0
-0.00691265 0.0150051 0
-0.00946822 0.0144813 0
-0.00831539 0.0147312 0
-0.00806548 0.0147552 0
-0.00921831 0.0145053 0
-0.00691265 0.0150125 0
-0.00871114 0.0145316 0
-0.00806548 0.0147589 0
-0.0078119 0.0147721 0
-0.00896473 0.0145185 0
-0.00921819 0.0145053 0
-0.0115396 0.0139341 0
-0.00978933 0.0144573 0
-0.0103789 0.0142197 0
-0.0106644 0.0141957 0
-0.00950376 0.0144813 0
-0.00921819 0.0145053 0
-0.00863876 0.0145316 0
-0.0115396 0.0139259 0
-0.00892847 0.0145185 0
-0.0100892 0.0142288 0
-0.0103789 0.0142156 0
-0.00649467 0.0150287 0
-0.00687859 0.0149736 0
-0.00432967 0.0154126 0
-0.00668663 0.0150011 0
-0.00560413 0.0151931 0
-0.00541217 0.0152207 0
-0.00649451 0.0150287 0
-0.0086711 0.0145717 0
-0.00695154 0.0149736 0
-0.00758281 0.0148002 0
-0.00781132 0.0147726 0
-0.00672302 0.0150011 0
-0.00649467 0.0150288 0
-0.00432967 0.0154173 0
-0.00610614 0.0150646 0
-0.00541217 0.0152231 0
-0.0052179 0.015241 0
-0.00630041 0.0150467 0
-0.00649451 0.0150288 0
-0.00603155 0.0150646 0
-0.0086711 0.0145658 0
-0.00626303 0.0150467 0
-0.00735133 0.0148152 0
-0.00758281 0.0147973 0
-0.0102224 0.0143825 0
-0.00765771 0.0148188 0
-0.00978611 0.0144595 0
-0.00894004 0.0146007 0
-0.00872191 0.0146391 0
-0.0100042 0.014421 0
-0.0102224 0.0143824 0
-0.0106447 0.0142624 0
-0.00765771 0.0148047 0
-0.0104335 0.0143224 0
-0.0091512 0.0145335 0
-0.00894004 0.0145935 0
-0.0102221 0.0143825 0
-0.00972255 0.0144595 0
-0.012821 0.013883 0
-0.0099723 0.014421 0
-0.0112718 0.0141712 0
-0.0115216 0.0141328 0
-0.0102221 0.0143824 0
-0.012821 0.0138993 0
-0.0107052 0.0142624 0
-0.0115216 0.0141408 0
-0.0117631 0.0140808 0
-0.0104636 0.0143224 0
-0.00561843 0.0151023 0
-0.00750397 0.0146137 0
-0.00610709 0.0150637 0
-0.0065612 0.014858 0
-0.00680553 0.0148387 0
-0.00586276 0.015083 0
-0.00561853 0.0151023 0
-0.00602856 0.0150637 0
-0.0037427 0.0155124 0
-0.00582355 0.015083 0
-0.00488563 0.015288 0
-0.00468061 0.0153074 0
-0.00561843 0.0151024 0
-0.00512576 0.015131 0
-0.00750397 0.0146097 0
-0.00537209 0.0151167 0
-0.00631486 0.0148704 0
-0.0065612 0.0148561 0
-0.00561853 0.0151024 0
-0.0037427 0.0155157 0
-0.00520526 0.015131 0
-0.00468061 0.015309 0
-0.00447398 0.0153233 0
-0.00541189 0.0151167 0
-0.0080927 0.0145567 0
-0.00606664 0.0151041 0
-0.00754525 0.0145724 0
-0.00707967 0.0148304 0
-0.00680595 0.0148383 0
-0.00781898 0.0145645 0
-0.0080927 0.0145566 0
-0.00863573 0.0145305 0
-0.00606664 0.0150997 0
-0.00836421 0.0145436 0
-0.00735118 0.0148151 0
-0.00707967 0.0148282 0
-0.00809265 0.0145567 0
-0.00746869 0.0145724 0
-0.0101289 0.0139327 0
-0.00778067 0.0145645 0
-0.00879882 0.0142526 0
-0.00911079 0.0142447 0
-0.00809265 0.0145566 0
-0.0101289 0.0139376 0
-0.00871172 0.0145305 0
-0.00911079 0.0142471 0
-0.00942033 0.014234 0
-0.00840218 0.0145436 0
-0.00343612 0.0155212 0
-0.00171655 0.0157898 0
-0.0031675 0.0155581 0
-0.00257634 0.0156555 0
-0.00244203 0.015674 0
-0.00330181 0.0155396 0
-0.00343612 0.0155211 0
-0.00370276 0.0154744 0
-0.00171655 0.0157878 0
-0.00356944 0.0154978 0
-0.00270966 0.0156311 0
-0.00257634 0.0156545 0
-0.00343602 0.0155212 0
-0.00308524 0.0155581 0
-0.00516313 0.0151704 0
-0.00326063 0.0155396 0
-0.00412418 0.0153643 0
-0.00429957 0.0153458 0
-0.00343602 0.0155211 0
-0.00516313 0.0151732 0
-0.003784 0.0154744 0
-0.00429957 0.0153471 0
-0.00447356 0.0153238 0
-0.00361001 0.0154978 0
-0.00156029 0.0157989 0
-0.00312486 0.0156007 0
-0.00175848 0.0157479 0
-0.00234258 0.0156998 0
-0.00244167 0.0156743 0
-0.00165938 0.0157734 0
-0.00156037 0.0157989 0
-0.00167521 0.0157479 0
3.5606e-08 0.0159138 0
-0.00161779 0.0157734 0
-0.000837589 0.0158308 0
-0.000780168 0.0158563 0
-0.00156029 0.015799 0
-0.00136067 0.0158393 0
-0.00312486 0.0155993 0
-0.00146048 0.0158191 0
-0.00224276 0.0157193 0
-0.00234258 0.0156992 0
-0.00156037 0.015799 0
3.5606e-08 0.0159146 0
-0.00144472 0.0158393 0
-0.000780168 0.0158568 0
-0.00072234 0.015877 0
-0.00150254 0.0158191 0
-0.00689897 0.0146014 0
-0.0074662 0.014572 0
-0.00516332 0.0151686 0
-0.00718258 0.0145867 0
-0.00631476 0.0148703 0
-0.00603115 0.014885 0
-0.00689897 0.0146014 0
-0.00516332 0.0151725 0
-0.00632787 0.0146249 0
-0.00603115 0.0148869 0
-0.0057456 0.0148987 0
-0.00661342 0.0146131 0
-0.00689891 0.0146014 0
-0.00864743 0.0139557 0
-0.00754458 0.014572 0
-0.00777317 0.0142785 0
-0.008096 0.0142638 0
-0.00722174 0.0145867 0
-0.00689891 0.0146014 0
-0.00624891 0.0146249 0
-0.00864743 0.0139514 0
-0.00657391 0.0146131 0
-0.00744817 0.0142881 0
-0.00777317 0.0142764 0
-0.00469912 0.0151732 0
-0.00512361 0.0151309 0
-0.0031248 0.0155977 0
-0.00491137 0.015152 0
-0.0041242 0.0153643 0
-0.00391196 0.0153854 0
-0.00469905 0.0151732 0
-0.00628541 0.0146673 0
-0.00520492 0.0151309 0
-0.00549223 0.0149203 0
-0.00574516 0.0148991 0
-0.00495199 0.015152 0
-0.00469912 0.0151732 0
-0.0031248 0.0156007 0
-0.00427166 0.0152077 0
-0.00391196 0.015387 0
-0.00369823 0.0154042 0
-0.00448539 0.0151905 0
-0.00469905 0.0151732 0
-0.00418962 0.0152077 0
-0.00628541 0.0146638 0
-0.00444434 0.0151905 0
-0.00523752 0.0149357 0
-0.00549223 0.0149185 0
-0.0108402 0.0138995 0
-0.0130171 0.0131595 0
-0.0115802 0.0138918 0
-0.0119286 0.0135295 0
-0.0122987 0.0135257 0
-0.0112102 0.0138957 0
-0.0108402 0.0138995 0
-0.0115055 0.0138918 0
-0.00867192 0.0145648 0
-0.0111728 0.0138957 0
-0.0100887 0.0142283 0
-0.00975605 0.0142322 0
-0.0108402 0.0138995 0
-0.010095 0.0138971 0
-0.0130171 0.0131543 0
-0.0104676 0.0138983 0
-0.011556 0.0135257 0
-0.0119286 0.0135269 0
-0.0108402 0.0138995 0
-0.00867192 0.0145703 0
-0.0101694 0.0138971 0
-0.00975605 0.0142349 0
-0.00942068 0.0142337 0
-0.0105048 0.0138983 0
-0.0121922 0.0138853 0
-0.0097495 0.0144971 0
-0.0115805 0.0138932 0
-0.0109709 0.0141912 0
-0.010665 0.0141951 0
-0.0118863 0.0138893 0
-0.0121922 0.0138853 0
-0.011508 0.0138932 0
-0.0146547 0.0132012 0
-0.0118501 0.0138893 0
-0.0130814 0.0135472 0
-0.0134235 0.0135433 0
-0.0121922 0.0138853 0
-0.0127933 0.0138553 0
-0.0097495 0.0144864 0
-0.0124928 0.0138703 0
-0.0112714 0.0141709 0
-0.0109709 0.0141859 0
-0.0121922 0.0138853 0
-0.0146547 0.013212 0
-0.0128655 0.0138553 0
-0.0134235 0.0135487 0
-0.0137601 0.0135337 0
-0.0125288 0.0138703 0
-0.013842 0.0131469 0
-0.0115404 0.0139316 0
-0.0130573 0.0131193 0
-0.0126912 0.0135393 0
-0.0122988 0.0135255 0
-0.0134496 0.0131331 0
-0.013842 0.013147 0
-0.0146205 0.013167 0
-0.0115404 0.0139255 0
-0.0142313 0.013157 0
-0.0130805 0.0135463 0
-0.0126912 0.0135363 0
-0.0138422 0.0131469 0
-0.012983 0.0131193 0
-0.0161479 0.0122877 0
-0.0134126 0.0131331 0
-0.0145654 0.0127035 0
-0.014995 0.0127173 0
-0.0138422 0.013147 0
-0.0161479 0.0122926 0
-0.0146965 0.013167 0
-0.014995 0.0127198 0
-0.0154222 0.0127298 0
-0.0142693 0.013157 0
-0.00939266 0.013908 0
-0.0100927 0.0138965 0
-0.00750431 0.014608 0
-0.00974267 0.0139022 0
-0.00879849 0.0142522 0
-0.00844848 0.014258 0
-0.00939266 0.013908 0
-0.0112915 0.0131327 0
-0.0101679 0.0138965 0
-0.0103421 0.0135204 0
-0.0107297 0.0135146 0
-0.00978029 0.0139022 0
-0.00939266 0.013908 0
-0.00750431 0.0146122 0
-0.00868844 0.0139147 0
-0.00844848 0.0142601 0
-0.00809637 0.0142635 0
-0.00904055 0.0139113 0
-0.00939266 0.013908 0
-0.00861317 0.0139147 0
-0.0112915 0.0131285 0
-0.00900292 0.0139113 0
-0.00995232 0.0135216 0
-0.0103421 0.0135183 0
-0.0121578 0.0131078 0
-0.0129814 0.0131186 0
-0.0101293 0.0139314 0
-0.0125696 0.0131132 0
-0.0115554 0.013525 0
-0.0111436 0.0135196 0
-0.0121578 0.0131078 0
-0.0101293 0.0139351 0
-0.0113305 0.0130937 0
-0.0111436 0.0135214 0
-0.0107299 0.0135144 0
-0.0117442 0.0131007 0
-0.0121579 0.0131078 0
-0.0141905 0.0122114 0
-0.0130544 0.0131186 0
-0.0131742 0.0126596 0
-0.0136224 0.012665 0
-0.0126062 0.0131132 0
-0.0121579 0.0131078 0
-0.0112586 0.0130937 0
-0.0141905 0.0122084 0
-0.0117083 0.0131007 0
-0.0127245 0.012651 0
-0.0131742 0.0126581 0
-0.0133669 0.0137967 0
-0.0127974 0.013858 0
-0.0161187 0.0132272 0
-0.0130822 0.0138273 0
-0.0144581 0.0135426 0
-0.0147428 0.0135119 0
-0.0133672 0.0137967 0
-0.010666 0.0143016 0
-0.0128623 0.013858 0
-0.0120166 0.0140491 0
-0.0117642 0.0140798 0
-0.0131148 0.0138273 0
-0.0133669 0.0137966 0
-0.0161187 0.0132505 0
-0.0139129 0.0136884 0
-0.0147428 0.0135235 0
-0.0150158 0.0134695 0
-0.0136399 0.0137425 0
-0.0133672 0.0137966 0
-0.0138507 0.0136884 0
-0.010666 0.0142801 0
-0.013609 0.0137425 0
-0.0122584 0.0139842 0
-0.0120166 0.0140383 0
-0.0154021 0.0131941 0
-0.0160915 0.0131999 0
-0.0128228 0.0138834 0
-0.0157468 0.013197 0
-0.0144572 0.0135417 0
-0.0141125 0.0135387 0
-0.0154021 0.013194 0
-0.0128228 0.0138979 0
-0.0146982 0.0131686 0
-0.0141125 0.013546 0
-0.0137605 0.0135332 0
-0.0150502 0.0131813 0
-0.0154023 0.0131941 0
-0.018005 0.0124275 0
-0.0161689 0.0131999 0
-0.0167036 0.0128108 0
-0.0170869 0.0128137 0
-0.0157856 0.013197 0
-0.0154023 0.013194 0
-0.0146221 0.0131686 0
-0.018005 0.0124138 0
-0.0150122 0.0131813 0
-0.0163135 0.0127912 0
-0.0167036 0.0128039 0
-0.0167176 0.0131818 0
-0.0138679 0.0137334 0
-0.016166 0.0132033 0
-0.0152928 0.0134576 0
-0.0150169 0.0134683 0
-0.0164418 0.0131925 0
-0.0167176 0.0131817 0
-0.0172384 0.0131111 0
-0.0138679 0.0137025 0
-0.016978 0.0131464 0
-0.0155532 0.0134068 0
-0.0152928 0.0134421 0
-0.0167174 0.0131818 0
-0.016095 0.0132033 0
-0.0196381 0.0125594 0
-0.0164062 0.0131925 0
-0.0178665 0.0128813 0
-0.0181777 0.0128706 0
-0.0167174 0.0131817 0
-0.0196381 0.0125918 0
-0.0173072 0.0131111 0
-0.0181777 0.0128867 0
-0.0184727 0.0128514 0
-0.0170123 0.0131464 0
0.0131884 0.0121587 0
0.0142231 0.0121741 0
0.0150895 0.0111239 0
0.0137057 0.0121664 0
0.0146563 0.011649 0
0.014139 0.0116413 0
0.0131883 0.0121587 0
0.0112915 0.0131266 0
0.0141562 0.0121741 0
0.0122399 0.0126426 0
0.0127239 0.0126504 0
0.0136722 0.0121664 0
0.0131884 0.0121586 0
0.0150895 0.0111217 0
0.0121515 0.0121425 0
0.014139 0.0116402 0
0.0136205 0.0116321 0
0.0126699 0.0121506 0
0.0131883 0.0121586 0
0.0122173 0.0121425 0
0.0112915 0.0131296 0
0.0127028 0.0121506 0
0.0117544 0.012636 0
0.0122399 0.0126441 0
0.0162018 0.0111272 0
0.0151221 0.0110913 0
0.0141904 0.0122069 0
0.015662 0.0111092 0
0.0146563 0.0116491 0
0.0151961 0.011667 0
0.0162018 0.0111273 0
0.0141904 0.0122071 0
0.0172816 0.0111647 0
0.0151961 0.0116672 0
0.015736 0.0116859 0
0.0167417 0.011146 0
0.0162021 0.0111272 0
0.0182026 0.00998621 0
0.0150611 0.0110913 0
0.0172023 0.0105567 0
0.0166318 0.0105388 0
0.0156316 0.0111092 0
0.0162021 0.0111273 0
0.017345 0.0111647 0
0.0182026 0.00998432 0
0.0167736 0.011146 0
0.0177738 0.0105745 0
0.0172023 0.0105558 0
0.010407 0.0130997 0
0.0121807 0.0121745 0
0.0094818 0.0131042 0
0.0112939 0.0126371 0
0.0108313 0.0126394 0
0.00994442 0.013102 0
0.010407 0.0130997 0
0.0113277 0.0130934 0
0.0121807 0.0121791 0
0.0108674 0.0130966 0
0.0117542 0.0126362 0
0.0112939 0.0126394 0
0.010407 0.0130997 0
0.00955311 0.0131042 0
0.00864754 0.0139537 0
0.00998008 0.013102 0
0.00910032 0.0135289 0
0.00952729 0.0135267 0
0.010407 0.0130997 0
0.00864754 0.0139491 0
0.0112564 0.0130934 0
0.00952729 0.0135244 0
0.00995194 0.0135212 0
0.0108317 0.0130966 0
0.0139637 0.0110763 0
0.0121807 0.0121718 0
0.0150591 0.0110913 0
0.0130722 0.011624 0
0.0136199 0.0116315 0
0.0145114 0.0110838 0
0.0139637 0.0110763 0
0.0128644 0.0110608 0
0.0121807 0.0121756 0
0.0134141 0.0110686 0
0.0125226 0.0116182 0
0.0130722 0.0116259 0
0.0139638 0.0110763 0
0.0151173 0.0110913 0
0.0157574 0.00992285 0
0.0145405 0.0110838 0
0.0154373 0.0105071 0
0.0148606 0.0104996 0
0.0139638 0.0110763 0
0.0157574 0.00991952 0
0.012807 0.0110608 0
0.0148606 0.0104979 0
0.0142822 0.0104902 0
0.0133854 0.0110686 0
0.0111607 0.0121477 0
0.00951323 0.0131356 0
0.0121487 0.0121424 0
0.010337 0.0126417 0
0.0108309 0.012639 0
0.0116547 0.0121451 0
0.0111607 0.0121477 0
0.0122139 0.0121424 0
0.0128307 0.0110945 0
0.0116873 0.0121451 0
0.0125223 0.0116185 0
0.0119957 0.0116211 0
0.0111607 0.0121477 0
0.0101667 0.0121526 0
0.00951323 0.0131417 0
0.0106637 0.0121501 0
0.00983998 0.0126471 0
0.010337 0.0126447 0
0.0111607 0.0121477 0
0.0128307 0.0110882 0
0.0101012 0.0121526 0
0.0119957 0.011618 0
0.011466 0.0116204 0
0.010631 0.0121501 0
0.00788999 0.0139408 0
0.00868662 0.0139146 0
0.0095132 0.0131441 0
0.00828831 0.0139277 0
0.00909991 0.0135294 0
0.0087016 0.0135424 0
0.00789005 0.0139408 0
0.00628538 0.0146613 0
0.00861062 0.0139146 0
0.00708772 0.014301 0
0.007448 0.014288 0
0.00825033 0.0139277 0
0.00788999 0.0139408 0
0.0095132 0.0131388 0
0.00708805 0.0139634 0
0.0087016 0.0135398 0
0.00830062 0.0135511 0
0.00748902 0.0139521 0
0.00789005 0.0139408 0
0.00716464 0.0139634 0
0.00628538 0.0146662 0
0.00752735 0.0139521 0
0.00672501 0.0143148 0
0.00708772 0.0143035 0
0.016979 0.00992578 0
0.0150893 0.0111195 0
0.0181727 0.00995633 0
0.0160341 0.0105226 0
0.016631 0.0105379 0
0.0175758 0.00994106 0
0.0169791 0.00992578 0
0.0182242 0.00995633 0
0.0188619 0.0086807 0
0.0176017 0.00994106 0
0.0185431 0.00931851 0
0.0179205 0.00930324 0
0.016979 0.0099257 0
0.0157854 0.00989492 0
0.0150893 0.0111193 0
0.0163822 0.00991031 0
0.0154373 0.0105071 0
0.0160341 0.0105225 0
0.0169791 0.0099257 0
0.0188619 0.00868212 0
0.0157356 0.00989492 0
0.0179205 0.00930391 0
0.0172988 0.00928852 0
0.0163573 0.00991031 0
0.0201654 0.00869707 0
0.018202 0.00998426 0
0.0214525 0.00873644 0
0.0191837 0.00934067 0
0.0198273 0.00936035 0
0.020809 0.00871675 0
0.0201654 0.00869695 0
0.0188837 0.0086589 0
0.018202 0.00997857 0
0.0195245 0.00867793 0
0.0185429 0.00931874 0
0.0191837 0.00933776 0
0.0201656 0.00869707 0
0.0214978 0.00873644 0
0.0221007 0.00736483 0
0.0208317 0.00871675 0
0.0217993 0.00805063 0
0.0211332 0.00803095 0
0.0201656 0.00869695 0
0.0221007 0.0073722 0
0.0188408 0.0086589 0
0.0211332 0.00803458 0
0.0204708 0.00801555 0
0.0195032 0.00867793 0
0.00566629 0.014666 0
0.00508188 0.0147 0
0.00422823 0.0152504 0
0.00537409 0.014683 0
0.00465506 0.0149752 0
0.00494726 0.0149582 0
0.00566629 0.0146659 0
0.00422823 0.0152463 0
0.00624667 0.0146251 0
0.00494726 0.0149561 0
0.00523745 0.0149357 0
0.00595648 0.0146455 0
0.00566622 0.014666 0
0.00712244 0.0140011 0
0.00500131 0.0147 0
0.00639433 0.0143335 0
0.00606188 0.0143506 0
0.00533376 0.014683 0
0.00566622 0.0146659 0
0.00632652 0.0146251 0
0.00712244 0.0140056 0
0.00599637 0.0146455 0
0.00672448 0.0143153 0
0.00639433 0.0143358 0
0.00375831 0.0152551 0
0.00427026 0.0152083 0
0.00503881 0.0147431 0
0.00401429 0.0152317 0
0.00465454 0.0149757 0
0.00439856 0.0149991 0
0.00375834 0.0152551 0
0.0024922 0.015685 0
0.00418829 0.0152083 0
0.00312527 0.01547 0
0.00334025 0.0154467 0
0.00397332 0.0152317 0
0.00375831 0.0152551 0
0.00503881 0.0147402 0
0.00324338 0.0152892 0
0.00439856 0.0149976 0
0.0041411 0.0150147 0
0.00350085 0.0152721 0
0.00375834 0.0152551 0
0.00332571 0.0152892 0
0.0024922 0.0156877 0
0.00354203 0.0152721 0
0.00290896 0.0154885 0
0.00312527 0.0154714 0
0.00281069 0.0156072 0
0.00316711 0.0155584 0
0.00422854 0.0152508 0
0.0029889 0.0155828 0
0.00369782 0.0154046 0
0.00351962 0.015429 0
0.00281069 0.0156073 0
0.00422854 0.0152486 0
0.00245204 0.0156449 0
0.00351962 0.0154279 0
0.00334029 0.0154467 0
0.00263137 0.0156261 0
0.00281074 0.0156072 0
0.00140177 0.0158804 0
0.00308391 0.0155584 0
0.00210626 0.0157438 0
0.00224284 0.0157194 0
0.00294733 0.0155828 0
0.00281074 0.0156073 0
0.00253572 0.0156449 0
0.00140177 0.0158823 0
0.00267323 0.0156261 0
0.00196874 0.0157636 0
0.00210626 0.0157448 0
0.00635389 0.0140057 0
0.00503833 0.0147371 0
0.00708523 0.0139638 0
0.00569611 0.0143714 0
0.00606178 0.0143505 0
0.00671956 0.0139848 0
0.00635378 0.0140057 0
0.00716268 0.0139638 0
0.00769595 0.0131968 0
0.00675823 0.0139848 0
0.00742932 0.0135803 0
0.00702487 0.0136013 0
0.00635389 0.0140058 0
0.00561724 0.0140416 0
0.00503833 0.0147424 0
0.00598556 0.0140237 0
0.00532778 0.014392 0
0.00569611 0.0143741 0
0.00635378 0.0140058 0
0.00769595 0.0131907 0
0.00553871 0.0140416 0
0.00702487 0.0135982 0
0.00661733 0.0136162 0
0.00594624 0.0140237 0
0.00861143 0.0131305 0
0.00712231 0.0139977 0
0.00947862 0.0131043 0
0.00786687 0.0135641 0
0.00830047 0.013551 0
0.00904502 0.0131174 0
0.00861143 0.0131306 0
0.00773777 0.013155 0
0.00712231 0.0140042 0
0.0081746 0.0131428 0
0.00743004 0.0135796 0
0.00786687 0.0135674 0
0.00861133 0.0131305 0
0.00955071 0.0131043 0
0.0101282 0.0121911 0
0.00908102 0.0131174 0
0.00983944 0.0126477 0
0.00936975 0.0126608 0
0.00861133 0.0131306 0
0.0101282 0.0121839 0
0.0076647 0.013155 0
0.00936975 0.0126572 0
0.00889643 0.0126695 0
0.00813802 0.0131428 0
-1.98956e-08 0.0159239 0
0.00140216 0.0158817 0
-4.22318e-05 0.0159623 0
0.000701072 0.0159028 0
0.000679966 0.015922 0
-2.11258e-05 0.0159431 0
-1.98956e-08 0.0159239 0
4.2033e-05 0.0158726 0
0.00140216 0.0158818 0
2.10065e-05 0.0158982 0
0.000722099 0.0158772 0
0.000701072 0.0159029 0
1.98667e-08 0.0159239 0
4.22318e-05 0.0159623 0
-0.00140216 0.0158817 0
2.11258e-05 0.0159431 0
-0.000679966 0.015922 0
-0.000701072 0.0159028 0
1.98667e-08 0.0159239 0
-0.00140216 0.0158818 0
-4.2033e-05 0.0158726 0
-0.000701072 0.0159029 0
-0.000722099 0.0158772 0
-2.10066e-05 0.0158982 0
0.00124401 0.0158877 0
-3.84097e-07 0.0160042 0
0.0013605 0.01584 0
0.000621815 0.0159459 0
0.00068006 0.0159221 0
0.00130226 0.0158639 0
0.00124402 0.0158877 0
0.001444 0.01584 0
0.0024929 0.0156877 0
0.00134401 0.0158639 0
0.00196845 0.0157639 0
0.00186846 0.0157877 0
0.00124401 0.0158877 0
0.00112668 0.0159187 0
-3.84097e-07 0.016005 0
0.00118535 0.0159032 0
0.000563148 0.0159618 0
0.000621815 0.0159463 0
0.00124402 0.0158877 0
0.0024929 0.0156869 0
0.00104321 0.0159187 0
0.00186846 0.0157873 0
0.00176806 0.0158028 0
0.00114361 0.0159032 0
-0.00124401 0.0158877 0
-0.0013605 0.01584 0
3.84067e-07 0.0160042 0
-0.00130226 0.0158639 0
-0.00068006 0.0159221 0
-0.000621815 0.0159459 0
-0.00124402 0.0158877 0
-0.0024929 0.0156877 0
-0.001444 0.01584 0
-0.00186846 0.0157877 0
-0.00196845 0.0157639 0
-0.00134401 0.0158639 0
-0.00124401 0.0158877 0
3.84067e-07 0.016005 0
-0.00112668 0.0159187 0
-0.000621815 0.0159463 0
-0.000563148 0.0159618 0
-0.00118535 0.0159032 0
-0.00124402 0.0158877 0
-0.00104321 0.0159187 0
-0.0024929 0.0156869 0
-0.00114361 0.0159032 0
-0.00176806 0.0158028 0
-0.00186846 0.0157873 0
-0.00281074 0.0156072 0
-0.00308391 0.0155584 0
-0.00140177 0.0158804 0
-0.00294733 0.0155828 0
-0.00224284 0.0157194 0
-0.00210626 0.0157438 0
-0.00281074 0.0156073 0
-0.00140177 0.0158823 0
-0.00253572 0.0156449 0
-0.00210626 0.0157448 0
-0.00196874 0.0157636 0
-0.00267323 0.0156261 0
-0.00281069 0.0156072 0
-0.00422854 0.0152508 0
-0.00316711 0.0155584 0
-0.00351962 0.015429 0
-0.00369782 0.0154046 0
-0.0029889 0.0155828 0
-0.00281069 0.0156073 0
-0.00245204 0.0156449 0
-0.00422854 0.0152486 0
-0.00263137 0.0156261 0
-0.00334029 0.0154467 0
-0.00351962 0.0154279 0
0.00217916 0.0156863 0
0.00328326 0.0153306 0
0.00182339 0.0157053 0
0.00273121 0.0155085 0
0.00255333 0.015518 0
0.00200127 0.0156958 0
0.00217916 0.0156864 0
0.00253387 0.015646 0
0.00328326 0.0153316 0
0.00235651 0.0156662 0
0.00290857 0.0154888 0
0.00273121 0.015509 0
0.00217912 0.0156863 0
0.00190478 0.0157053 0
0.00108388 0.0159607 0
0.00204195 0.0156958 0
0.00149433 0.015833 0
0.0016315 0.0158235 0
0.00217912 0.0156864 0
0.00108388 0.0159593 0
0.00245209 0.015646 0
0.0016315 0.0158228 0
0.00176799 0.0158027 0
0.0023156 0.0156662 0
0.00441795 0.0147464 0
0.00328229 0.0153281 0
0.00499963 0.014701 0
0.00385012 0.0150373 0
0.00414096 0.0150145 0
0.00470879 0.0147237 0
0.00441795 0.0147464 0
0.00383299 0.0147777 0
0.00328229 0.0153314 0
0.00412547 0.0147621 0
0.00355764 0.0150546 0
0.00385012 0.0150389 0
0.0044179 0.0147464 0
0.00507977 0.014701 0
0.00557433 0.0140845 0
0.00474883 0.0147237 0
0.00532705 0.0143928 0
0.00499612 0.0144155 0
0.0044179 0.0147464 0
0.00557433 0.0140809 0
0.00375236 0.0147777 0
0.00499612 0.0144137 0
0.00466335 0.0144293 0
0.00408513 0.0147621 0
0.00282057 0.0153217 0
0.00186271 0.0157447 0
0.00324348 0.0152908 0
0.00234164 0.0155332 0
0.0025531 0.0155177 0
0.00303202 0.0153063 0
0.00282063 0.0153217 0
0.0033229 0.0152908 0
0.00379126 0.0148195 0
0.00307177 0.0153063 0
0.00355708 0.0150551 0
0.00330595 0.0150706 0
0.00282057 0.0153217 0
0.00239644 0.0153262 0
0.00186271 0.0157458 0
0.00260851 0.015324 0
0.00212958 0.015536 0
0.00234164 0.0155338 0
0.00282063 0.0153217 0
0.00379126 0.0148187 0
0.00231764 0.0153262 0
0.00330595 0.0150702 0
0.00305445 0.0150725 0
0.00256913 0.015324 0
3.42435e-08 0.0160013 0
4.1041e-05 0.0159636 0
0.00108503 0.0159603 0
2.05376e-05 0.0159824 0
0.000563036 0.0159619 0
0.000542533 0.0159808 0
3.42435e-08 0.0160013 0
0.00108503 0.0159605 0
-4.06984e-05 0.0160152 0
0.000542533 0.0159809 0
0.000522167 0.0159879 0
-2.03321e-05 0.0160082 0
-3.42712e-08 0.0160013 0
-0.00108503 0.0159603 0
-4.1041e-05 0.0159636 0
-0.000542533 0.0159808 0
-0.000563036 0.0159619 0
-2.05376e-05 0.0159824 0
-3.42712e-08 0.0160013 0
4.06984e-05 0.0160152 0
-0.00108503 0.0159605 0
2.03321e-05 0.0160082 0
-0.000522167 0.0159879 0
-0.000542533 0.0159809 0
0.000930003 0.01594 0
0.00112411 0.0159204 0
0.00186424 0.0157459 0
0.00102705 0.0159302 0
0.00149417 0.0158332 0
0.00139712 0.0158429 0
0.000929867 0.01594 0
-8.11586e-07 0.016055 0
0.00104493 0.0159204 0
0.000464528 0.0159975 0
0.000522058 0.0159877 0
0.000987397 0.0159302 0
0.000930003 0.0159399 0
0.00186424 0.0157463 0
0.000736359 0.0159268 0
0.00139712 0.0158431 0
0.0013003 0.0158365 0
0.000833181 0.0159334 0
0.000929867 0.0159399 0
0.000814174 0.0159268 0
-8.11586e-07 0.0160556 0
0.00087202 0.0159334 0
0.000406681 0.0159912 0
0.000464528 0.0159978 0
0.0116882 0.0110647 0
0.0105643 0.0110693 0
0.0101283 0.0121885 0
0.0111263 0.011067 0
0.0103463 0.0116289 0
0.0109082 0.0116266 0
0.0116882 0.0110646 0
0.0101283 0.0121796 0
0.0128032 0.0110607 0
0.0109082 0.0116221 0
0.0114657 0.0116202 0
0.0122457 0.0110627 0
0.0116881 0.0110647 0
0.0132835 0.00988228 0
0.0105057 0.0110693 0
0.0124858 0.0104735 0
0.0118946 0.0104758 0
0.0110969 0.011067 0
0.0116881 0.0110646 0
0.0128609 0.0110607 0
0.0132835 0.00989177 0
0.0122745 0.0110627 0
0.0130722 0.0104762 0
0.0124858 0.0104782 0
0.00909074 0.0121802 0
0.0101642 0.0121526 0
0.0105269 0.0111068 0
0.00962747 0.0121664 0
0.0103455 0.0116297 0
0.00980881 0.0116435 0
0.00909092 0.0121802 0
0.00769585 0.0131862 0
0.0100968 0.0121526 0
0.00839339 0.0126832 0
0.00889634 0.0126694 0
0.00959387 0.0121664 0
0.00909074 0.0121803 0
0.0105269 0.0110965 0
0.00800688 0.0122085 0
0.00980881 0.0116384 0
0.00926688 0.0116525 0
0.00854881 0.0121944 0
0.00909092 0.0121803 0
0.00807601 0.0122085 0
0.00769585 0.0131952 0
0.00858347 0.0121944 0
0.00788593 0.0127018 0
0.00839339 0.0126878 0
0.0145267 0.00987851 0
0.0157807 0.00989488 0
0.0162443 0.00862451 0
0.0151537 0.0098867 0
0.0160125 0.00925969 0
0.0153855 0.00925151 0
0.0145267 0.00987851 0
0.0128308 0.0110846 0
0.0157328 0.00989488 0
0.0136787 0.0104816 0
0.0142818 0.0104898 0
0.0151297 0.0098867 0
0.0145267 0.0098785 0
0.0162443 0.00861851 0
0.0132667 0.00986089 0
0.0153855 0.0092485 0
0.0147555 0.0092397 0
0.0138967 0.00986969 0
0.0145267 0.0098785 0
0.0133143 0.00986089 0
0.0128308 0.0110908 0
0.0139205 0.00986969 0
0.0130726 0.0104759 0
0.0136787 0.0104847 0
0.0175542 0.00863181 0
0.0162677 0.00860106 0
0.0157573 0.0099183 0
0.016911 0.00861643 0
0.0160125 0.00925968 0
0.0166558 0.00927505 0
0.0175542 0.00863187 0
0.0157573 0.00991666 0
0.018839 0.0086592 0
0.0166558 0.00927426 0
0.0172982 0.00928793 0
0.0181966 0.00864553 0
0.0175544 0.00863181 0
0.0193539 0.00730739 0
0.0162299 0.00860106 0
0.0184541 0.0079696 0
0.0177919 0.00795422 0
0.0168921 0.00861643 0
0.0175544 0.00863187 0
0.0188781 0.0086592 0
0.0193539 0.00730816 0
0.0182162 0.00864553 0
0.019116 0.00798368 0
0.0184541 0.00797001 0
0.0120307 0.00985993 0
0.0105273 0.0110909 0
0.0132616 0.00986044 0
0.011279 0.0104754 0
0.0118944 0.0104757 0
0.0126461 0.00986019 0
0.0120305 0.00985993 0
0.013311 0.00986044 0
0.0135867 0.00857948 0
0.0126707 0.00986019 0
0.0134488 0.00921996 0
0.0128086 0.00921971 0
0.0120307 0.00986001 0
0.0107869 0.00986252 0
0.0105273 0.0111038 0
0.0114088 0.00986127 0
0.0106571 0.0104832 0
0.011279 0.0104819 0
0.0120305 0.00986001 0
0.0135867 0.00856554 0
0.010736 0.00986252 0
0.0128086 0.00921277 0
0.0121614 0.00921403 0
0.0113833 0.00986127 0
0.0149255 0.00857692 0
0.0132838 0.00987795 0
0.0162265 0.00860073 0
0.0141046 0.00922744 0
0.0147552 0.00923934 0
0.015576 0.00858882 0
0.0149255 0.00857691 0
0.0136148 0.00855145 0
0.0132838 0.00988761 0
0.0142701 0.00856418 0
0.0134493 0.00921953 0
0.0141046 0.00923226 0
0.0149255 0.00857692 0
0.0162634 0.00860073 0
0.0166027 0.00723901 0
0.0155945 0.00858882 0
0.0164331 0.00791987 0
0.0157641 0.00790796 0
0.0149255 0.00857691 0
0.0166027 0.00722955 0
0.0135781 0.00855145 0
0.0157641 0.00790323 0
0.0150904 0.0078905 0
0.0142518 0.00856418 0
0.00678506 0.0132011 0
0.00590244 0.0132425 0
0.00557377 0.0140838 0
0.00634375 0.0132218 0
0.0057381 0.0136631 0
0.00617942 0.0136424 0
0.00678506 0.013201 0
0.00557377 0.0140767 0
0.00766072 0.0131555 0
0.00617942 0.0136389 0
0.00661725 0.0136161 0
0.00722289 0.0131783 0
0.00678488 0.0132011 0
0.00803417 0.012242 0
0.0058257 0.0132425 0
0.00740952 0.0127215 0
0.00692993 0.0127422 0
0.00630529 0.0132218 0
0.00678488 0.013201 0
0.00773562 0.0131555 0
0.00803417 0.0122503 0
0.00726025 0.0131783 0
0.00788489 0.0127029 0
0.00740952 0.0127257 0
0.0048105 0.0140898 0
0.00561472 0.0140428 0
0.00585934 0.0132856 0
0.00521261 0.0140663 0
0.00573703 0.0136642 0
0.00533492 0.0136877 0
0.0048106 0.0140898 0
0.00379006 0.0148154 0
0.00553624 0.0140428 0
0.00430033 0.0144526 0
0.00466315 0.0144291 0
0.00517342 0.0140663 0
0.0048105 0.0140898 0
0.00585934 0.0132812 0
0.0040019 0.014122 0
0.00533492 0.0136855 0
0.00493062 0.0137016 0
0.0044062 0.0141059 0
0.0048106 0.0140898 0
0.00408134 0.014122 0
0.00379006 0.0148191 0
0.00444597 0.0141059 0
0.0039357 0.0144706 0
0.00430033 0.0144545 0
0.00936264 0.0110989 0
0.00803426 0.0122358 0
0.0104995 0.0110691 0
0.00869845 0.0116674 0
0.00926689 0.0116525 0
0.00993108 0.011084 0
0.00936264 0.0110991 0
0.0082131 0.0111336 0
0.00803426 0.0122486 0
0.00878787 0.0111164 0
0.00812368 0.0116911 0
0.00869845 0.0116739 0
0.00936235 0.0110989 0
0.010562 0.0110691 0
0.01075 0.00989933 0
0.00996216 0.011084 0
0.010656 0.0104842 0
0.0100562 0.0104991 0
0.00936235 0.0110991 0
0.01075 0.00988451 0
0.00814777 0.0111336 0
0.0100562 0.0104918 0
0.00944891 0.0105091 0
0.00875506 0.0111164 0
0.00698813 0.0122627 0
0.00585879 0.0132756 0
0.00800104 0.0122088 0
0.00642346 0.0127691 0
0.00692992 0.0127422 0
0.00749459 0.0122357 0
0.00698782 0.0122627 0
0.00807405 0.0122088 0
0.0081703 0.0111764 0
0.00753093 0.0122357 0
0.00812217 0.0116926 0
0.00757906 0.0117195 0
0.00698813 0.0122628 0
0.00596608 0.0123166 0
0.00585879 0.0132849 0
0.00647711 0.0122897 0
0.00591244 0.0128007 0
0.00642346 0.0127738 0
0.00698782 0.0122628 0
0.0081703 0.0111649 0
0.00588995 0.0123166 0
0.00757906 0.0117139 0
0.00703012 0.0117408 0
0.00643889 0.0122897 0
0.0207227 0.00732337 0
0.0221098 0.00735027 0
0.0225661 0.00593626 0
0.0214163 0.00733682 0
0.022338 0.00664327 0
0.0216444 0.00662982 0
0.0207226 0.00732337 0
0.0188615 0.00867958 0
0.0220788 0.00735027 0
0.0197921 0.00800147 0
0.0204702 0.00801493 0
0.0214007 0.00733682 0
0.0207227 0.0073233 0
0.0225661 0.00594106 0
0.0193405 0.00729193 0
0.0216444 0.00663218 0
0.0209533 0.0066165 0
0.0200316 0.00730762 0
0.0207226 0.0073233 0
0.0193701 0.00729193 0
0.0188615 0.00867575 0
0.0200464 0.00730762 0
0.0191158 0.00798384 0
0.0197921 0.00799952 0
0.0239892 0.00594679 0
0.0225759 0.00592651 0
0.0221 0.00736013 0
0.0232826 0.00593665 0
0.0223379 0.00664332 0
0.0230446 0.00665346 0
0.0239892 0.00594681 0
0.0221 0.00736904 0
0.0254115 0.00596317 0
0.0230446 0.00665792 0
0.0237557 0.0066661 0
0.0247003 0.00595499 0
0.0239893 0.00594679 0
0.0258443 0.00451123 0
0.0225537 0.00592651 0
0.0249168 0.00522901 0
0.024199 0.00521887 0
0.0232715 0.00593665 0
0.0239893 0.00594681 0
0.0254339 0.00596317 0
0.0258443 0.00450212 0
0.0247116 0.00595499 0
0.0256391 0.00523264 0
0.0249168 0.00522447 0
0.0211474 0.00590052 0
0.0193537 0.00730517 0
0.0225521 0.00592701 0
0.0202506 0.00660284 0
0.0209529 0.00661609 0
0.0218498 0.00591376 0
0.0211474 0.00590045 0
0.0197442 0.00586486 0
0.0193537 0.00730371 0
0.0204458 0.00588265 0
0.0195489 0.00658429 0
0.0202506 0.00660208 0
0.0211476 0.00590052 0
0.0225719 0.00592701 0
0.0229335 0.00447614 0
0.0218598 0.00591376 0
0.0227527 0.00520157 0
0.0220405 0.00518833 0
0.0211476 0.00590045 0
0.0229335 0.00447857 0
0.0197257 0.00586486 0
0.0220405 0.00518951 0
0.0213296 0.00517172 0
0.0204366 0.00588265 0
0.0179822 0.00725922 0
0.0162444 0.00861552 0
0.0193385 0.00729194 0
0.0171133 0.00793737 0
0.0177914 0.00795373 0
0.0186603 0.00727558 0
0.0179823 0.00725922 0
0.0193655 0.00729194 0
0.019733 0.00587604 0
0.0186739 0.00727558 0
0.0195492 0.00658399 0
0.0188577 0.00656763 0
0.0179822 0.00725915 0
0.0166216 0.00722015 0
0.0162444 0.00861975 0
0.0173019 0.00723965 0
0.016433 0.00791995 0
0.0171133 0.00793945 0
0.0179823 0.00725915 0
0.019733 0.00587282 0
0.016596 0.00722015 0
0.0188577 0.00656598 0
0.0181645 0.00654648 0
0.0172891 0.00723965 0
0.0243832 0.00448948 0
0.0225657 0.00593856 0
0.0258323 0.00449921 0
0.0234745 0.00521402 0
0.024199 0.00521888 0
0.0251077 0.00449434 0
0.0243832 0.00448948 0
0.0258464 0.00449921 0
0.0261811 0.00302627 0
0.0251148 0.00449434 0
0.0260137 0.00376274 0
0.0252821 0.00375788 0
0.0243832 0.00448949 0
0.0229395 0.00447016 0
0.0225657 0.00593322 0
0.0236613 0.00447982 0
0.0227526 0.00520169 0
0.0234745 0.00521135 0
0.0243832 0.00448949 0
0.0261811 0.00303152 0
0.0229252 0.00447016 0
0.0252821 0.0037605 0
0.0245531 0.00375084 0
0.0236542 0.00447982 0
0.0276646 0.00302157 0
0.0258438 0.0045071 0
0.0291502 0.00301261 0
0.0267542 0.00376433 0
0.027497 0.00375985 0
0.0284074 0.00301709 0
0.0276646 0.00302172 0
0.0261846 0.00302276 0
0.0258438 0.00450175 0
0.0269246 0.00302224 0
0.0260142 0.00376226 0
0.0267542 0.00376174 0
0.0276643 0.00302157 0
0.0291581 0.00301261 0
0.0294697 0.00152771 0
0.0284112 0.00301709 0
0.0293139 0.00227016 0
0.028567 0.00227464 0
0.0276643 0.00302172 0
0.0294697 0.00153085 0
0.0261734 0.00302276 0
0.028567 0.00227628 0
0.0278215 0.0022768 0
0.0269189 0.00302224 0
-0.0202721 0.0125887 0
-0.0196116 0.0125347 0
-0.0233893 0.0119282 0
-0.0199419 0.0125617 0
-0.0215004 0.0122314 0
-0.0218307 0.0122584 0
-0.0202723 0.0125887 0
-0.0172525 0.0131658 0
-0.0196952 0.0125347 0
-0.0187624 0.0128773 0
-0.0184738 0.0128503 0
-0.0199838 0.0125617 0
-0.0202721 0.0125886 0
-0.0233893 0.0119725 0
-0.0208883 0.0125927 0
-0.0218307 0.0122806 0
-0.0221388 0.0122826 0
-0.0205802 0.0125907 0
-0.0202723 0.0125886 0
-0.0208062 0.0125927 0
-0.0172525 0.0131226 0
-0.0205393 0.0125907 0
-0.0190294 0.0128576 0
-0.0187624 0.0128556 0
-0.0225109 0.0117201 0
-0.0233546 0.0118935 0
-0.0196407 0.0125638 0
-0.0229327 0.0118068 0
-0.0214976 0.0122286 0
-0.0210758 0.0121419 0
-0.0225109 0.0117197 0
-0.0196407 0.0125874 0
-0.0216432 0.0115473 0
-0.0210758 0.0121535 0
-0.0206419 0.0120673 0
-0.022077 0.0116335 0
-0.0225116 0.0117201 0
-0.0254048 0.0107675 0
-0.0234641 0.0118935 0
-0.0239582 0.0112438 0
-0.0244345 0.0113305 0
-0.0229879 0.0118068 0
-0.0225116 0.0117197 0
-0.0215412 0.0115473 0
-0.0254048 0.0107493 0
-0.0220264 0.0116335 0
-0.023473 0.0111483 0
-0.0239582 0.0112345 0
-0.0188407 0.0124609 0
-0.019609 0.0125302 0
-0.0161208 0.0132292 0
-0.0192249 0.0124956 0
-0.0178649 0.0128797 0
-0.0174808 0.012845 0
-0.0188411 0.0124609 0
-0.0215863 0.0116042 0
-0.0196978 0.0125302 0
-0.0202137 0.0120326 0
-0.020642 0.0120672 0
-0.0192695 0.0124956 0
-0.0188407 0.0124607 0
-0.0161208 0.013248 0
-0.0180535 0.0123789 0
-0.0174808 0.0128544 0
-0.0170871 0.0128135 0
-0.0184471 0.0124198 0
-0.0188411 0.0124607 0
-0.0179683 0.0123789 0
-0.0215863 0.0115879 0
-0.0184047 0.0124198 0
-0.0197773 0.0119834 0
-0.0202137 0.0120243 0
-0.0240431 0.0120813 0
-0.0208184 0.0126626 0
-0.0234618 0.0118999 0
-0.0224307 0.0123719 0
-0.0221401 0.0122813 0
-0.0237524 0.0119906 0
-0.0240431 0.0120813 0
-0.0245643 0.0122119 0
-0.0208184 0.0126025 0
-0.0243037 0.0121466 0
-0.0226914 0.0124072 0
-0.0224307 0.0123419 0
-0.0240429 0.0120813 0
-0.0233563 0.0118999 0
-0.0274 0.0113947 0
-0.0236996 0.0119906 0
-0.0253781 0.0116473 0
-0.0257215 0.011738 0
-0.0240429 0.0120813 0
-0.0274 0.0114555 0
-0.0246688 0.0122119 0
-0.0257215 0.0117684 0
-0.0260344 0.0118337 0
-0.0243559 0.0121466 0
-0.021088 0.0124807 0
-0.0178181 0.0127005 0
-0.0208682 0.0126022 0
-0.0194531 0.0125906 0
-0.0193431 0.0126514 0
-0.0209781 0.0125414 0
-0.0210864 0.0124807 0
-0.0208181 0.0126022 0
-0.0245648 0.0122124 0
-0.0209522 0.0125414 0
-0.0226914 0.0124073 0
-0.0228256 0.0123465 0
-0.021088 0.0124799 0
-0.0212344 0.0122172 0
-0.0178181 0.0126262 0
-0.0211612 0.0123485 0
-0.0195263 0.0124217 0
-0.0194531 0.012553 0
-0.0210864 0.0124799 0
-0.0245648 0.0122982 0
-0.0212681 0.0122172 0
-0.0228256 0.012389 0
-0.0229164 0.0122577 0
-0.0211772 0.0123485 0
-0.0205477 0.01142 0
-0.0180055 0.0124211 0
-0.0195467 0.0113049 0
-0.0192766 0.0119205 0
-0.0187761 0.011863 0
-0.0200472 0.0113625 0
-0.0205477 0.0114204 0
-0.0215436 0.0115452 0
-0.0180055 0.0124162 0
-0.0210456 0.0114828 0
-0.0197745 0.0119807 0
-0.0192766 0.0119183 0
-0.0205484 0.01142 0
-0.0194621 0.0113049 0
-0.0230704 0.0103337 0
-0.0200053 0.0113625 0
-0.0212663 0.0108193 0
-0.0218094 0.0108769 0
-0.0205484 0.0114204 0
-0.0230704 0.0103336 0
-0.0216352 0.0115452 0
-0.0218094 0.010877 0
-0.0223528 0.0109394 0
-0.0210918 0.0114828 0
-0.0170821 0.0123154 0
-0.0195036 0.011348 0
-0.0180494 0.0123772 0
-0.0182929 0.0118317 0
-0.0187765 0.0118626 0
-0.0175657 0.0123463 0
-0.0170817 0.0123154 0
-0.0179683 0.0123772 0
-0.0146555 0.0132019 0
-0.017525 0.0123463 0
-0.0163119 0.0127895 0
-0.0158686 0.0127586 0
-0.0170821 0.0123152 0
-0.0161115 0.0122517 0
-0.0195036 0.0113446 0
-0.0165968 0.0122834 0
-0.0178076 0.0117982 0
-0.0182929 0.0118299 0
-0.0170817 0.0123152 0
-0.0146555 0.013208 0
-0.0161888 0.0122517 0
-0.0158686 0.0127616 0
-0.0154222 0.0127299 0
-0.0166353 0.0122834 0
-0.0242361 0.0104768 0
-0.0268362 0.00925286 0
-0.0254599 0.0106952 0
-0.0255361 0.00986481 0
-0.0261481 0.00997401 0
-0.024848 0.010586 0
-0.0242348 0.0104768 0
-0.0253506 0.0106952 0
-0.0215865 0.0115926 0
-0.0247927 0.010586 0
-0.0234686 0.0111439 0
-0.0229107 0.0110347 0
-0.0242361 0.0104761 0
-0.0230199 0.0102869 0
-0.0268362 0.00925999 0
-0.023628 0.0103815 0
-0.0249281 0.00977346 0
-0.0255361 0.00986807 0
-0.0242348 0.0104761 0
-0.0215865 0.0115939 0
-0.0231171 0.0102869 0
-0.0229107 0.011035 0
-0.0223518 0.0109404 0
-0.023676 0.0103815 0
-0.0264291 0.0110106 0
-0.0233927 0.0119649 0
-0.0254748 0.0106975 0
-0.0249109 0.0114878 0
-0.0244338 0.0113312 0
-0.025952 0.0108541 0
-0.0264305 0.0110106 0
-0.0253446 0.0106975 0
-0.0294788 0.00992475 0
-0.0258876 0.0108541 0
-0.0274117 0.0103111 0
-0.0279547 0.0104677 0
-0.0264291 0.0110114 0
-0.0273541 0.0113488 0
-0.0233927 0.0119364 0
-0.0268916 0.0111801 0
-0.0253734 0.0116426 0
-0.0249109 0.0114739 0
-0.0264305 0.0110114 0
-0.0294788 0.00994313 0
-0.0274988 0.0113488 0
-0.0279547 0.0104772 0
-0.0284888 0.010646 0
-0.0269646 0.0111801 0
-0.0281433 0.00949513 0
-0.0254045 0.0107506 0
-0.0268878 0.00920126 0
-0.0267739 0.0101229 0
-0.0261462 0.00997594 0
-0.0275156 0.0093482 0
-0.0281433 0.00949615 0
-0.0294045 0.00985043 0
-0.0254045 0.0107573 0
-0.0287739 0.00967329 0
-0.0274045 0.0103039 0
-0.0267739 0.0101267 0
-0.0281454 0.00949513 0
-0.0267717 0.00920126 0
-0.0307856 0.00812141 0
-0.0274585 0.0093482 0
-0.0287786 0.00866133 0
-0.0294655 0.00880827 0
-0.0281454 0.00949615 0
-0.0307856 0.00810044 0
-0.0295411 0.00985043 0
-0.0294655 0.0087983 0
-0.0301633 0.00897543 0
-0.0288432 0.00967329 0
-0.0218469 0.0101691 0
-0.0230237 0.010287 0
-0.0195031 0.0113459 0
-0.0224353 0.010228 0
-0.0212634 0.0108165 0
-0.020675 0.0107575 0
-0.0218476 0.0101691 0
-0.0241404 0.00891377 0
-0.0231029 0.010287 0
-0.022994 0.00954141 0
-0.0236217 0.0096004 0
-0.0224752 0.010228 0
-0.0218469 0.0101687 0
-0.0195031 0.0113395 0
-0.0206761 0.0100678 0
-0.020675 0.0107541 0
-0.0200896 0.0107036 0
-0.0212615 0.0101182 0
-0.0218476 0.0101687 0
-0.0206041 0.0100678 0
-0.0241404 0.00892522 0
-0.0212258 0.0101182 0
-0.0223723 0.00949648 0
-0.022994 0.00954696 0
-0.025468 0.00902549 0
-0.0267785 0.00920228 0
-0.023069 0.0103361 0
-0.0261232 0.00911389 0
-0.0249238 0.00976917 0
-0.0242685 0.00968078 0
-0.025468 0.00902496 0
-0.023069 0.0103209 0
-0.024172 0.00888218 0
-0.0242685 0.00967292 0
-0.0236205 0.00960154 0
-0.02482 0.00895357 0
-0.025469 0.00902549 0
-0.0277773 0.00762997 0
-0.0268646 0.00920228 0
-0.0266232 0.00832773 0
-0.0273209 0.00841612 0
-0.0261668 0.00911389 0
-0.025469 0.00902496 0
-0.0240967 0.00888218 0
-0.0277773 0.00765266 0
-0.0247829 0.00895357 0
-0.025937 0.00826742 0
-0.0266232 0.00833881 0
-0.0184073 0.0112317 0
-0.0194636 0.0113046 0
-0.0161478 0.012288 0
-0.0189354 0.0112681 0
-0.0178057 0.0117963 0
-0.0172776 0.0117598 0
-0.0184073 0.0112314 0
-0.0161478 0.0122869 0
-0.0173518 0.0111647 0
-0.0172776 0.0117592 0
-0.0167498 0.0117258 0
-0.0178795 0.0111981 0
-0.0184077 0.0112317 0
-0.0206424 0.0101014 0
-0.019538 0.0113046 0
-0.0195251 0.0106665 0
-0.0200902 0.010703 0
-0.0189729 0.0112681 0
-0.0184077 0.0112314 0
-0.0172819 0.0111647 0
-0.0206424 0.0101056 0
-0.0178448 0.0111981 0
-0.0189622 0.0106352 0
-0.0195251 0.0106685 0
-0.0151705 0.0122129 0
-0.0161112 0.0122511 0
-0.0130173 0.0131536 0
-0.0156408 0.012232 0
-0.0145643 0.0127024 0
-0.0140939 0.0126832 0
-0.0151707 0.0122129 0
-0.0173166 0.0111999 0
-0.0161837 0.0122511 0
-0.0162436 0.0117064 0
-0.0167501 0.0117255 0
-0.0156772 0.012232 0
-0.0151705 0.0122127 0
-0.0130173 0.0131557 0
-0.0142275 0.0121743 0
-0.0140939 0.0126842 0
-0.0136224 0.012665 0
-0.014699 0.0121935 0
-0.0151707 0.0122127 0
-0.0141576 0.0121743 0
-0.0173166 0.0111997 0
-0.0146642 0.0121935 0
-0.0157371 0.011687 0
-0.0162436 0.0117062 0
-0.0247181 0.0121966 0
-0.0246981 0.0119712 0
-0.0212051 0.0121766 0
-0.0247081 0.0120839 0
-0.0229516 0.0120739 0
-0.0229616 0.0121866 0
-0.0247181 0.012198 0
-0.0212051 0.0122802 0
-0.0246359 0.012227 0
-0.0229616 0.0122391 0
-0.0229205 0.0122536 0
-0.024677 0.0122125 0
-0.0247152 0.0121966 0
-0.0285271 0.0121885 0
-0.0247233 0.0119712 0
-0.0266212 0.0121926 0
-0.0266252 0.0120799 0
-0.0247193 0.0120839 0
-0.0247152 0.012198 0
-0.0245825 0.012227 0
-0.0285271 0.0120653 0
-0.0246489 0.0122125 0
-0.0265548 0.0121461 0
-0.0266212 0.0121316 0
-0.0209694 0.0116103 0
-0.0212605 0.012232 0
-0.0246282 0.0119013 0
-0.021115 0.0119211 0
-0.0229443 0.0120667 0
-0.0227988 0.0117558 0
-0.0209729 0.0116103 0
-0.0176075 0.0113614 0
-0.0212217 0.012232 0
-0.0192902 0.0114858 0
-0.0194146 0.0117967 0
-0.0210973 0.0119211 0
-0.0209694 0.0116085 0
-0.0246282 0.0120142 0
-0.0205638 0.0106922 0
-0.0227988 0.0118114 0
-0.022596 0.0113532 0
-0.0207666 0.0111504 0
-0.0209729 0.0116085 0
-0.020637 0.0106922 0
-0.0176075 0.0112727 0
-0.020805 0.0111504 0
-0.0191223 0.0109825 0
-0.0192902 0.0114406 0
-0.0280581 0.0117434 0
-0.0273548 0.0113588 0
-0.0317244 0.01104 0
-0.0277065 0.0115511 0
-0.0295396 0.0111994 0
-0.0298913 0.0113917 0
-0.0280582 0.0117434 0
-0.0245757 0.012305 0
-0.0274966 0.0113588 0
-0.026317 0.0120242 0
-0.0260362 0.0118319 0
-0.0277774 0.0115511 0
-0.0280581 0.0117433 0
-0.0317244 0.0111256 0
-0.0286758 0.0120733 0
-0.0298913 0.0114345 0
-0.0302001 0.0115995 0
-0.028367 0.0119083 0
-0.0280582 0.0117433 0
-0.0285352 0.0120733 0
-0.0245757 0.0122203 0
-0.0282967 0.0119083 0
-0.0265554 0.0121468 0
-0.026317 0.0119818 0
-0.0306306 0.0103819 0
-0.0316579 0.0109736 0
-0.0274052 0.0114093 0
-0.0311443 0.0106778 0
-0.0295316 0.0111914 0
-0.0290179 0.0108956 0
-0.0306306 0.0103806 0
-0.0274052 0.0114423 0
-0.0295689 0.0098531 0
-0.0290179 0.0109114 0
-0.028487 0.0106477 0
-0.0300997 0.0101168 0
-0.0306334 0.0103819 0
-0.0338407 0.00915325 0
-0.031862 0.0109736 0
-0.032237 0.0097676 0
-0.0328514 0.0100634 0
-0.0312477 0.0106778 0
-0.0306334 0.0103806 0
-0.0293922 0.0098531 0
-0.0338407 0.00913945 0
-0.0300128 0.0101168 0
-0.0316165 0.00949628 0
-0.032237 0.00976001 0
-0.0284688 0.0121952 0
-0.0246469 0.0120477 0
-0.0286164 0.0120993 0
-0.0265578 0.0121214 0
-0.0266316 0.0120735 0
-0.0285426 0.0121473 0
-0.0284634 0.0121952 0
-0.0285677 0.0120993 0
-0.0327259 0.0122995 0
-0.0285155 0.0121473 0
-0.0306468 0.0121994 0
-0.0305947 0.0122474 0
-0.0284688 0.0121925 0
-0.0281788 0.0119813 0
-0.0246469 0.0119025 0
-0.0283238 0.0120869 0
-0.0264128 0.0119419 0
-0.0265578 0.0120475 0
-0.0284634 0.0121925 0
-0.0327259 0.0124828 0
-0.0281731 0.0119813 0
-0.0305947 0.0123376 0
-0.0304495 0.0122321 0
-0.0283182 0.0120869 0
-0.0323692 0.0116933 0
-0.0285463 0.0122028 0
-0.0318597 0.0109904 0
-0.0304577 0.011948 0
-0.030203 0.0115966 0
-0.0321144 0.0113418 0
-0.0323692 0.0116931 0
-0.032754 0.0123276 0
-0.0285463 0.0120779 0
-0.0325616 0.0120104 0
-0.0306502 0.0122028 0
-0.0304577 0.0118855 0
-0.0323688 0.0116933 0
-0.031657 0.0109904 0
-0.0364614 0.0109815 0
-0.0320129 0.0113418 0
-0.0340592 0.0109859 0
-0.0344151 0.0113374 0
-0.0323688 0.0116931 0
-0.0364614 0.0111093 0
-0.0329526 0.0123276 0
-0.0344151 0.0114012 0
-0.034707 0.0117185 0
-0.0326607 0.0120104 0
-0.0241171 0.0112343 0
-0.0205526 0.0107035 0
-0.024648 0.0119943 0
-0.0223349 0.0109689 0
-0.0226003 0.0113489 0
-0.0243826 0.0116143 0
-0.0241171 0.0112316 0
-0.0234811 0.0100373 0
-0.0205526 0.0105956 0
-0.0237991 0.0106345 0
-0.0220169 0.0103165 0
-0.0223349 0.0109136 0
-0.0241118 0.0112343 0
-0.0247387 0.0119943 0
-0.0280588 0.0118613 0
-0.0244252 0.0116143 0
-0.0263988 0.0119278 0
-0.0260853 0.0115478 0
-0.0241118 0.0112316 0
-0.0280588 0.0120067 0
-0.0233367 0.0100373 0
-0.0260853 0.0116192 0
-0.0256977 0.011022 0
-0.0237242 0.0106345 0
-0.019888 0.00912534 0
-0.0166588 0.00850376 0
-0.0205096 0.0107042 0
-0.0182734 0.00881455 0
-0.0185842 0.00960398 0
-0.0201988 0.00991477 0
-0.0198852 0.00912534 0
-0.0206612 0.0107042 0
-0.0233451 0.00990134 0
-0.0202732 0.00991477 0
-0.0220032 0.0103028 0
-0.0216152 0.00951334 0
-0.019888 0.00912393 0
-0.0192138 0.00712073 0
-0.0166588 0.00844964 0
-0.0195509 0.00812233 0
-0.0179363 0.00778518 0
-0.0182734 0.00878678 0
-0.0198852 0.00912393 0
-0.0233451 0.00997525 0
-0.0190339 0.00712073 0
-0.0216152 0.00954959 0
-0.0211895 0.00854799 0
-0.0194596 0.00812233 0
-0.0131884 0.0121587 0
-0.0150895 0.0111239 0
-0.0142231 0.0121741 0
-0.014139 0.0116413 0
-0.0146563 0.011649 0
-0.0137057 0.0121664 0
-0.0131883 0.0121587 0
-0.0141562 0.0121741 0
-0.0112915 0.0131266 0
-0.0136722 0.0121664 0
-0.0127239 0.0126504 0
-0.0122399 0.0126426 0
-0.0131884 0.0121586 0
-0.0121515 0.0121425 0
-0.0150895 0.0111217 0
-0.0126699 0.0121506 0
-0.0136205 0.0116321 0
-0.014139 0.0116402 0
-0.0131883 0.0121586 0
-0.0112915 0.0131296 0
-0.0122173 0.0121425 0
-0.0122399 0.0126441 0
-0.0117544 0.012636 0
-0.0127028 0.0121506 0
-0.0162018 0.0111272 0
-0.0141904 0.0122069 0
-0.0151221 0.0110913 0
-0.0151961 0.011667 0
-0.0146563 0.0116491 0
-0.015662 0.0111092 0
-0.0162018 0.0111273 0
-0.0172816 0.0111647 0
-0.0141904 0.0122071 0
-0.0167417 0.011146 0
-0.015736 0.0116859 0
-0.0151961 0.0116672 0
-0.0162021 0.0111272 0
-0.0150611 0.0110913 0
-0.0182026 0.00998621 0
-0.0156316 0.0111092 0
-0.0166318 0.0105388 0
-0.0172023 0.0105567 0
-0.0162021 0.0111273 0
-0.0182026 0.00998432 0
-0.017345 0.0111647 0
-0.0172023 0.0105558 0
-0.0177738 0.0105745 0
-0.0167736 0.011146 0
-0.010407 0.0130997 0
-0.0094818 0.0131042 0
-0.0121807 0.0121745 0
-0.00994442 0.013102 0
-0.0108313 0.0126394 0
-0.0112939 0.0126371 0
-0.010407 0.0130997 0
-0.0121807 0.0121791 0
-0.0113277 0.0130934 0
-0.0112939 0.0126394 0
-0.0117542 0.0126362 0
-0.0108674 0.0130966 0
-0.010407 0.0130997 0
-0.00864754 0.0139537 0
-0.00955311 0.0131042 0
-0.00952729 0.0135267 0
-0.00910032 0.0135289 0
-0.00998008 0.013102 0
-0.010407 0.0130997 0
-0.0112564 0.0130934 0
-0.00864754 0.0139491 0
-0.0108317 0.0130966 0
-0.00995194 0.0135212 0
-0.00952729 0.0135244 0
-0.0139637 0.0110763 0
-0.0150591 0.0110913 0
-0.0121807 0.0121718 0
-0.0145114 0.0110838 0
-0.0136199 0.0116315 0
-0.0130722 0.011624 0
-0.0139637 0.0110763 0
-0.0121807 0.0121756 0
-0.0128644 0.0110608 0
-0.0130722 0.0116259 0
-0.0125226 0.0116182 0
-0.0134141 0.0110686 0
-0.0139638 0.0110763 0
-0.0157574 0.00992285 0
-0.0151173 0.0110913 0
-0.0148606 0.0104996 0
-0.0154373 0.0105071 0
-0.0145405 0.0110838 0
-0.0139638 0.0110763 0
-0.012807 0.0110608 0
-0.0157574 0.00991952 0
-0.0133854 0.0110686 0
-0.0142822 0.0104902 0
-0.0148606 0.0104979 0
-0.0111607 0.0121477 0
-0.0121487 0.0121424 0
-0.00951323 0.0131356 0
-0.0116547 0.0121451 0
-0.0108309 0.012639 0
-0.010337 0.0126417 0
-0.0111607 0.0121477 0
-0.0128307 0.0110945 0
-0.0122139 0.0121424 0
-0.0119957 0.0116211 0
-0.0125223 0.0116185 0
-0.0116873 0.0121451 0
-0.0111607 0.0121477 0
-0.00951323 0.0131417 0
-0.0101667 0.0121526 0
-0.010337 0.0126447 0
-0.00983998 0.0126471 0
-0.0106637 0.0121501 0
-0.0111607 0.0121477 0
-0.0101012 0.0121526 0
-0.0128307 0.0110882 0
-0.010631 0.0121501 0
-0.011466 0.0116204 0
-0.0119957 0.011618 0
-0.00788999 0.0139408 0
-0.0095132 0.0131441 0
-0.00868662 0.0139146 0
-0.0087016 0.0135424 0
-0.00909991 0.0135294 0
-0.00828831 0.0139277 0
-0.00789005 0.0139408 0
-0.00861062 0.0139146 0
-0.00628538 0.0146613 0
-0.00825033 0.0139277 0
-0.007448 0.014288 0
-0.00708772 0.014301 0
-0.00788999 0.0139408 0
-0.00708805 0.0139634 0
-0.0095132 0.0131388 0
-0.00748902 0.0139521 0
-0.00830062 0.0135511 0
-0.0087016 0.0135398 0
-0.00789005 0.0139408 0
-0.00628538 0.0146662 0
-0.00716464 0.0139634 0
-0.00708772 0.0143035 0
-0.00672501 0.0143148 0
-0.00752735 0.0139521 0
-0.0194159 0.0100091 0
-0.0181737 0.00995599 0
-0.021483 0.00876689 0
-0.0187948 0.00998253 0
-0.0198284 0.00936144 0
-0.0204495 0.00938798 0
-0.0194155 0.0100091 0
-0.0173161 0.0111937 0
-0.0182309 0.00995599 0
-0.0183658 0.0106014 0
-0.0177735 0.0105748 0
-0.0188232 0.00998253 0
-0.0194159 0.0100093 0
-0.021483 0.00875911 0
-0.020666 0.0100683 0
-0.0204495 0.00938419 0
-0.0210745 0.0094137 0
-0.020041 0.0100388 0
-0.0194155 0.0100093 0
-0.0206051 0.0100683 0
-0.0173161 0.0111988 0
-0.0200103 0.0100388 0
-0.0189606 0.0106336 0
-0.0183658 0.010604 0
-0.016979 0.00992578 0
-0.0181727 0.00995633 0
-0.0150893 0.0111195 0
-0.0175758 0.00994106 0
-0.016631 0.0105379 0
-0.0160341 0.0105226 0
-0.0169791 0.00992578 0
-0.0188619 0.0086807 0
-0.0182242 0.00995633 0
-0.0179205 0.00930324 0
-0.0185431 0.00931851 0
-0.0176017 0.00994106 0
-0.016979 0.0099257 0
-0.0150893 0.0111193 0
-0.0157854 0.00989492 0
-0.0160341 0.0105225 0
-0.0154373 0.0105071 0
-0.0163822 0.00991031 0
-0.0169791 0.0099257 0
-0.0157356 0.00989492 0
-0.0188619 0.00868212 0
-0.0163573 0.00991031 0
-0.0172988 0.00928852 0
-0.0179205 0.00930391 0
-0.0201654 0.00869707 0
-0.0214525 0.00873644 0
-0.018202 0.00998426 0
-0.020809 0.00871675 0
-0.0198273 0.00936035 0
-0.0191837 0.00934067 0
-0.0201654 0.00869695 0
-0.018202 0.00997857 0
-0.0188837 0.0086589 0
-0.0191837 0.00933776 0
-0.0185429 0.00931874 0
-0.0195245 0.00867793 0
-0.0201656 0.00869707 0
-0.0221007 0.00736483 0
-0.0214978 0.00873644 0
-0.0211332 0.00803095 0
-0.0217993 0.00805063 0
-0.0208317 0.00871675 0
-0.0201656 0.00869695 0
-0.0188408 0.0086589 0
-0.0221007 0.0073722 0
-0.0195032 0.00867793 0
-0.0204708 0.00801555 0
-0.0211332 0.00803458 0
-0.0227968 0.00880276 0
-0.0206414 0.0100929 0
-0.0215066 0.00873554 0
-0.0217191 0.00944785 0
-0.021074 0.00941424 0
-0.0221517 0.00876915 0
-0.0227968 0.00880301 0
-0.0240988 0.00888355 0
-0.0206414 0.010105 0
-0.0234478 0.00884328 0
-0.0223701 0.00949429 0
-0.0217191 0.00945402 0
-0.0227973 0.00880276 0
-0.021453 0.00873554 0
-0.0248924 0.00745849 0
-0.0221251 0.00876915 0
-0.0231727 0.00809702 0
-0.0238448 0.00813063 0
-0.0227973 0.00880301 0
-0.0248924 0.00744288 0
-0.0241574 0.00888355 0
-0.0238448 0.00812295 0
-0.0245249 0.00816321 0
-0.0234773 0.00884328 0
-0.00566629 0.014666 0
-0.00422823 0.0152504 0
-0.00508188 0.0147 0
-0.00494726 0.0149582 0
-0.00465506 0.0149752 0
-0.00537409 0.014683 0
-0.00566629 0.0146659 0
-0.00624667 0.0146251 0
-0.00422823 0.0152463 0
-0.00595648 0.0146455 0
-0.00523745 0.0149357 0
-0.00494726 0.0149561 0
-0.00566622 0.014666 0
-0.00500131 0.0147 0
-0.00712244 0.0140011 0
-0.00533376 0.014683 0
-0.00606188 0.0143506 0
-0.00639433 0.0143335 0
-0.00566622 0.0146659 0
-0.00712244 0.0140056 0
-0.00632652 0.0146251 0
-0.00639433 0.0143358 0
-0.00672448 0.0143153 0
-0.00599637 0.0146455 0
-0.00375831 0.0152551 0
-0.00503881 0.0147431 0
-0.00427026 0.0152083 0
-0.00439856 0.0149991 0
-0.00465454 0.0149757 0
-0.00401429 0.0152317 0
-0.00375834 0.0152551 0
-0.00418829 0.0152083 0
-0.0024922 0.015685 0
-0.00397332 0.0152317 0
-0.00334025 0.0154467 0
-0.00312527 0.01547 0
-0.00375831 0.0152551 0
-0.00324338 0.0152892 0
-0.00503881 0.0147402 0
-0.00350085 0.0152721 0
-0.0041411 0.0150147 0
-0.00439856 0.0149976 0
-0.00375834 0.0152551 0
-0.0024922 0.0156877 0
-0.00332571 0.0152892 0
-0.00312527 0.0154714 0
-0.00290896 0.0154885 0
-0.00354203 0.0152721 0
-0.00635389 0.0140057 0
-0.00708523 0.0139638 0
-0.00503833 0.0147371 0
-0.00671956 0.0139848 0
-0.00606178 0.0143505 0
-0.00569611 0.0143714 0
-0.00635378 0.0140057 0
-0.00769595 0.0131968 0
-0.00716268 0.0139638 0
-0.00702487 0.0136013 0
-0.00742932 0.0135803 0
-0.00675823 0.0139848 0
-0.00635389 0.0140058 0
-0.00503833 0.0147424 0
-0.00561724 0.0140416 0
-0.00569611 0.0143741 0
-0.00532778 0.014392 0
-0.00598556 0.0140237 0
-0.00635378 0.0140058 0
-0.00553871 0.0140416 0
-0.00769595 0.0131907 0
-0.00594624 0.0140237 0
-0.00661733 0.0136162 0
-0.00702487 0.0135982 0
-0.00861143 0.0131305 0
-0.00947862 0.0131043 0
-0.00712231 0.0139977 0
-0.00904502 0.0131174 0
-0.00830047 0.013551 0
-0.00786687 0.0135641 0
-0.00861143 0.0131306 0
-0.00712231 0.0140042 0
-0.00773777 0.013155 0
-0.00786687 0.0135674 0
-0.00743004 0.0135796 0
-0.0081746 0.0131428 0
-0.00861133 0.0131305 0
-0.0101282 0.0121911 0
-0.00955071 0.0131043 0
-0.00936975 0.0126608 0
-0.00983944 0.0126477 0
-0.00908102 0.0131174 0
-0.00861133 0.0131306 0
-0.0076647 0.013155 0
-0.0101282 0.0121839 0
-0.00813802 0.0131428 0
-0.00889643 0.0126695 0
-0.00936975 0.0126572 0
-0.00217916 0.0156863 0
-0.00182339 0.0157053 0
-0.00328326 0.0153306 0
-0.00200127 0.0156958 0
-0.00255333 0.015518 0
-0.00273121 0.0155085 0
-0.00217916 0.0156864 0
-0.00328326 0.0153316 0
-0.00253387 0.015646 0
-0.00273121 0.015509 0
-0.00290857 0.0154888 0
-0.00235651 0.0156662 0
-0.00217912 0.0156863 0
-0.00108388 0.0159607 0
-0.00190478 0.0157053 0
-0.0016315 0.0158235 0
-0.00149433 0.015833 0
-0.00204195 0.0156958 0
-0.00217912 0.0156864 0
-0.00245209 0.015646 0
-0.00108388 0.0159593 0
-0.0023156 0.0156662 0
-0.00176799 0.0158027 0
-0.0016315 0.0158228 0
-0.00441795 0.0147464 0
-0.00499963 0.014701 0
-0.00328229 0.0153281 0
-0.00470879 0.0147237 0
-0.00414096 0.0150145 0
-0.00385012 0.0150373 0
-0.00441795 0.0147464 0
-0.00328229 0.0153314 0
-0.00383299 0.0147777 0
-0.00385012 0.0150389 0
-0.00355764 0.0150546 0
-0.00412547 0.0147621 0
-0.0044179 0.0147464 0
-0.00557433 0.0140845 0
-0.00507977 0.014701 0
-0.00499612 0.0144155 0
-0.00532705 0.0143928 0
-0.00474883 0.0147237 0
-0.0044179 0.0147464 0
-0.00375236 0.0147777 0
-0.00557433 0.0140809 0
-0.00408513 0.0147621 0
-0.00466335 0.0144293 0
-0.00499612 0.0144137 0
-0.00282057 0.0153217 0
-0.00324348 0.0152908 0
-0.00186271 0.0157447 0
-0.00303202 0.0153063 0
-0.0025531 0.0155177 0
-0.00234164 0.0155332 0
-0.00282063 0.0153217 0
-0.00379126 0.0148195 0
-0.0033229 0.0152908 0
-0.00330595 0.0150706 0
-0.00355708 0.0150551 0
-0.00307177 0.0153063 0
-0.00282057 0.0153217 0
-0.00186271 0.0157458 0
-0.00239644 0.0153262 0
-0.00234164 0.0155338 0
-0.00212958 0.015536 0
-0.00260851 0.015324 0
-0.00282063 0.0153217 0
-0.00231764 0.0153262 0
-0.00379126 0.0148187 0
-0.00256913 0.015324 0
-0.00305445 0.0150725 0
-0.00330595 0.0150702 0
-0.000930004 0.01594 0
-0.00186424 0.0157459 0
-0.00112411 0.0159204 0
-0.00139712 0.0158429 0
-0.00149417 0.0158332 0
-0.00102706 0.0159302 0
-0.000929867 0.01594 0
-0.00104493 0.0159204 0
8.1156e-07 0.016055 0
-0.000987397 0.0159302 0
-0.000522058 0.0159877 0
-0.000464528 0.0159975 0
-0.000930004 0.0159399 0
-0.000736359 0.0159268 0
-0.00186424 0.0157463 0
-0.000833181 0.0159334 0
-0.0013003 0.0158365 0
-0.00139712 0.0158431 0
-0.000929867 0.0159399 0
8.1156e-07 0.0160556 0
-0.000814174 0.0159268 0
-0.000464528 0.0159978 0
-0.000406681 0.0159912 0
-0.00087202 0.0159334 0
-0.0116882 0.0110647 0
-0.0101283 0.0121885 0
-0.0105643 0.0110693 0
-0.0109082 0.0116266 0
-0.0103463 0.0116289 0
-0.0111263 0.011067 0
-0.0116882 0.0110646 0
-0.0128032 0.0110607 0
-0.0101283 0.0121796 0
-0.0122457 0.0110627 0
-0.0114657 0.0116202 0
-0.0109082 0.0116221 0
-0.0116881 0.0110647 0
-0.0105057 0.0110693 0
-0.0132835 0.00988228 0
-0.0110969 0.011067 0
-0.0118946 0.0104758 0
-0.0124858 0.0104735 0
-0.0116881 0.0110646 0
-0.0132835 0.00989177 0
-0.0128609 0.0110607 0
-0.0124858 0.0104782 0
-0.0130722 0.0104762 0
-0.0122745 0.0110627 0
-0.00909074 0.0121802 0
-0.0105269 0.0111068 0
-0.0101642 0.0121526 0
-0.00980881 0.0116435 0
-0.0103455 0.0116297 0
-0.00962747 0.0121664 0
-0.00909092 0.0121802 0
-0.0100968 0.0121526 0
-0.00769586 0.0131862 0
-0.00959387 0.0121664 0
-0.00889634 0.0126694 0
-0.00839339 0.0126832 0
-0.00909074 0.0121803 0
-0.00800688 0.0122085 0
-0.0105269 0.0110965 0
-0.00854881 0.0121944 0
-0.00926688 0.0116525 0
-0.00980881 0.0116384 0
-0.00909092 0.0121803 0
-0.00769586 0.0131952 0
-0.00807601 0.0122085 0
-0.00839339 0.0126878 0
-0.00788593 0.0127018 0
-0.00858347 0.0121944 0
-0.0145267 0.00987851 0
-0.0162443 0.00862451 0
-0.0157807 0.00989488 0
-0.0153855 0.00925151 0
-0.0160125 0.00925969 0
-0.0151537 0.0098867 0
-0.0145267 0.00987851 0
-0.0157328 0.00989488 0
-0.0128308 0.0110846 0
-0.0151297 0.0098867 0
-0.0142818 0.0104898 0
-0.0136787 0.0104816 0
-0.0145267 0.0098785 0
-0.0132667 0.00986089 0
-0.0162443 0.00861851 0
-0.0138967 0.00986969 0
-0.0147555 0.0092397 0
-0.0153855 0.0092485 0
-0.0145267 0.0098785 0
-0.0128308 0.0110908 0
-0.0133143 0.00986089 0
-0.0136787 0.0104847 0
-0.0130726 0.0104759 0
-0.0139205 0.00986969 0
-0.0175542 0.00863181 0
-0.0157573 0.0099183 0
-0.0162677 0.00860106 0
-0.0166558 0.00927505 0
-0.0160125 0.00925968 0
-0.016911 0.00861643 0
-0.0175542 0.00863187 0
-0.018839 0.0086592 0
-0.0157573 0.00991666 0
-0.0181966 0.00864553 0
-0.0172982 0.00928793 0
-0.0166558 0.00927426 0
-0.0175544 0.00863181 0
-0.0162299 0.00860106 0
-0.0193539 0.00730739 0
-0.0168921 0.00861643 0
-0.0177919 0.00795422 0
-0.0184541 0.0079696 0
-0.0175544 0.00863187 0
-0.0193539 0.00730816 0
-0.0188781 0.0086592 0
-0.0184541 0.00797001 0
-0.019116 0.00798368 0
-0.0182162 0.00864553 0
-0.0120307 0.00985993 0
-0.0132616 0.00986044 0
-0.0105273 0.0110909 0
-0.0126461 0.00986019 0
-0.0118944 0.0104757 0
-0.011279 0.0104754 0
-0.0120305 0.00985993 0
-0.0135867 0.00857948 0
-0.013311 0.00986044 0
-0.0128086 0.00921971 0
-0.0134488 0.00921996 0
-0.0126707 0.00986019 0
-0.0120307 0.00986001 0
-0.0105273 0.0111038 0
-0.0107869 0.00986252 0
-0.011279 0.0104819 0
-0.0106571 0.0104832 0
-0.0114088 0.00986127 0
-0.0120305 0.00986001 0
-0.010736 0.00986252 0
-0.0135867 0.00856554 0
-0.0113833 0.00986127 0
-0.0121614 0.00921403 0
-0.0128086 0.00921277 0
-0.0149255 0.00857692 0
-0.0162265 0.00860073 0
-0.0132838 0.00987795 0
-0.015576 0.00858882 0
-0.0147552 0.00923934 0
-0.0141046 0.00922744 0
-0.0149255 0.00857691 0
-0.0132838 0.00988761 0
-0.0136148 0.00855145 0
-0.0141046 0.00923226 0
-0.0134493 0.00921953 0
-0.0142701 0.00856418 0
-0.0149255 0.00857692 0
-0.0166027 0.00723901 0
-0.0162634 0.00860073 0
-0.0157641 0.00790796 0
-0.0164331 0.00791987 0
-0.0155945 0.00858882 0
-0.0149255 0.00857691 0
-0.0135781 0.00855145 0
-0.0166027 0.00722955 0
-0.0142518 0.00856418 0
-0.0150904 0.0078905 0
-0.0157641 0.00790323 0
-0.00678506 0.0132011 0
-0.00557377 0.0140838 0
-0.00590244 0.0132425 0
-0.00617942 0.0136424 0
-0.0057381 0.0136631 0
-0.00634375 0.0132218 0
-0.00678506 0.013201 0
-0.00766072 0.0131555 0
-0.00557377 0.0140767 0
-0.00722289 0.0131783 0
-0.00661725 0.0136161 0
-0.00617942 0.0136389 0
-0.00678488 0.0132011 0
-0.0058257 0.0132425 0
-0.00803417 0.012242 0
-0.00630529 0.0132218 0
-0.00692993 0.0127422 0
-0.00740952 0.0127215 0
-0.00678488 0.013201 0
-0.00803417 0.0122503 0
-0.00773562 0.0131555 0
-0.00740952 0.0127257 0
-0.00788489 0.0127029 0
-0.00726025 0.0131783 0
-0.0048105 0.0140898 0
-0.00585934 0.0132856 0
-0.00561472 0.0140428 0
-0.00533492 0.0136877 0
-0.00573703 0.0136642 0
-0.00521261 0.0140663 0
-0.0048106 0.0140898 0
-0.00553624 0.0140428 0
-0.00379006 0.0148154 0
-0.00517342 0.0140663 0
-0.00466315 0.0144291 0
-0.00430033 0.0144526 0
-0.0048105 0.0140898 0
-0.0040019 0.014122 0
-0.00585934 0.0132812 0
-0.0044062 0.0141059 0
-0.00493062 0.0137016 0
-0.00533492 0.0136855 0
-0.0048106 0.0140898 0
-0.00379006 0.0148191 0
-0.00408134 0.014122 0
-0.00430033 0.0144545 0
-0.0039357 0.0144706 0
-0.00444597 0.0141059 0
-0.00936264 0.0110989 0
-0.0104995 0.0110691 0
-0.00803426 0.0122358 0
-0.00993108 0.011084 0
-0.00926689 0.0116525 0
-0.00869845 0.0116674 0
-0.00936264 0.0110991 0
-0.00803426 0.0122486 0
-0.0082131 0.0111336 0
-0.00869845 0.0116739 0
-0.00812368 0.0116911 0
-0.00878787 0.0111164 0
-0.00936235 0.0110989 0
-0.01075 0.00989933 0
-0.010562 0.0110691 0
-0.0100562 0.0104991 0
-0.010656 0.0104842 0
-0.00996216 0.011084 0
-0.00936235 0.0110991 0
-0.00814777 0.0111336 0
-0.01075 0.00988451 0
-0.00875506 0.0111164 0
-0.00944891 0.0105091 0
-0.0100562 0.0104918 0
-0.00698813 0.0122627 0
-0.00800104 0.0122088 0
-0.00585879 0.0132756 0
-0.00749459 0.0122357 0
-0.00692992 0.0127422 0
-0.00642346 0.0127691 0
-0.00698782 0.0122627 0
-0.0081703 0.0111764 0
-0.00807405 0.0122088 0
-0.00757906 0.0117195 0
-0.00812217 0.0116926 0
-0.00753093 0.0122357 0
-0.00698813 0.0122628 0
-0.00585879 0.0132849 0
-0.00596608 0.0123166 0
-0.00642346 0.0127738 0
-0.00591244 0.0128007 0
-0.00647711 0.0122897 0
-0.00698782 0.0122628 0
-0.00588995 0.0123166 0
-0.0081703 0.0111649 0
-0.00643889 0.0122897 0
-0.00703012 0.0117408 0
-0.00757906 0.0117139 0
-0.0263098 0.00750342 0
-0.0283844 0.00602952 0
-0.0277837 0.00760513 0
-0.0273471 0.00676647 0
-0.028084 0.00681733 0
-0.0270467 0.00755428 0
-0.0263092 0.00750342 0
-0.0277298 0.00760513 0
-0.0241386 0.00892401 0
-0.0270195 0.00755428 0
-0.0259342 0.00826457 0
-0.0252239 0.00821372 0
-0.0263098 0.00750313 0
-0.0248619 0.00742535 0
-0.0283844 0.00605521 0
-0.0255858 0.00746424 0
-0.0266231 0.00674028 0
-0.0273471 0.00677917 0
-0.0263092 0.00750313 0
-0.0241386 0.00890238 0
-0.0249099 0.00742535 0
-0.0252239 0.00820276 0
-0.0245243 0.00816387 0
-0.0256096 0.00746424 0
-0.0299034 0.00610385 0
-0.0277743 0.00761453 0
-0.0283927 0.00602116 0
-0.0288388 0.00685919 0
-0.0280835 0.00681785 0
-0.0291481 0.00606251 0
-0.0299034 0.0061041 0
-0.0314485 0.00622412 0
-0.0277743 0.00764915 0
-0.0306759 0.00616411 0
-0.0296114 0.00693663 0
-0.0288388 0.00687662 0
-0.0299039 0.00610385 0
-0.0283564 0.00602116 0
-0.031892 0.00455637 0
-0.0291302 0.00606251 0
-0.0301242 0.00528877 0
-0.030898 0.00533011 0
-0.0299039 0.0061041 0
-0.031892 0.00451826 0
-0.0314898 0.00622412 0
-0.030898 0.00531118 0
-0.0316909 0.00537119 0
-0.0306968 0.00616411 0
-0.0292433 0.00779486 0
-0.0268336 0.00923327 0
-0.0278049 0.00760243 0
-0.0280384 0.00851407 0
-0.0273192 0.00841785 0
-0.0285241 0.00769865 0
-0.0292448 0.00779486 0
-0.0277276 0.00760243 0
-0.031502 0.00627764 0
-0.0284862 0.00769865 0
-0.0296148 0.00694003 0
-0.0303734 0.00703625 0
-0.0292433 0.00779562 0
-0.0307108 0.00804664 0
-0.0268336 0.00926316 0
-0.029977 0.00792113 0
-0.0287722 0.0086549 0
-0.0280384 0.00852939 0
-0.0292448 0.00779562 0
-0.031502 0.00623711 0
-0.0308033 0.00804664 0
-0.0303734 0.00701637 0
-0.0311526 0.00714188 0
-0.030024 0.00792113 0
-0.0268871 0.00598814 0
-0.0283533 0.00602412 0
-0.0248908 0.00745433 0
-0.0276202 0.00600613 0
-0.0266221 0.00673922 0
-0.025889 0.00672123 0
-0.0268871 0.0059881 0
-0.0248908 0.00743523 0
-0.02544 0.00596163 0
-0.025889 0.00671167 0
-0.0251654 0.00669843 0
-0.0261635 0.00597487 0
-0.0268872 0.00598814 0
-0.0288098 0.00449554 0
-0.0283798 0.00602412 0
-0.0278485 0.00524184 0
-0.0285948 0.00525983 0
-0.0276335 0.00600613 0
-0.0268872 0.0059881 0
-0.0254142 0.00596163 0
-0.0288098 0.0045151 0
-0.0261507 0.00597487 0
-0.027112 0.00523836 0
-0.0278485 0.0052516 0
-0.0234825 0.007386 0
-0.024861 0.00742709 0
-0.021482 0.0087645 0
-0.0241718 0.00740655 0
-0.0231715 0.0080958 0
-0.0224822 0.00807525 0
-0.0234827 0.007386 0
-0.0254318 0.00596978 0
-0.024899 0.00742709 0
-0.0244573 0.00667789 0
-0.0251654 0.00669843 0
-0.0241909 0.00740655 0
-0.0234825 0.00738589 0
-0.021482 0.00875231 0
-0.0221161 0.00734945 0
-0.0224822 0.0080691 0
-0.021799 0.00805088 0
-0.0227993 0.00736767 0
-0.0234827 0.00738589 0
-0.0220804 0.00734945 0
-0.0254318 0.00598354 0
-0.0227816 0.00736767 0
-0.0237561 0.00666649 0
-0.0244573 0.00668471 0
-0.0322788 0.00848098 0
-0.0307001 0.00804385 0
-0.0348835 0.00690227 0
-0.0314895 0.00826242 0
-0.0327918 0.00747306 0
-0.0335812 0.00769162 0
-0.0322753 0.00848098 0
-0.0294774 0.00991415 0
-0.0308422 0.00804385 0
-0.0308764 0.00919757 0
-0.0301598 0.008979 0
-0.0315588 0.00826242 0
-0.0322788 0.00848272 0
-0.0348835 0.00685389 0
-0.0339076 0.00902958 0
-0.0335812 0.0076683 0
-0.0343956 0.00794173 0
-0.0330932 0.00875615 0
-0.0322753 0.00848272 0
-0.0337309 0.00902958 0
-0.0294774 0.00993824 0
-0.0330031 0.00875615 0
-0.0316041 0.00948391 0
-0.0308764 0.00921048 0
-0.0331248 0.00646539 0
-0.0347838 0.00680255 0
-0.0307806 0.00812435 0
-0.0339543 0.00663397 0
-0.0327822 0.00746345 0
-0.0319527 0.00729487 0
-0.0331248 0.0064644 0
-0.0307806 0.00806934 0
-0.0315199 0.0062192 0
-0.0319527 0.00726687 0
-0.0311502 0.00714427 0
-0.0323224 0.0063418 0
-0.0331268 0.00646539 0
-0.0352207 0.00471719 0
-0.034875 0.00680255 0
-0.0341737 0.00559129 0
-0.0350478 0.00575987 0
-0.0340009 0.00663397 0
-0.0331268 0.0064644 0
-0.0314485 0.0062192 0
-0.0352207 0.00478606 0
-0.0322876 0.0063418 0
-0.0333346 0.00550263 0
-0.0341737 0.00562523 0
-0.0366227 0.00741918 0
-0.0338367 0.00910053 0
-0.0349414 0.00679604 0
-0.0352297 0.00825986 0
-0.034389 0.00794829 0
-0.035782 0.00710761 0
-0.0366227 0.00742217 0
-0.0383629 0.0082341 0
-0.0338367 0.00916234 0
-0.0374928 0.00782814 0
-0.0360998 0.00869822 0
-0.0352297 0.00829226 0
-0.0366287 0.00741918 0
-0.0347691 0.00679604 0
-0.0390374 0.00555961 0
-0.0356989 0.00710761 0
-0.0369033 0.00617783 0
-0.037833 0.0064894 0
-0.0366287 0.00742217 0
-0.0390374 0.00545597 0
-0.0385949 0.0082341 0
-0.037833 0.00643907 0
-0.0388161 0.00684503 0
-0.0376118 0.00782814 0
-0.0351782 0.00988577 0
-0.0317332 0.0111024 0
-0.0339616 0.00903239 0
-0.0334557 0.0104941 0
-0.0328474 0.0100674 0
-0.0345699 0.00945908 0
-0.0351838 0.00988577 0
-0.0337067 0.00903239 0
-0.0385375 0.00840869 0
-0.0344453 0.00945908 0
-0.0361221 0.00872054 0
-0.0368606 0.00914723 0
-0.0351782 0.00988857 0
-0.0363562 0.0108764 0
-0.0317332 0.0110665 0
-0.0357672 0.0103825 0
-0.0340447 0.0109715 0
-0.0334557 0.0104776 0
-0.0351838 0.00988857 0
-0.0385375 0.00840544 0
-0.036667 0.0108764 0
-0.0368606 0.009147 0
-0.0376022 0.0096409 0
-0.0359254 0.0103825 0
-0.0334993 0.00460221 0
-0.0318749 0.00452534 0
-0.0353081 0.0029778 0
-0.0326871 0.00456378 0
-0.0335915 0.00375157 0
-0.0344037 0.00379001 0
-0.0334993 0.00460221 0
-0.0314973 0.00621654 0
-0.031885 0.00452534 0
-0.0324983 0.00540938 0
-0.0316912 0.00537094 0
-0.0326921 0.00456378 0
-0.0334993 0.00460222 0
-0.0353081 0.00292622 0
-0.0351753 0.00473054 0
-0.0344037 0.00376422 0
-0.0352417 0.00382838 0
-0.0343373 0.00466638 0
-0.0334993 0.00460222 0
-0.0351651 0.00473054 0
-0.0314973 0.00626807 0
-0.0343322 0.00466638 0
-0.0333312 0.0054993 0
-0.0324983 0.00543514 0
-0.0303245 0.00450578 0
-0.0318657 0.00453002 0
-0.0283822 0.00604694 0
-0.0310951 0.0045179 0
-0.030124 0.00528848 0
-0.0293534 0.00527636 0
-0.0303242 0.00450578 0
-0.0321772 0.00295842 0
-0.0318715 0.00453002 0
-0.0312507 0.0037321 0
-0.0320244 0.00374422 0
-0.0310978 0.0045179 0
-0.0303245 0.00450595 0
-0.0283822 0.00602165 0
-0.0288088 0.0044965 0
-0.0293534 0.0052638 0
-0.0285955 0.00525908 0
-0.0295667 0.00450123 0
-0.0303242 0.00450595 0
-0.0287995 0.0044965 0
-0.0321772 0.00298126 0
-0.0295618 0.00450123 0
-0.0304884 0.00373888 0
-0.0312507 0.0037436 0
-0.0337163 0.00295912 0
-0.0352971 0.00296684 0
-0.0318895 0.00453992 0
-0.0345067 0.00296298 0
-0.0335933 0.00375338 0
-0.0328029 0.00374952 0
-0.0337163 0.00295973 0
-0.0318895 0.00451208 0
-0.032164 0.00297167 0
-0.0328029 0.0037359 0
-0.0320267 0.00374188 0
-0.0329402 0.0029657 0
-0.0337151 0.00295912 0
-0.0354563 0.00140802 0
-0.0352662 0.00296684 0
-0.0345857 0.00218357 0
-0.0353612 0.00218743 0
-0.0344907 0.00296298 0
-0.0337151 0.00295973 0
-0.0321828 0.00297167 0
-0.0354563 0.00142736 0
-0.0329489 0.0029657 0
-0.0338195 0.00219952 0
-0.0345857 0.00219355 0
-0.0370115 0.0050076 0
-0.0348743 0.00680324 0
-0.0352159 0.00472196 0
-0.0359429 0.00590542 0
-0.0350451 0.0057626 0
-0.0361137 0.00486478 0
-0.0370136 0.0050076 0
-0.0351742 0.00472196 0
-0.0387473 0.00316826 0
-0.0360939 0.00486478 0
-0.0369608 0.00394511 0
-0.0378804 0.00408793 0
-0.0370115 0.00500862 0
-0.0389042 0.00542637 0
-0.0348743 0.00690125 0
-0.0379578 0.00521749 0
-0.0368892 0.00616381 0
-0.0359429 0.00595493 0
-0.0370136 0.00500862 0
-0.0387473 0.0030559 0
-0.0389663 0.00542637 0
-0.0378804 0.00403226 0
-0.0388568 0.00424114 0
-0.0379899 0.00521749 0
-0.0369547 0.00301161 0
-0.0352141 0.00469177 0
-0.0352746 0.00295977 0
-0.0360844 0.00385169 0
-0.0352443 0.00382577 0
-0.0361146 0.00298569 0
-0.0369547 0.00301085 0
-0.0387056 0.00312663 0
-0.0352141 0.00476179 0
-0.0378302 0.00306874 0
-0.0369599 0.00394421 0
-0.0360844 0.00388632 0
-0.0369532 0.00301161 0
-0.0353186 0.00295977 0
-0.0384582 0.00137705 0
-0.0361359 0.00298569 0
-0.0368884 0.00216841 0
-0.0377057 0.00219433 0
-0.0369532 0.00301085 0
-0.0384582 0.00131769 0
-0.0386463 0.00312663 0
-0.0377057 0.00216427 0
-0.0385522 0.00222216 0
-0.0377998 0.00306874 0
-0.0207227 0.00732337 0
-0.0225661 0.00593626 0
-0.0221098 0.00735027 0
-0.0216444 0.00662982 0
-0.022338 0.00664327 0
-0.0214163 0.00733682 0
-0.0207226 0.00732337 0
-0.0220788 0.00735027 0
-0.0188615 0.00867958 0
-0.0214007 0.00733682 0
-0.0204702 0.00801493 0
-0.0197921 0.00800147 0
-0.0207227 0.0073233 0
-0.0193405 0.00729193 0
-0.0225661 0.00594106 0
-0.0200316 0.00730762 0
-0.0209533 0.0066165 0
-0.0216444 0.00663218 0
-0.0207226 0.0073233 0
-0.0188615 0.00867575 0
-0.0193701 0.00729193 0
-0.0197921 0.00799952 0
-0.0191158 0.00798384 0
-0.0200464 0.00730762 0
-0.0239892 0.00594679 0
-0.0221 0.00736013 0
-0.0225759 0.00592651 0
-0.0230446 0.00665346 0
-0.0223379 0.00664332 0
-0.0232826 0.00593665 0
-0.0239892 0.00594681 0
-0.0254115 0.00596317 0
-0.0221 0.00736904 0
-0.0247003 0.00595499 0
-0.0237557 0.0066661 0
-0.0230446 0.00665792 0
-0.0239893 0.00594679 0
-0.0225537 0.00592651 0
-0.0258443 0.00451123 0
-0.0232715 0.00593665 0
-0.024199 0.00521887 0
-0.0249168 0.00522901 0
-0.0239893 0.00594681 0
-0.0258443 0.00450212 0
-0.0254339 0.00596317 0
-0.0249168 0.00522447 0
-0.0256391 0.00523264 0
-0.0247116 0.00595499 0
-0.0211474 0.00590052 0
-0.0225521 0.00592701 0
-0.0193537 0.00730517 0
-0.0218498 0.00591376 0
-0.0209529 0.00661609 0
-0.0202506 0.00660284 0
-0.0211474 0.00590045 0
-0.0193537 0.00730371 0
-0.0197442 0.00586486 0
-0.0202506 0.00660208 0
-0.0195489 0.00658429 0
-0.0204458 0.00588265 0
-0.0211476 0.00590052 0
-0.0229335 0.00447614 0
-0.0225719 0.00592701 0
-0.0220405 0.00518833 0
-0.0227527 0.00520157 0
-0.0218598 0.00591376 0
-0.0211476 0.00590045 0
-0.0197257 0.00586486 0
-0.0229335 0.00447857 0
-0.0204366 0.00588265 0
-0.0213296 0.00517172 0
-0.0220405 0.00518951 0
-0.0179822 0.00725922 0
-0.0193385 0.00729194 0
-0.0162444 0.00861552 0
-0.0186603 0.00727558 0
-0.0177914 0.00795373 0
-0.0171133 0.00793737 0
-0.0179823 0.00725922 0
-0.019733 0.00587604 0
-0.0193655 0.00729194 0
-0.0188577 0.00656763 0
-0.0195492 0.00658399 0
-0.0186739 0.00727558 0
-0.0179822 0.00725915 0
-0.0162444 0.00861975 0
-0.0166216 0.00722015 0
-0.0171133 0.00793945 0
-0.016433 0.00791995 0
-0.0173019 0.00723965 0
-0.0179823 0.00725915 0
-0.016596 0.00722015 0
-0.019733 0.00587282 0
-0.0172891 0.00723965 0
-0.0181645 0.00654648 0
-0.0188577 0.00656598 0
-0.0273146 0.00449955 0
-0.0291574 0.00300961 0
-0.0288046 0.00449896 0
-0.028236 0.00375458 0
-0.028981 0.00375428 0
-0.0280596 0.00449925 0
-0.0273149 0.00449955 0
-0.0287936 0.00449896 0
-0.0254308 0.00597831 0
-0.0280543 0.00449925 0
-0.0271122 0.00523864 0
-0.0263729 0.00523893 0
-0.0273146 0.00449967 0
-0.0258349 0.00449813 0
-0.0291574 0.00301989 0
-0.0265747 0.0044989 0
-0.0274961 0.00375901 0
-0.028236 0.00375978 0
-0.0273149 0.00449967 0
-0.0254308 0.00596627 0
-0.0258483 0.00449813 0
-0.0263729 0.00523297 0
-0.0256396 0.0052322 0
-0.0265816 0.0044989 0
-0.030658 0.00299294 0
-0.0288087 0.0044948 0
-0.0291562 0.00301088 0
-0.0297334 0.00374387 0
-0.0289824 0.00375284 0
-0.0299071 0.00300191 0
-0.030658 0.00299257 0
-0.0321712 0.00297523 0
-0.0288087 0.00450576 0
-0.0314146 0.0029839 0
-0.03049 0.0037405 0
-0.0297334 0.00374917 0
-0.0306573 0.00299294 0
-0.0291552 0.00301088 0
-0.0324761 0.00149088 0
-0.0299062 0.00300191 0
-0.0308157 0.00225088 0
-0.0315667 0.00224191 0
-0.0306573 0.00299257 0
-0.0324761 0.00148513 0
-0.0321647 0.00297523 0
-0.0315667 0.00223885 0
-0.0323204 0.00223018 0
-0.031411 0.0029839 0
-0.0243832 0.00448948 0
-0.0258323 0.00449921 0
-0.0225657 0.00593856 0
-0.0251077 0.00449434 0
-0.024199 0.00521888 0
-0.0234745 0.00521402 0
-0.0243832 0.00448948 0
-0.0261811 0.00302627 0
-0.0258464 0.00449921 0
-0.0252821 0.00375788 0
-0.0260137 0.00376274 0
-0.0251148 0.00449434 0
-0.0243832 0.00448949 0
-0.0225657 0.00593322 0
-0.0229395 0.00447016 0
-0.0234745 0.00521135 0
-0.0227526 0.00520169 0
-0.0236613 0.00447982 0
-0.0243832 0.00448949 0
-0.0229252 0.00447016 0
-0.0261811 0.00303152 0
-0.0236542 0.00447982 0
-0.0245531 0.00375084 0
-0.0252821 0.0037605 0
-0.0276646 0.00302157 0
-0.0291502 0.00301261 0
-0.0258438 0.0045071 0
-0.0284074 0.00301709 0
-0.027497 0.00375985 0
-0.0267542 0.00376433 0
-0.0276646 0.00302172 0
-0.0258438 0.00450175 0
-0.0261846 0.00302276 0
-0.0267542 0.00376174 0
-0.0260142 0.00376226 0
-0.0269246 0.00302224 0
-0.0276643 0.00302157 0
-0.0294697 0.00152771 0
-0.0291581 0.00301261 0
-0.028567 0.00227464 0
-0.0293139 0.00227016 0
-0.0284112 0.00301709 0
-0.0276643 0.00302172 0
-0.0261734 0.00302276 0
-0.0294697 0.00153085 0
-0.0269189 0.00302224 0
-0.0278215 0.0022768 0
-0.028567 0.00227628 0
-0.0183914 0.00432904 0
-0.0191941 0.00710516 0
-0.0214067 0.00513171 0
-0.0187928 0.0057171 0
-0.0203004 0.00611844 0
-0.0198991 0.00473038 0
-0.0184477 0.00432904 0
-0.0154578 0.00374229 0
-0.0190345 0.00710516 0
-0.0169528 0.00403566 0
-0.0172461 0.00542372 0
-0.0187411 0.0057171 0
-0.0224079 0.00791864 0
-0.0215013 0.00522625 0
-0.0191009 0.00701199 0
-0.0219546 0.00657244 0
-0.0203011 0.00611912 0
-0.0207544 0.00746532 0
-0.0224079 0.00791813 0
-0.0191009 0.0070537 0
-0.0232724 0.010048 0
-0.0207544 0.00748592 0
-0.0211866 0.00855086 0
-0.0228401 0.00898307 0
-0.022409 0.00791864 0
-0.0259228 0.00904088 0
-0.0212867 0.00522625 0
-0.0241659 0.00847976 0
-0.0236048 0.00713356 0
-0.0218478 0.00657244 0
-0.022409 0.00791813 0
-0.0234972 0.010048 0
-0.0259228 0.00900638 0
-0.0229531 0.00898307 0
-0.02471 0.00952719 0
-0.0241659 0.00846225 0
-0.0271226 0.0109329 0
-0.0313608 0.0122274 0
-0.0258281 0.00918649 0
-0.0292417 0.0115801 0
-0.0285944 0.0107069 0
-0.0264753 0.0100597 0
-0.0271306 0.0109329 0
-0.0261029 0.00918649 0
-0.0233544 0.00990524 0
-0.0266167 0.0100597 0
-0.0247287 0.00954586 0
-0.0252425 0.0104191 0
-0.0271226 0.0109368 0
-0.0282431 0.0120177 0
-0.0313608 0.0120573 0
-0.0276828 0.0114773 0
-0.0298019 0.0120375 0
-0.0292417 0.0114971 0
-0.0271306 0.0109368 0
-0.0233544 0.0100196 0
-0.0280478 0.0120177 0
-0.0252425 0.0104782 0
-0.0257011 0.0110186 0
-0.0275892 0.0114773 0
-0.0248145 0.00610557 0
-0.0213898 0.00512316 0
-0.025797 0.00916674 0
-0.0231022 0.00561437 0
-0.0235934 0.00714495 0
-0.0253058 0.00763616 0
-0.0247113 0.00610557 0
-0.0260788 0.00916674 0
-0.0281985 0.00747306 0
-0.025395 0.00763616 0
-0.0271386 0.0083199 0
-0.0264549 0.00678931 0
-0.0298783 0.0104954 0
-0.0259119 0.00910265 0
-0.0312711 0.0123171 0
-0.0278951 0.00979901 0
-0.0285915 0.0107099 0
-0.0305747 0.0114062 0
-0.0298783 0.0104947 0
-0.0283835 0.00765809 0
-0.0259119 0.00899989 0
-0.0291309 0.0090764 0
-0.0271477 0.00832899 0
-0.0278951 0.0097473 0
-0.029877 0.0104954 0
-0.0316463 0.0123171 0
-0.0343004 0.0122646 0
-0.0307616 0.0114062 0
-0.0329733 0.0122909 0
-0.0320887 0.01138 0
-0.029877 0.0104947 0
-0.0343004 0.0123767 0
-0.027995 0.00765809 0
-0.0320887 0.0114357 0
-0.0311477 0.0100174 0
-0.028936 0.0090764 0
-0.0323021 0.0125914 0
-0.031573 0.0122696 0
-0.0280878 0.0118623 0
-0.0319376 0.0124305 0
-0.0298304 0.012066 0
-0.0301949 0.0122269 0
-0.0323021 0.0125974 0
-0.0280878 0.0120666 0
-0.0328329 0.0123758 0
-0.0301949 0.012332 0
-0.0304603 0.0122212 0
-0.0325675 0.0124866 0
-0.0322901 0.0125914 0
-0.0371855 0.0134138 0
-0.0314678 0.0122696 0
-0.0347378 0.0130026 0
-0.0343267 0.0128417 0
-0.031879 0.0124305 0
-0.0322901 0.0125974 0
-0.0328183 0.0123758 0
-0.0371855 0.0131256 0
-0.0325542 0.0124866 0
-0.0350019 0.0127507 0
-0.0347378 0.0128615 0
-0.0370614 0.012118 0
-0.0363543 0.0109078 0
-0.0417969 0.0114109 0
-0.0367079 0.0115129 0
-0.0390756 0.0111593 0
-0.0394291 0.0117644 0
-0.0370629 0.012118 0
-0.0327622 0.012518 0
-0.0366629 0.0109078 0
-0.0349126 0.012318 0
-0.0347125 0.0117129 0
-0.0368629 0.0115129 0
-0.0370614 0.0121172 0
-0.0417969 0.0116195 0
-0.0375592 0.0132055 0
-0.0394291 0.0118683 0
-0.039678 0.0124125 0
-0.0373103 0.0126614 0
-0.0370629 0.0121172 0
-0.0372654 0.0132055 0
-0.0327622 0.0123198 0
-0.0371642 0.0126614 0
-0.0350138 0.0127626 0
-0.0349126 0.0122185 0
-0.040182 0.00959685 0
-0.0416169 0.0112309 0
-0.0364784 0.0110318 0
-0.0408994 0.0104139 0
-0.0390476 0.0111314 0
-0.0383302 0.0103143 0
-0.040182 0.00959062 0
-0.0364784 0.0110649 0
-0.0387076 0.00823527 0
-0.0383302 0.0103278 0
-0.037593 0.00965011 0
-0.0394448 0.00891294 0
-0.0401944 0.00959685 0
-0.0436264 0.00765391 0
-0.0421374 0.0112309 0
-0.0419104 0.00862538 0
-0.0428819 0.00944241 0
-0.0411659 0.0104139 0
-0.0401944 0.00959062 0
-0.0383119 0.00823527 0
-0.0436264 0.00770807 0
-0.0392532 0.00891294 0
-0.0409691 0.00797167 0
-0.0419104 0.00864934 0
-0.0422847 0.0133398 0
-0.0372625 0.0135021 0
-0.0421224 0.0112939 0
-0.0397736 0.013421 0
-0.0396925 0.012398 0
-0.0422036 0.0123169 0
-0.0422847 0.0133349 0
-0.0421008 0.0151199 0
-0.0372625 0.0131509 0
-0.0421928 0.0142274 0
-0.0396817 0.0141354 0
-0.0397736 0.0132429 0
-0.0422749 0.0133398 0
-0.0416036 0.0112939 0
-0.0481547 0.0126685 0
-0.0419392 0.0123169 0
-0.0448792 0.0119812 0
-0.0452148 0.0130042 0
-0.0422749 0.0133349 0
-0.0481547 0.0130888 0
-0.0425209 0.0151199 0
-0.0452148 0.0132118 0
-0.0453378 0.0141044 0
-0.0423979 0.0142274 0
-0.0361047 0.0135268 0
-0.0313967 0.0123407 0
-0.0372908 0.0133084 0
-0.0337507 0.0129338 0
-0.0343437 0.0128246 0
-0.0366978 0.0134176 0
-0.0360791 0.0135268 0
-0.0374201 0.0133084 0
-0.0418487 0.0148678 0
-0.0367496 0.0134176 0
-0.0396344 0.0140881 0
-0.0389639 0.0141973 0
-0.0361047 0.013514 0
-0.0346582 0.0126225 0
-0.0313967 0.0120675 0
-0.0353814 0.0130682 0
-0.0330274 0.012345 0
-0.0337507 0.0127907 0
-0.0360791 0.013514 0
-0.0418487 0.0153204 0
-0.0342727 0.0126225 0
-0.0389639 0.0144172 0
-0.0380607 0.0139714 0
-0.0351759 0.0130682 0
-0.0411415 0.00625766 0
-0.0429904 0.00378386 0
-0.0436153 0.00740517 0
-0.042066 0.00502076 0
-0.0433029 0.00559452 0
-0.0423784 0.00683142 0
-0.0411312 0.00625766 0
-0.0433235 0.00740517 0
-0.0385266 0.00844995 0
-0.0422273 0.00683142 0
-0.040925 0.00792756 0
-0.0398289 0.00735381 0
-0.0411415 0.00625252 0
-0.0388923 0.00541208 0
-0.0429904 0.00400337 0
-0.0400169 0.0058323 0
-0.0409414 0.00470772 0
-0.042066 0.00512794 0
-0.0411312 0.00625252 0
-0.0385266 0.00830242 0
-0.0390813 0.00541208 0
-0.0398289 0.00727747 0
-0.0388039 0.00685725 0
-0.0401062 0.0058323 0
-0.0458498 0.0095645 0
-0.0418341 0.0115342 0
-0.0438801 0.00740016 0
-0.043842 0.0105493 0
-0.0428571 0.00946716 0
-0.044865 0.00848233 0
-0.0458844 0.0095645 0
-0.043214 0.00740016 0
-0.0491063 0.00689404 0
-0.0445492 0.00848233 0
-0.0461601 0.0071471 0
-0.0474954 0.00822927 0
-0.0458498 0.00958181 0
-0.0477925 0.0123062 0
-0.0418341 0.0115245 0
-0.0468211 0.010944 0
-0.0448133 0.0119153 0
-0.043842 0.0105531 0
-0.0458844 0.00958181 0
-0.0491063 0.00666137 0
-0.0488049 0.0123062 0
-0.0474954 0.00812159 0
-0.0489556 0.0094838 0
-0.0473446 0.010944 0
-0.0455772 0.00481534 0
-0.0435957 0.00742471 0
-0.0429678 0.00380646 0
-0.0445865 0.00612002 0
-0.0432818 0.00561558 0
-0.0442725 0.0043109 0
-0.0455772 0.00482169 0
-0.0485375 0.00632517 0
-0.0435957 0.00778193 0
-0.0470573 0.00557343 0
-0.0460666 0.00705355 0
-0.0445865 0.00630181 0
-0.0455899 0.00481534 0
-0.0428516 0.00380646 0
-0.0460302 0.00207705 0
-0.0442208 0.0043109 0
-0.0444409 0.00294175 0
-0.0458101 0.0034462 0
-0.0455899 0.00482169 0
-0.0460302 0.00163091 0
-0.0487807 0.00632517 0
-0.0458101 0.0032263 0
-0.0474055 0.00397804 0
-0.0471853 0.00557343 0
-0.0406753 0.00338811 0
-0.0428275 0.00384044 0
-0.0390205 0.00554028 0
-0.0417514 0.00361427 0
-0.040924 0.00469036 0
-0.0398479 0.00446419 0
-0.0406753 0.00338821 0
-0.0390205 0.00537214 0
-0.0386914 0.00311176 0
-0.0398479 0.00438018 0
-0.038856 0.00424195 0
-0.0396834 0.00324999 0
-0.0406751 0.00338811 0
-0.041713 0.00128658 0
-0.0427767 0.00384044 0
-0.0411941 0.00233734 0
-0.0422448 0.00256351 0
-0.0417259 0.00361427 0
-0.0406751 0.00338821 0
-0.0387402 0.00311176 0
-0.041713 0.00145325 0
-0.0397077 0.00324999 0
-0.0402266 0.0022825 0
-0.0411941 0.00242073 0
-0.0320756 0.00913942 0
-0.0346696 0.012629 0
-0.0365624 0.0117334 0
-0.0333726 0.0108842 0
-0.035616 0.0121812 0
-0.034319 0.0104364 0
-0.0323652 0.00913942 0
-0.0281966 0.00745647 0
-0.0340481 0.012629 0
-0.0302809 0.00829795 0
-0.0311224 0.0100427 0
-0.0332067 0.0108842 0
-0.0396059 0.014818 0
-0.0370498 0.0122209 0
-0.0343025 0.0122619 0
-0.0383278 0.0135194 0
-0.0356761 0.0122414 0
-0.0369542 0.0135399 0
-0.0396059 0.0148324 0
-0.0343025 0.0125927 0
-0.0418457 0.0153235 0
-0.0369542 0.0137125 0
-0.0380741 0.0139581 0
-0.0407258 0.015078 0
-0.0395769 0.014818 0
-0.0463443 0.0181759 0
-0.036219 0.0122209 0
-0.0429606 0.0164969 0
-0.0412816 0.0151984 0
-0.0378979 0.0135194 0
-0.0395769 0.0148324 0
-0.0423867 0.0153235 0
-0.0463443 0.0176422 0
-0.0409818 0.015078 0
-0.0443655 0.0164828 0
-0.0429606 0.0162373 0
-0.0482426 0.0161208 0
-0.0477909 0.0124813 0
-0.056653 0.0156691 0
-0.0480168 0.0143011 0
-0.052222 0.0140752 0
-0.0524478 0.015895 0
-0.0482895 0.0161208 0
-0.0419927 0.0156481 0
-0.0487623 0.0124813 0
-0.0451411 0.0158844 0
-0.0453775 0.0140647 0
-0.0485259 0.0143011 0
-0.0482426 0.0160974 0
-0.056653 0.0167157 0
-0.0476243 0.0184196 0
-0.0524478 0.0164065 0
-0.0521387 0.0175676 0
-0.0479335 0.0172585 0
-0.0482895 0.0160974 0
-0.0471216 0.0184196 0
-0.0419927 0.0149295 0
-0.0477056 0.0172585 0
-0.0445572 0.0166746 0
-0.0451411 0.0155135 0
-0.0526144 0.00977865 0
-0.0557941 0.0148102 0
-0.048268 0.0129584 0
-0.0542043 0.0122944 0
-0.0520311 0.0138843 0
-0.0504412 0.0113685 0
-0.0526144 0.00972264 0
-0.048268 0.0128431 0
-0.0494939 0.00627376 0
-0.0504412 0.0112829 0
-0.048881 0.00955843 0
-0.0510542 0.0079982 0
-0.0527264 0.00977865 0
-0.0544911 0.00437299 0
-0.0581321 0.0148102 0
-0.0536088 0.00707582 0
-0.0563116 0.00959161 0
-0.0554292 0.0122944 0
-0.0527264 0.00972264 0
-0.0482761 0.00627376 0
-0.0544911 0.00527233 0
-0.0505012 0.0079982 0
-0.0513836 0.00577305 0
-0.0536088 0.00749749 0
-0.0423797 0.0146397 0
-0.0369096 0.0115303 0
-0.0454891 0.019031 0
-0.0396446 0.013085 0
-0.0411994 0.0152807 0
-0.0439344 0.0168354 0
-0.0406057 0.0146397 0
-0.0477808 0.019031 0
-0.0490322 0.0218148 0
-0.0441932 0.0168354 0
-0.0484065 0.0204229 0
-0.0448189 0.0182273 0
-0.055791 0.0217779 0
-0.0465245 0.0195195 0
-0.0580494 0.0153193 0
-0.0511577 0.0206487 0
-0.052287 0.0174194 0
-0.0569202 0.0185486 0
-0.055791 0.0216226 0
-0.0519431 0.0247257 0
-0.0465245 0.0177747 0
-0.053867 0.0231742 0
-0.0492338 0.0212502 0
-0.0511577 0.0196987 0
-0.0554805 0.0217779 0
-0.0556061 0.0153193 0
-0.0720774 0.0219035 0
-0.0555433 0.0185486 0
-0.0638418 0.0186114 0
-0.0637789 0.0218407 0
-0.0554805 0.0216226 0
-0.0720774 0.0258219 0
-0.0512812 0.0247257 0
-0.0637789 0.0237223 0
-0.0616793 0.0252738 0
-0.0533808 0.0231742 0
0.0312793 0 0
0.0297452 0 0
0.0294698 0.001534 0
0.0305122 0 0
0.0296075 0.000767002 0
0.0303745 0.000767002 0
0.0312793 0 0
0.0294698 0.00152799 0
0.0328072 0 0
0.0303745 0.000763993 0
0.0311385 0.000763993 0
0.0320432 0 0
0.0279611 0.0015278 0
0.0294788 0.00152496 0
0.0297351 1.01267e-05 0
0.02872 0.00152638 0
0.029607 0.000767544 0
0.0288481 0.000768963 0
0.0279614 0.0015278 0
0.0261809 0.00303024 0
0.0294638 0.00152496 0
0.0270711 0.00227902 0
0.0278223 0.0022776 0
0.0287126 0.00152638 0
0.0279611 0.00152791 0
0.0297351 1.11391e-05 0
0.0264443 0.00152302 0
0.0288481 0.000769527 0
0.0280897 0.000767079 0
0.0272027 0.00152547 0
0.0279614 0.00152791 0
0.0264617 0.00152302 0
0.0261809 0.00302762 0
0.0272115 0.00152547 0
0.0263213 0.00227532 0
0.0270711 0.00227777 0
0.0247037 0.00300897 0
0.0264571 0.0015326 0
0.0232274 0.00298339 0
0.0255804 0.00227078 0
0.0248422 0.002258 0
0.0239656 0.00299618 0
0.0247037 0.00300901 0
0.0261852 0.00302332 0
0.0264571 0.00152756 0
0.0254445 0.00301616 0
0.0263212 0.00227544 0
0.0255804 0.00226828 0
0.0247037 0.00300897 0
0.0232388 0.00298339 0
0.0229333 0.00447381 0
0.0239712 0.00299618 0
0.023086 0.0037286 0
0.0238185 0.00374139 0
0.0247037 0.00300901 0
0.0229333 0.00447823 0
0.0261729 0.00302332 0
0.0238185 0.00374362 0
0.0245531 0.00375078 0
0.0254383 0.00301616 0
0.0281883 0 0
0.026457 0.00153566 0
0.029724 0 0
0.0273227 0.000767832 0
0.0280905 0.000767832 0
0.0289561 0 0
0.0281883 0 0
0.0266588 0 0
0.026457 0.00152949 0
0.0274236 0 0
0.0265579 0.000764745 0
0.0273227 0.000764745 0
0.0249618 0.00150653 0
0.023236 0.00299206 0
0.0264474 0.00152284 0
0.0240989 0.0022493 0
0.0248417 0.00225745 0
0.0257046 0.00151469 0
0.0249622 0.00150653 0
0.0264636 0.00152284 0
0.0266538 5.04279e-06 0
0.0257129 0.00151469 0
0.0265587 0.000763943 0
0.025808 0.000755787 0
0.0249618 0.00150637 0
0.0234847 0.00148144 0
0.023236 0.00298345 0
0.0242233 0.0014939 0
0.0233604 0.00223244 0
0.0240989 0.00224491 0
0.0249622 0.00150637 0
0.0266538 1.59547e-05 0
0.0234717 0.00148144 0
0.025808 0.000761161 0
0.0250628 0.000748697 0
0.0242169 0.0014939 0
0.0214881 0.00443485 0
0.0229369 0.00447019 0
0.0232362 0.00298602 0
0.0222125 0.00445252 0
0.0230865 0.0037281 0
0.0223621 0.00371043 0
0.0214878 0.00443485 0
0.019733 0.00587214 0
0.0229251 0.00447019 0
0.0206104 0.00515349 0
0.021329 0.00517117 0
0.0222064 0.00445252 0
0.0214881 0.00443471 0
0.0232362 0.00298878 0
0.0200421 0.00438789 0
0.0223621 0.00371174 0
0.0216392 0.00368833 0
0.0207651 0.0044113 0
0.0214878 0.00443471 0
0.0200512 0.00438789 0
0.019733 0.0058713 0
0.0207695 0.0044113 0
0.0198921 0.0051296 0
0.0206104 0.00515301 0
0.0183154 0.00581764 0
0.0200458 0.00438924 0
0.016887 0.00576315 0
0.0191806 0.00510344 0
0.0184664 0.00507619 0
0.0176012 0.0057904 0
0.0183154 0.00581778 0
0.0197399 0.0058644 0
0.0200458 0.00439332 0
0.0190277 0.00584109 0
0.0198928 0.00512886 0
0.0191806 0.00510555 0
0.0183151 0.00581764 0
0.0168995 0.00576315 0
0.016603 0.00723328 0
0.0176073 0.0057904 0
0.0167513 0.00649821 0
0.0174591 0.00652546 0
0.0183151 0.00581778 0
0.016603 0.00722722 0
0.0197246 0.0058644 0
0.0174591 0.0065225 0
0.0181638 0.00654581 0
0.0190199 0.00584109 0
0.0186028 0.00432255 0
0.0168869 0.00576308 0
0.0200434 0.00438683 0
0.0177449 0.00504281 0
0.0184652 0.00507495 0
0.0193231 0.00435469 0
0.0186034 0.00432255 0
0.0200462 0.00438683 0
0.0203307 0.00287977 0
0.0193248 0.00435469 0
0.0201884 0.0036333 0
0.019467 0.00360116 0
0.0186028 0.00432225 0
0.0171568 0.00425008 0
0.0168869 0.00576824 0
0.0178798 0.00428616 0
0.0170219 0.00500916 0
0.0177449 0.00504525 0
0.0186034 0.00432225 0
0.0203307 0.00287873 0
0.0171599 0.00425008 0
0.019467 0.00360049 0
0.0187453 0.0035644 0
0.0178817 0.00428616 0
0.0217771 0.00293832 0
0.0200458 0.00439157 0
0.0232303 0.00298294 0
0.0209115 0.00366495 0
0.0216381 0.00368725 0
0.0225037 0.00296063 0
0.0217771 0.00293806 0
0.0203279 0.00288252 0
0.0200458 0.00438722 0
0.0210525 0.00291029 0
0.0201869 0.00363487 0
0.0209115 0.00366264 0
0.0217776 0.00293832 0
0.0232366 0.00298294 0
0.0234868 0.00147939 0
0.0225071 0.00296063 0
0.0233617 0.00223116 0
0.0226322 0.00220885 0
0.0217776 0.00293806 0
0.0234868 0.00148746 0
0.020327 0.00288252 0
0.0226322 0.00221276 0
0.0219069 0.00218499 0
0.0210523 0.00291029 0
0.0152125 0.00718072 0
0.016617 0.0072193 0
0.0168864 0.00577623 0
0.0159148 0.00720001 0
0.0167517 0.00649777 0
0.0160495 0.00647848 0
0.0152124 0.00718072 0
0.0135874 0.00856074 0
0.0165925 0.0072193 0
0.0143999 0.00787073 0
0.0150899 0.00789002 0
0.0159024 0.00720001 0
0.0152125 0.00718066 0
0.0168864 0.00576354 0
0.0137954 0.00714126 0
0.0160495 0.0064721 0
0.0153409 0.0064524 0
0.014504 0.00716096 0
0.0152124 0.00718066 0
0.0138189 0.00714126 0
0.0135874 0.00857421 0
0.0145157 0.00716096 0
0.0137032 0.00785774 0
0.0143999 0.00787744 0
0.0251417 0 0
0.0236657 0 0
0.0234864 0.00147596 0
0.0244037 0 0
0.0235761 0.00073798 0
0.0243141 0.00073798 0
0.0251417 0 0
0.0234864 0.00149614 0
0.0266378 0 0
0.0243141 0.000748072 0
0.0250621 0.000748072 0
0.0258898 0 0
0.0220345 0.00144063 0
0.0234827 0.00147969 0
0.0236733 -7.552e-06 0
0.0227586 0.00146016 0
0.023578 0.000736068 0
0.0228539 0.000716538 0
0.0220335 0.00144063 0
0.0203306 0.00288613 0
0.023479 0.00147969 0
0.0211821 0.00216338 0
0.0219048 0.00218291 0
0.0227563 0.00146016 0
0.0220345 0.00144012 0
0.0236733 1.43627e-05 0
0.0206088 0.001394 0
0.0228539 0.000727243 0
0.022141 0.000704179 0
0.0213217 0.00141706 0
0.0220335 0.00144012 0
0.0206024 0.001394 0
0.0203306 0.00287128 0
0.021318 0.00141706 0
0.0204665 0.00213264 0
0.0211821 0.0021557 0
0.0188939 0.00280397 0
0.0174557 0.002722 0
0.0171532 0.00424214 0
0.0181748 0.00276299 0
0.0173045 0.00348207 0
0.0180236 0.00352306 0
0.0188939 0.00280451 0
0.0171532 0.00424339 0
0.0203328 0.00288082 0
0.0180236 0.00352395 0
0.018743 0.0035621 0
0.0196133 0.00284267 0
0.018895 0.00280397 0
0.020618 0.00138725 0
0.0174783 0.002722 0
0.0197565 0.00209561 0
0.0190481 0.00205463 0
0.0181866 0.00276299 0
0.018895 0.00280451 0
0.0203211 0.00288082 0
0.020618 0.0013784 0
0.019608 0.00284267 0
0.0204695 0.00212961 0
0.0197565 0.00209145 0
0.0154456 0.00570227 0
0.0168936 0.00576155 0
0.0171526 0.00425427 0
0.0161696 0.00573191 0
0.0170231 0.00500791 0
0.0162991 0.00497827 0
0.0154456 0.0057021 0
0.0171526 0.00424007 0
0.0139836 0.00564431 0
0.0162991 0.00497109 0
0.0155681 0.00494219 0
0.0147146 0.0056732 0
0.0154453 0.00570227 0
0.0137956 0.00714142 0
0.0168844 0.00576155 0
0.0146204 0.00642185 0
0.01534 0.00645149 0
0.0161649 0.00573191 0
0.0154453 0.0057021 0
0.0139893 0.00564431 0
0.0137956 0.00715804 0
0.0147173 0.0056732 0
0.0138925 0.00640117 0
0.0146204 0.00643007 0
0.0156934 0.00416562 0
0.0171479 0.00424748 0
0.0174666 0.00271115 0
0.0164206 0.00420655 0
0.0173072 0.00347932 0
0.01658 0.00343838 0
0.0156925 0.00416562 0
0.0139724 0.00563314 0
0.0171601 0.00424748 0
0.0148325 0.00489938 0
0.0155662 0.00494031 0
0.0164263 0.00420655 0
0.0156934 0.00416519 0
0.0174666 0.00269982 0
0.014228 0.00408819 0
0.01658 0.0034325 0
0.0158473 0.003394 0
0.0149607 0.00412669 0
0.0156925 0.00416519 0
0.0142072 0.00408819 0
0.0139724 0.00565048 0
0.0149499 0.00412669 0
0.0140898 0.00486934 0
0.0148325 0.00490784 0
0.0222563 0 0
0.0206173 0.00140257 0
0.0236589 0 0
0.0214368 0.000701284 0
0.0221381 0.000701284 0
0.0229576 0 0
0.0222563 0 0
0.0208897 0 0
0.0206173 0.00136668 0
0.021573 0 0
0.0207535 0.00068334 0
0.0214368 0.00068334 0
0.0192361 0.00132591 0
0.0174669 0.00271067 0
0.0206209 0.00139014 0
0.0183515 0.00201829 0
0.0190439 0.00205041 0
0.0199285 0.00135802 0
0.0192382 0.00132591 0
0.0205939 0.00139014 0
0.0209195 -2.98295e-05 0
0.019916 0.00135802 0
0.0207567 0.000680155 0
0.0200788 0.000648038 0
0.0192361 0.00132488 0
0.0178683 0.00125925 0
0.0174669 0.00269266 0
0.0185522 0.00129207 0
0.0176676 0.00197596 0
0.0183515 0.00200877 0
0.0192382 0.00132488 0
0.0209195 2.58846e-06 0
0.0179159 0.00125925 0
0.0200788 0.000663733 0
0.0194177 0.000630921 0
0.018577 0.00129207 0
0.0122355 0.00854151 0
0.0137944 0.00714621 0
0.0108402 0.00853998 0
0.013015 0.00784386 0
0.0123173 0.0078431 0
0.0115379 0.00854074 0
0.0122355 0.00854142 0
0.0136112 0.00855044 0
0.0137944 0.00716572 0
0.0129234 0.00854593 0
0.0137028 0.00785808 0
0.013015 0.00785357 0
0.0122357 0.00854151 0
0.0108816 0.00853998 0
0.0107509 0.00989561 0
0.0115586 0.00854074 0
0.0108162 0.0092178 0
0.0114933 0.00921856 0
0.0122357 0.00854142 0
0.0107509 0.00987736 0
0.0135716 0.00855044 0
0.0114933 0.00920939 0
0.0121613 0.0092139 0
0.0129037 0.00854593 0
0.0123593 0.00711799 0
0.0108465 0.00854629 0
0.0137876 0.00713936 0
0.0116029 0.00783214 0
0.0123171 0.00784282 0
0.0130734 0.00712868 0
0.0123591 0.00711799 0
0.0138143 0.00713936 0
0.0139708 0.00566286 0
0.0130867 0.00712868 0
0.0138925 0.00640111 0
0.013165 0.00639043 0
0.0123593 0.00711806 0
0.0109061 0.00711158 0
0.0108465 0.00857125 0
0.0116327 0.00711482 0
0.0108763 0.00784141 0
0.0116029 0.00784465 0
0.0123591 0.00711806 0
0.0139708 0.0056369 0
0.010878 0.00711158 0
0.013165 0.00637748 0
0.0124244 0.00637424 0
0.0116186 0.00711482 0
0.00946577 0.0098955 0
0.0107847 0.00986179 0
0.010845 0.00857657 0
0.0101252 0.00987864 0
0.0108149 0.00921918 0
0.0101554 0.00923604 0
0.00946621 0.0098955 0
0.00817077 0.0111566 0
0.0107273 0.00986179 0
0.00881849 0.0105261 0
0.00944905 0.0105092 0
0.0100968 0.00987864 0
0.00946577 0.00989573 0
0.010845 0.00855547 0
0.00812551 0.00994193 0
0.0101554 0.0092256 0
0.00948526 0.0092487 0
0.00879564 0.00991883 0
0.00946621 0.00989573 0
0.00818734 0.00994193 0
0.00817077 0.0111746 0
0.00882678 0.00991883 0
0.00817905 0.0105583 0
0.00881849 0.0105352 0
0.0069952 0.0112044 0
0.00583925 0.0112833 0
0.0059214 0.0123604 0
0.00641722 0.0112439 0
0.00588033 0.0118219 0
0.0064583 0.0117824 0
0.0069952 0.0112042 0
0.0059214 0.0123481 0
0.00813906 0.0111337 0
0.0064583 0.0117761 0
0.00703023 0.0117409 0
0.00756713 0.011169 0
0.00699468 0.0112044 0
0.00814206 0.00997125 0
0.00576148 0.0112833 0
0.00756837 0.0105878 0
0.00695177 0.0106273 0
0.00637808 0.0112439 0
0.00699468 0.0112042 0
0.00821166 0.0111337 0
0.00814206 0.00998721 0
0.00760317 0.011169 0
0.00817686 0.0105605 0
0.00756837 0.0105957 0
0.00489985 0.0123943 0
0.00596376 0.012318 0
0.00579215 0.0113304 0
0.00543181 0.0123562 0
0.00587796 0.0118242 0
0.005346 0.0118624 0
0.00490017 0.0123943 0
0.00405576 0.0133782 0
0.00588405 0.012318 0
0.00447796 0.0128863 0
0.0049699 0.0128481 0
0.00539211 0.0123562 0
0.00489985 0.0123945 0
0.00579215 0.0113247 0
0.00383006 0.0124621 0
0.005346 0.0118596 0
0.00481111 0.0118934 0
0.00436495 0.0124283 0
0.00490017 0.0123945 0
0.00391303 0.0124621 0
0.00405576 0.0133816 0
0.0044066 0.0124283 0
0.00398439 0.0129219 0
0.00447796 0.0128881 0
0.00496169 0.013299 0
0.00589986 0.0132438 0
0.00592185 0.0123608 0
0.00543077 0.0132714 0
0.00591085 0.0128023 0
0.00544177 0.0128299 0
0.00496169 0.0132991 0
0.00592185 0.0123558 0
0.00401843 0.0133409 0
0.00544177 0.0128275 0
0.00497014 0.0128484 0
0.00449006 0.01332 0
0.00496187 0.013299 0
0.00403889 0.014159 0
0.0058219 0.0132438 0
0.00450038 0.013729 0
0.00493039 0.0137014 0
0.00539188 0.0132714 0
0.00496187 0.0132991 0
0.00409821 0.0133409 0
0.00403889 0.0141628 0
0.00453004 0.01332 0
0.00406855 0.0137518 0
0.00450038 0.0137309 0
0.0068417 0.0100432 0
0.00579191 0.0113137 0
0.00811228 0.00994147 0
0.0063168 0.0106785 0
0.00695209 0.0106276 0
0.00747699 0.00999232 0
0.00684084 0.0100432 0
0.00818674 0.00994147 0
0.00799321 0.00869726 0
0.00751379 0.00999232 0
0.00808998 0.00931937 0
0.00741703 0.00937021 0
0.0068417 0.0100436 0
0.00555476 0.0101687 0
0.00579191 0.0113305 0
0.00619823 0.0101062 0
0.00567333 0.0107496 0
0.0063168 0.0106871 0
0.00684084 0.0100436 0
0.00799321 0.00867452 0
0.00547177 0.0101687 0
0.00741703 0.00935905 0
0.00673249 0.00942163 0
0.00615631 0.0101062 0
0.00944813 0.00857983 0
0.00814318 0.0099596 0
0.0108279 0.00853836 0
0.00879565 0.00926971 0
0.00948553 0.00924898 0
0.010138 0.00855909 0
0.00944813 0.00858016 0
0.00804324 0.00864723 0
0.00814318 0.00998504 0
0.00874568 0.00861369 0
0.00809321 0.00931614 0
0.00879565 0.0092826 0
0.00944747 0.00857983 0
0.0108794 0.00853836 0
0.0108698 0.00714789 0
0.0101634 0.00855909 0
0.0108746 0.00784312 0
0.0101586 0.00786386 0
0.00944747 0.00858016 0
0.0108698 0.00711785 0
0.00798517 0.00864723 0
0.0101586 0.007849 0
0.00942748 0.00788254 0
0.00871632 0.00861369 0
0.00331447 0.0141443 0
0.0025891 0.0148312 0
0.00400143 0.0141245 0
0.00295179 0.0144878 0
0.00329527 0.0144779 0
0.00365795 0.0141344 0
0.00331453 0.0141443 0
0.00407717 0.0141245 0
0.00405746 0.0133816 0
0.00369585 0.0141344 0
0.00406731 0.0137531 0
0.00368599 0.013763 0
0.00331447 0.0141442 0
0.00262935 0.0141287 0
0.0025891 0.0148294 0
0.00297191 0.0141365 0
0.00260923 0.014479 0
0.00295179 0.0144868 0
0.00331453 0.0141442 0
0.00405746 0.0133839 0
0.00255422 0.0141287 0
0.00368599 0.0137641 0
0.00330584 0.0137563 0
0.00293437 0.0141365 0
0.0031902 0.0148022 0
0.00404032 0.0141634 0
0.00255132 0.0147935 0
0.00361526 0.0144828 0
0.00329582 0.0144784 0
0.00287076 0.0147979 0
0.0031902 0.0148023 0
0.00382941 0.0147797 0
0.00404032 0.0141631 0
0.00350981 0.014791 0
0.00393487 0.0144714 0
0.00361526 0.0144827 0
0.00319013 0.0148022 0
0.00262777 0.0147935 0
0.00235584 0.0153646 0
0.00290895 0.0147979 0
0.0024918 0.015079 0
0.00277299 0.0150834 0
0.00319013 0.0148023 0
0.00235584 0.0153644 0
0.00375228 0.0147797 0
0.00277299 0.0150834 0
0.00305406 0.0150721 0
0.00347121 0.014791 0
0.00322358 0.0133734 0
0.00387165 0.0125092 0
0.00235936 0.0133647 0
0.00354761 0.0129413 0
0.00311551 0.0129369 0
0.00279147 0.013369 0
0.00322358 0.0133734 0
0.00409352 0.0133439 0
0.00387165 0.0125035 0
0.00365855 0.0133586 0
0.00398258 0.0129237 0
0.00354761 0.0129385 0
0.00322353 0.0133734 0
0.002435 0.0133647 0
0.00259284 0.0141619 0
0.00282927 0.013369 0
0.00251392 0.0137633 0
0.00290819 0.0137677 0
0.00322353 0.0133734 0
0.00259284 0.0141673 0
0.00401739 0.0133439 0
0.00290819 0.0137704 0
0.00330512 0.0137556 0
0.00362046 0.0133586 0
0.00465524 0.0114045 0
0.0038695 0.0125015 0
0.00575231 0.0112849 0
0.00426237 0.011953 0
0.00481091 0.0118932 0
0.00520377 0.0113447 0
0.00465524 0.0114048 0
0.00355583 0.0115254 0
0.0038695 0.0125042 0
0.00410554 0.0114651 0
0.00371267 0.0120148 0
0.00426237 0.0119545 0
0.00465468 0.0114045 0
0.00583756 0.0112849 0
0.0055019 0.0102216 0
0.00524612 0.0113447 0
0.00566973 0.0107532 0
0.00507829 0.010813 0
0.00465468 0.0114048 0
0.0055019 0.0102151 0
0.00346502 0.0115254 0
0.00507829 0.0108099 0
0.00448346 0.0108702 0
0.00405985 0.0114651 0
0.00294948 0.012527 0
0.00240066 0.013406 0
0.00382844 0.012466 0
0.00267507 0.0129665 0
0.00311455 0.012936 0
0.00338896 0.0124965 0
0.00294953 0.012527 0
0.0039077 0.012466 0
0.00351238 0.0115688 0
0.00342862 0.0124965 0
0.00371004 0.0120174 0
0.00323095 0.0120479 0
0.00294948 0.012527 0
0.00208129 0.0125477 0
0.00240066 0.0133952 0
0.00251538 0.0125374 0
0.00224097 0.0129714 0
0.00267507 0.0129611 0
0.00294953 0.012527 0
0.00351238 0.01158 0
0.00200258 0.0125477 0
0.00323095 0.0120535 0
0.00275748 0.0120639 0
0.00247605 0.0125374 0
0.00204712 0.0147366 0
0.0026215 0.014797 0
0.00259577 0.0141622 0
0.00233431 0.0147668 0
0.00260863 0.0144796 0
0.00232145 0.0144494 0
0.00204712 0.0147365 0
0.00259577 0.0141703 0
0.001481 0.0146125 0
0.00232145 0.0144534 0
0.00203838 0.0143914 0
0.00176406 0.0146745 0
0.00204679 0.0147366 0
0.00149885 0.0152445 0
0.00255463 0.014797 0
0.00177282 0.0149905 0
0.00202674 0.0150207 0
0.00230071 0.0147668 0
0.00204679 0.0147365 0
0.00154456 0.0146125 0
0.00149885 0.0152387 0
0.00179568 0.0146745 0
0.00152171 0.0149256 0
0.00177282 0.0149876 0
0.00196417 0.0140527 0
0.00262172 0.014133 0
0.0024045 0.0133952 0
0.00229294 0.0140929 0
0.00251311 0.0137641 0
0.00218433 0.013724 0
0.00196373 0.0140527 0
0.00151598 0.0146475 0
0.00255849 0.014133 0
0.00173986 0.0143501 0
0.00203723 0.0143903 0
0.00226111 0.0140929 0
0.00196417 0.0140525 0
0.0024045 0.0134094 0
0.00132108 0.0138965 0
0.00218433 0.013731 0
0.00186279 0.013653 0
0.00164262 0.0139745 0
0.00196373 0.0140525 0
0.00137996 0.0138965 0
0.00151598 0.0146363 0
0.00167185 0.0139745 0
0.00144797 0.0142664 0
0.00173986 0.0143444 0
0.00192547 0.0152957 0
0.00239136 0.0153291 0
0.00259145 0.0148298 0
0.00215842 0.0153124 0
0.00249141 0.0150794 0
0.00225846 0.0150627 0
0.00192521 0.0152957 0
0.00126387 0.0156908 0
0.00232036 0.0153291 0
0.00159454 0.0154932 0
0.00179211 0.0155099 0
0.00212278 0.0153124 0
0.00192547 0.0152955 0
0.00259145 0.0148338 0
0.00146374 0.0152093 0
0.00225846 0.0150647 0
0.0020276 0.0150216 0
0.00169461 0.0152524 0
0.00192521 0.0152955 0
0.00153213 0.0152093 0
0.00126387 0.0156886 0
0.00172867 0.0152524 0
0.001398 0.015449 0
0.00159454 0.0154921 0
0.00156345 0.0157024 0
0.0019009 0.0157076 0
0.00235775 0.0153649 0
0.00173217 0.015705 0
0.00212933 0.0155363 0
0.0019606 0.0155336 0
0.00156345 0.0157023 0
0.00235775 0.0153665 0
0.00122766 0.0156546 0
0.0019606 0.0155344 0
0.00179271 0.0155105 0
0.00139556 0.0156784 0
0.00156325 0.0157024 0
0.000774287 0.0159647 0
0.00182561 0.0157076 0
0.00116877 0.0158336 0
0.00129995 0.0158362 0
0.00169443 0.015705 0
0.00156325 0.0157023 0
0.00130095 0.0156546 0
0.000774287 0.0159646 0
0.0014321 0.0156784 0
0.00103762 0.0158096 0
0.00116877 0.0158334 0
0.00936594 0.00716394 0
0.010903 0.0071085 0
0.0109034 0.00562683 0
0.0101345 0.00713622 0
0.0109032 0.00636766 0
0.0101347 0.00639538 0
0.00936688 0.00716394 0
0.00799543 0.00865749 0
0.0108604 0.0071085 0
0.00868115 0.00791071 0
0.00942793 0.00788299 0
0.0101137 0.00713622 0
0.00936594 0.00716441 0
0.0109034 0.00558345 0
0.00778498 0.00726594 0
0.0101347 0.00637393 0
0.00934418 0.0064247 0
0.00857546 0.00721517 0
0.00936688 0.00716441 0
0.00783699 0.00726594 0
0.00799543 0.0086943 0
0.00860193 0.00721517 0
0.00791621 0.00798012 0
0.00868115 0.00792935 0
0.0124731 0.00560402 0
0.0109379 0.00559231 0
0.0108723 0.00713919 0
0.0117055 0.00559816 0
0.0109051 0.00636575 0
0.0116727 0.0063716 0
0.0124731 0.00560405 0
0.0108723 0.00710595 0
0.013975 0.00564108 0
0.0116727 0.006355 0
0.0124237 0.00637351 0
0.013224 0.00562256 0
0.0124731 0.00560402 0
0.0142001 0.00406259 0
0.0109317 0.00559231 0
0.0133366 0.0048333 0
0.0125659 0.00482745 0
0.0117024 0.00559816 0
0.0124731 0.00560405 0
0.0139818 0.00564108 0
0.0142001 0.00409534 0
0.0132275 0.00562256 0
0.014091 0.00486821 0
0.0133366 0.0048497 0
0.00656755 0.00880272 0
0.00514749 0.00900784 0
0.00550197 0.0102228 0
0.00585752 0.00890528 0
0.00532473 0.00961531 0
0.00603476 0.00951275 0
0.00656755 0.008802 0
0.00550197 0.0101989 0
0.00796449 0.00864579 0
0.00603476 0.00950047 0
0.00673323 0.00942236 0
0.00726602 0.0087239 0
0.00656612 0.00880272 0
0.00777873 0.00729029 0
0.00505369 0.00900784 0
0.00717243 0.0080465 0
0.00641621 0.00814906 0
0.0058099 0.00890528 0
0.00656612 0.008802 0
0.00804393 0.00864579 0
0.00777873 0.00732419 0
0.00730502 0.0087239 0
0.00791133 0.00798499 0
0.00717243 0.0080631 0
0.00425616 0.0103695 0
0.00555423 0.0101705 0
0.00508388 0.00907145 0
0.0049052 0.01027 0
0.00531905 0.00962098 0
0.00467002 0.00972048 0
0.0042571 0.0103695 0
0.00350937 0.0115697 0
0.00545733 0.0101705 0
0.00388324 0.0109696 0
0.00448335 0.0108701 0
0.00485722 0.01027 0
0.00425616 0.01037 0
0.00508388 0.00906379 0
0.00294997 0.0105868 0
0.00467002 0.00971689 0
0.00401692 0.0098253 0
0.00360307 0.0104784 0
0.0042571 0.01037 0
0.00305629 0.0105868 0
0.00350937 0.0115708 0
0.00365669 0.0104784 0
0.00328283 0.0110788 0
0.00388324 0.0109704 0
0.00930553 0.0056627 0
0.0077829 0.00726385 0
0.0109067 0.00558677 0
0.00854422 0.00646328 0
0.00934479 0.00642531 0
0.0101061 0.00562474 0
0.00930553 0.00566333 0
0.00764949 0.0058157 0
0.0077829 0.00731937 0
0.00847751 0.00573952 0
0.00771619 0.00656754 0
0.00854422 0.00649135 0
0.00930428 0.0056627 0
0.0109317 0.00558677 0
0.0110677 0.00403529 0
0.010118 0.00562474 0
0.0109997 0.00481103 0
0.010186 0.004849 0
0.00930428 0.00566333 0
0.0110677 0.003971 0
0.00761195 0.0058157 0
0.010186 0.00481717 0
0.00933985 0.00489335 0
0.00845812 0.00573952 0
0.00622116 0.00750851 0
0.00508438 0.00903853 0
0.00775118 0.00726273 0
0.00565277 0.00827352 0
0.00641778 0.00815063 0
0.00698617 0.00738562 0
0.00621861 0.00750851 0
0.00783954 0.00726273 0
0.00757762 0.00588758 0
0.00702907 0.00738562 0
0.00770858 0.00657516 0
0.00689811 0.00669804 0
0.00622116 0.00750979 0
0.00465603 0.00784649 0
0.00508438 0.00907492 0
0.00543859 0.00767814 0
0.0048702 0.0084607 0
0.00565277 0.00829235 0
0.00621861 0.00750979 0
0.00757762 0.00583332 0
0.00454213 0.00784649 0
0.00689811 0.00667155 0
0.00605988 0.0068399 0
0.00538037 0.00767814 0
0.0126794 0.00402695 0
0.0109075 0.00556808 0
0.0142205 0.00408301 0
0.0117934 0.00479752 0
0.012564 0.00482555 0
0.0134499 0.00405498 0
0.0126801 0.00402695 0
0.0141932 0.00408301 0
0.0146033 0.00251389 0
0.0134366 0.00405498 0
0.0143982 0.00329845 0
0.0136417 0.00327042 0
0.0126794 0.00402658 0
0.011095 0.00400806 0
0.0109075 0.00561098 0
0.0118872 0.00401732 0
0.0110012 0.00480952 0
0.0117934 0.00481878 0
0.0126801 0.00402658 0
0.0146033 0.00247615 0
0.0111297 0.00400806 0
0.0136417 0.00325136 0
0.0128665 0.00324211 0
0.0119049 0.00401732 0
0.0160424 0.00261969 0
0.0142021 0.00406228 0
0.017485 0.00271825 0
0.0151223 0.00334098 0
0.0158436 0.00339026 0
0.0167637 0.00266897 0
0.0160424 0.00261878 0
0.0145871 0.00253009 0
0.0142021 0.00407408 0
0.0153148 0.00257443 0
0.0143946 0.00330208 0
0.0151223 0.00334643 0
0.0160442 0.00261969 0
0.0174413 0.00271825 0
0.017905 0.00122257 0
0.0167428 0.00266897 0
0.0176732 0.00197041 0
0.0169746 0.00192113 0
0.0160442 0.00261878 0
0.017905 0.0012235 0
0.014649 0.00253009 0
0.0169746 0.00192114 0
0.016277 0.00187679 0
0.0153466 0.00257443 0
1.20093e-07 0.0160016 0
0.000776383 0.0159654 0
-3.60473e-05 0.0159397 0
0.000388252 0.0159835 0
0.000370168 0.0159526 0
-1.79636e-05 0.0159707 0
1.20093e-07 0.0160017 0
3.72483e-05 0.0160175 0
0.000776383 0.0159646 0
1.86842e-05 0.0160096 0
0.000406816 0.0159911 0
0.000388252 0.0159832 0
-1.20118e-07 0.0160016 0
3.60473e-05 0.0159397 0
-0.000776383 0.0159654 0
1.79636e-05 0.0159707 0
-0.000370168 0.0159526 0
-0.000388252 0.0159835 0
-1.20118e-07 0.0160017 0
-0.000776383 0.0159646 0
-3.72484e-05 0.0160175 0
-0.000388252 0.0159832 0
-0.000406816 0.0159911 0
-1.86842e-05 0.0160096 0
0.000632067 0.0158657 0
-1.31951e-06 0.0159744 0
0.000740754 0.0159298 0
0.000315374 0.0159201 0
0.000369717 0.0159521 0
0.000686411 0.0158978 0
0.000632409 0.0158657 0
0.000809051 0.0159298 0
0.00126645 0.0156891 0
0.00072073 0.0158978 0
0.00103775 0.0158095 0
0.000949429 0.0157774 0
0.000632067 0.0158656 0
0.000523323 0.0157404 0
-1.31951e-06 0.0159743 0
0.000577695 0.015803 0
0.000261002 0.0158574 0
0.000315374 0.0159199 0
0.000632409 0.0158656 0
0.00126645 0.0156916 0
0.00045844 0.0157404 0
0.000949429 0.0157786 0
0.000862444 0.015716 0
0.000545424 0.015803 0
-0.000632067 0.0158657 0
-0.000740754 0.0159298 0
1.31949e-06 0.0159744 0
-0.000686411 0.0158978 0
-0.000369717 0.0159521 0
-0.000315374 0.0159201 0
-0.000632409 0.0158657 0
-0.00126645 0.0156891 0
-0.000809051 0.0159298 0
-0.000949429 0.0157774 0
-0.00103775 0.0158095 0
-0.00072073 0.0158978 0
-0.000632067 0.0158656 0
1.31949e-06 0.0159743 0
-0.000523323 0.0157404 0
-0.000315374 0.0159199 0
-0.000261002 0.0158574 0
-0.000577695 0.015803 0
-0.000632409 0.0158656 0
-0.00045844 0.0157404 0
-0.00126645 0.0156916 0
-0.000545424 0.015803 0
-0.000862445 0.015716 0
-0.000949429 0.0157786 0
-0.00156325 0.0157024 0
-0.00182561 0.0157076 0
-0.000774287 0.0159647 0
-0.00169443 0.015705 0
-0.00129995 0.0158362 0
-0.00116877 0.0158336 0
-0.00156325 0.0157023 0
-0.000774287 0.0159646 0
-0.00130095 0.0156546 0
-0.00116877 0.0158334 0
-0.00103762 0.0158096 0
-0.0014321 0.0156784 0
-0.00156345 0.0157024 0
-0.00235775 0.0153649 0
-0.0019009 0.0157076 0
-0.0019606 0.0155336 0
-0.00212933 0.0155363 0
-0.00173217 0.015705 0
-0.00156345 0.0157023 0
-0.00122766 0.0156546 0
-0.00235775 0.0153665 0
-0.00139556 0.0156784 0
-0.00179271 0.0155105 0
-0.0019606 0.0155344 0
0.000997067 0.015536 0
0.000763512 0.0153367 0
0.000490264 0.0157695 0
0.00088029 0.0154363 0
0.000626888 0.0155531 0
0.000743666 0.0156528 0
0.000997067 0.0155362 0
0.000490264 0.0157722 0
0.00123309 0.0156582 0
0.000743666 0.0156542 0
0.000861678 0.0157152 0
0.00111508 0.0155972 0
0.000997509 0.015536 0
0.00150199 0.0152453 0
0.000706787 0.0153367 0
0.00124975 0.0153906 0
0.00110439 0.015291 0
0.000852148 0.0154363 0
0.000997509 0.0155362 0
0.00129424 0.0156582 0
0.00150199 0.0152395 0
0.00114587 0.0155972 0
0.00139811 0.0154489 0
0.00124975 0.0153878 0
2.35275e-07 0.0157997 0
2.96344e-05 0.0159434 0
0.000493428 0.0157703 0
1.49349e-05 0.0158715 0
0.000261531 0.0158568 0
0.000246831 0.015785 0
2.35275e-07 0.0157995 0
0.000493428 0.015772 0
-2.72816e-05 0.0155743 0
0.000246831 0.0157857 0
0.000233073 0.0156731 0
-1.35232e-05 0.0156869 0
-2.35295e-07 0.0157997 0
-0.000493428 0.0157703 0
-2.96345e-05 0.0159434 0
-0.000246831 0.015785 0
-0.000261531 0.0158568 0
-1.49349e-05 0.0158715 0
-2.35295e-07 0.0157995 0
2.72816e-05 0.0155743 0
-0.000493428 0.015772 0
1.35231e-05 0.0156869 0
-0.000233073 0.0156731 0
-0.000246831 0.0157857 0
0.000371227 0.0155042 0
0.000515093 0.0157447 0
0.000739888 0.0153603 0
0.00044316 0.0156245 0
0.000627491 0.0155525 0
0.000555557 0.0154323 0
0.000370639 0.0155042 0
-1.82769e-06 0.0155997 0
0.00046619 0.0157447 0
0.000184406 0.015552 0
0.000232181 0.0156722 0
0.000418414 0.0156245 0
0.000371227 0.0155039 0
0.000739888 0.0153655 0
0.000232859 0.0151601 0
0.000555557 0.0154347 0
0.000486373 0.0152628 0
0.000302043 0.015332 0
0.000370639 0.0155039 0
0.000275882 0.0151601 0
-1.82769e-06 0.0155987 0
0.000323261 0.015332 0
0.000137027 0.0153794 0
0.000184406 0.0155513 0
0.00113243 0.0150281 0
0.000736177 0.0153661 0
0.00147044 0.0152137 0
0.000934304 0.0151971 0
0.00110331 0.0152899 0
0.00130144 0.0151209 0
0.00113299 0.0150281 0
0.00152382 0.0152137 0
0.00151982 0.0146372 0
0.0013284 0.0151209 0
0.00152182 0.0149255 0
0.0013264 0.0148327 0
0.00113243 0.0150278 0
0.000801139 0.0147472 0
0.000736177 0.0153591 0
0.000966785 0.0148875 0
0.000768658 0.0150532 0
0.000934304 0.0151934 0
0.00113299 0.0150278 0
0.00151982 0.0146481 0
0.000753313 0.0147472 0
0.0013264 0.014838 0
0.00113657 0.0146977 0
0.00094315 0.0148875 0
-0.00192547 0.0152957 0
-0.00259145 0.0148298 0
-0.00239136 0.0153291 0
-0.00225846 0.0150627 0
-0.00249141 0.0150794 0
-0.00215842 0.0153124 0
-0.00192521 0.0152957 0
-0.00232036 0.0153291 0
-0.00126387 0.0156908 0
-0.00212278 0.0153124 0
-0.00179211 0.0155099 0
-0.00159454 0.0154932 0
-0.00192547 0.0152955 0
-0.00146374 0.0152093 0
-0.00259145 0.0148338 0
-0.00169461 0.0152524 0
-0.0020276 0.0150216 0
-0.00225846 0.0150647 0
-0.00192521 0.0152955 0
-0.00126387 0.0156886 0
-0.00153213 0.0152093 0
-0.00159454 0.0154921 0
-0.001398 0.015449 0
-0.00172867 0.0152524 0
-0.00319013 0.0148022 0
-0.00235584 0.0153646 0
-0.00262777 0.0147935 0
-0.00277299 0.0150834 0
-0.0024918 0.015079 0
-0.00290895 0.0147979 0
-0.00319013 0.0148023 0
-0.00375228 0.0147797 0
-0.00235584 0.0153644 0
-0.00347121 0.014791 0
-0.00305406 0.0150721 0
-0.00277299 0.0150834 0
-0.0031902 0.0148022 0
-0.00255132 0.0147935 0
-0.00404032 0.0141634 0
-0.00287076 0.0147979 0
-0.00329582 0.0144784 0
-0.00361526 0.0144828 0
-0.0031902 0.0148023 0
-0.00404032 0.0141631 0
-0.00382941 0.0147797 0
-0.00361526 0.0144827 0
-0.00393487 0.0144714 0
-0.00350981 0.014791 0
-0.000997067 0.015536 0
-0.000490264 0.0157695 0
-0.000763512 0.0153367 0
-0.000743666 0.0156528 0
-0.000626888 0.0155531 0
-0.00088029 0.0154363 0
-0.000997067 0.0155362 0
-0.00123309 0.0156582 0
-0.000490264 0.0157722 0
-0.00111508 0.0155972 0
-0.000861678 0.0157152 0
-0.000743666 0.0156542 0
-0.000997509 0.015536 0
-0.000706787 0.0153367 0
-0.00150199 0.0152453 0
-0.000852148 0.0154363 0
-0.00110439 0.015291 0
-0.00124975 0.0153906 0
-0.000997509 0.0155362 0
-0.00150199 0.0152395 0
-0.00129424 0.0156582 0
-0.00124975 0.0153878 0
-0.00139811 0.0154489 0
-0.00114587 0.0155972 0
-0.000371227 0.0155042 0
-0.000739888 0.0153603 0
-0.000515093 0.0157447 0
-0.000555557 0.0154323 0
-0.000627491 0.0155525 0
-0.00044316 0.0156245 0
-0.000370639 0.0155042 0
-0.00046619 0.0157447 0
1.82767e-06 0.0155997 0
-0.000418414 0.0156245 0
-0.000232181 0.0156722 0
-0.000184406 0.015552 0
-0.000371227 0.0155039 0
-0.000232859 0.0151601 0
-0.000739888 0.0153655 0
-0.000302043 0.015332 0
-0.000486373 0.0152628 0
-0.000555557 0.0154347 0
-0.000370639 0.0155039 0
1.82767e-06 0.0155987 0
-0.000275883 0.0151601 0
-0.000184406 0.0155513 0
-0.000137027 0.0153794 0
-0.000323261 0.015332 0
-0.00204679 0.0147366 0
-0.00255463 0.014797 0
-0.00149885 0.0152445 0
-0.00230071 0.0147668 0
-0.00202674 0.0150207 0
-0.00177282 0.0149905 0
-0.00204679 0.0147365 0
-0.00149885 0.0152387 0
-0.00154456 0.0146125 0
-0.00177282 0.0149876 0
-0.00152171 0.0149256 0
-0.00179568 0.0146745 0
-0.00204712 0.0147366 0
-0.00259577 0.0141622 0
-0.0026215 0.014797 0
-0.00232145 0.0144494 0
-0.00260863 0.0144796 0
-0.00233431 0.0147668 0
-0.00204712 0.0147365 0
-0.001481 0.0146125 0
-0.00259577 0.0141703 0
-0.00176406 0.0146745 0
-0.00203838 0.0143914 0
-0.00232145 0.0144534 0
-0.00113243 0.0150281 0
-0.00147044 0.0152137 0
-0.000736177 0.0153661 0
-0.00130144 0.0151209 0
-0.00110331 0.0152899 0
-0.000934304 0.0151971 0
-0.00113299 0.0150281 0
-0.00151982 0.0146372 0
-0.00152382 0.0152137 0
-0.0013264 0.0148327 0
-0.00152182 0.0149255 0
-0.0013284 0.0151209 0
-0.00113243 0.0150278 0
-0.000736177 0.0153591 0
-0.000801139 0.0147472 0
-0.000934304 0.0151934 0
-0.000768658 0.0150532 0
-0.000966785 0.0148875 0
-0.00113299 0.0150278 0
-0.000753313 0.0147472 0
-0.00151982 0.0146481 0
-0.00094315 0.0148875 0
-0.00113657 0.0146977 0
-0.0013264 0.014838 0
-0.00331447 0.0141443 0
-0.00400143 0.0141245 0
-0.0025891 0.0148312 0
-0.00365795 0.0141344 0
-0.00329527 0.0144779 0
-0.00295179 0.0144878 0
-0.00331453 0.0141443 0
-0.00405746 0.0133816 0
-0.00407717 0.0141245 0
-0.00368599 0.013763 0
-0.00406731 0.0137531 0
-0.00369585 0.0141344 0
-0.00331447 0.0141442 0
-0.0025891 0.0148294 0
-0.00262935 0.0141287 0
-0.00295179 0.0144868 0
-0.00260923 0.014479 0
-0.00297191 0.0141365 0
-0.00331453 0.0141442 0
-0.00255422 0.0141287 0
-0.00405746 0.0133839 0
-0.00293437 0.0141365 0
-0.00330584 0.0137563 0
-0.00368599 0.0137641 0
-0.00496187 0.013299 0
-0.0058219 0.0132438 0
-0.00403889 0.014159 0
-0.00539188 0.0132714 0
-0.00493039 0.0137014 0
-0.00450038 0.013729 0
-0.00496187 0.0132991 0
-0.00403889 0.0141628 0
-0.00409821 0.0133409 0
-0.00450038 0.0137309 0
-0.00406855 0.0137518 0
-0.00453004 0.01332 0
-0.00496169 0.013299 0
-0.00592185 0.0123608 0
-0.00589986 0.0132438 0
-0.00544177 0.0128299 0
-0.00591085 0.0128023 0
-0.00543077 0.0132714 0
-0.00496169 0.0132991 0
-0.00401843 0.0133409 0
-0.00592185 0.0123558 0
-0.00449006 0.01332 0
-0.00497014 0.0128484 0
-0.00544177 0.0128275 0
0.00108224 0.0143664 0
0.0013619 0.0139326 0
0.000648424 0.0140003 0
0.00122207 0.0141495 0
0.00100516 0.0139664 0
0.000865334 0.0141833 0
0.00108224 0.0143668 0
0.00153443 0.0146178 0
0.0013619 0.0139146 0
0.00130834 0.0144923 0
0.00144816 0.0142662 0
0.00122207 0.0141407 0
0.00108154 0.0143664 0
0.000686268 0.0140003 0
0.000780816 0.0147617 0
0.000883903 0.0141833 0
0.000733542 0.014381 0
0.000931177 0.014564 0
0.00108154 0.0143668 0
0.000780816 0.0147747 0
0.00148953 0.0146178 0
0.000931177 0.0145708 0
0.00113517 0.0146963 0
0.00128553 0.0144923 0
0.000893498 0.0135872 0
0.000674367 0.0140262 0
0.00133252 0.0139032 0
0.000783932 0.0138067 0
0.00100344 0.0139647 0
0.00111301 0.0137452 0
0.000894421 0.0135872 0
0.00136744 0.0139032 0
0.00107597 0.0131142 0
0.00113093 0.0137452 0
0.0012217 0.0135087 0
0.000985195 0.0133507 0
0.000893498 0.0135867 0
0.000474894 0.0131304 0
0.000674367 0.0140053 0
0.000684196 0.0133586 0
0.000574631 0.0135679 0
0.000783932 0.013796 0
0.000894421 0.0135867 0
0.00107597 0.0131415 0
0.000449204 0.0131304 0
0.000985195 0.0133641 0
0.000762586 0.013136 0
0.000671812 0.0133586 0
0.00171613 0.0132832 0
0.00135706 0.0139325 0
0.00236548 0.0133704 0
0.00153659 0.0136078 0
0.00186127 0.0136515 0
0.0020408 0.0133268 0
0.00171613 0.0132828 0
0.00108539 0.0131047 0
0.00135706 0.0139136 0
0.00140076 0.0131938 0
0.00122123 0.0135092 0
0.00153659 0.0135982 0
0.00171675 0.0132832 0
0.00242543 0.0133704 0
0.00205455 0.0125745 0
0.00207109 0.0133268 0
0.00223999 0.0129724 0
0.00188565 0.0129288 0
0.00171675 0.0132828 0
0.00205455 0.0125977 0
0.00103164 0.0131047 0
0.00188565 0.0129403 0
0.00154309 0.0128512 0
0.00137419 0.0131938 0
0.000515597 0.0142809 0
0.00078944 0.0147531 0
0.000679501 0.014007 0
0.000652519 0.014517 0
0.00073447 0.01438 0
0.000597549 0.0141439 0
0.000514761 0.0142809 0
0.000327045 0.0145306 0
0.000764509 0.0147531 0
0.000420903 0.0144057 0
0.000545777 0.0146418 0
0.000639635 0.014517 0
0.000515597 0.0142804 0
0.000679501 0.0140243 0
0.000259471 0.0136557 0
0.000597549 0.0141524 0
0.000469486 0.01384 0
0.000387534 0.0139681 0
0.000514761 0.0142804 0
0.000276043 0.0136557 0
0.000327045 0.0145192 0
0.000395402 0.0139681 0
0.000301544 0.0140875 0
0.000420903 0.0143998 0
0.000526035 0.0149908 0
0.000753577 0.0153417 0
0.000785164 0.0147632 0
0.000639806 0.0151662 0
0.000769371 0.0150525 0
0.0006556 0.014877 0
0.000526035 0.0149904 0
0.000785164 0.0147737 0
0.000309334 0.0145129 0
0.0006556 0.0148821 0
0.000547249 0.0146433 0
0.000417684 0.0147517 0
0.00052533 0.0149908 0
0.00025428 0.0151815 0
0.000716052 0.0153417 0
0.000389805 0.0150861 0
0.000485166 0.0152616 0
0.000620691 0.0151662 0
0.00052533 0.0149904 0
0.000339807 0.0145129 0
0.00025428 0.0151759 0
0.000432568 0.0147517 0
0.000297044 0.0148444 0
0.000389805 0.0150832 0
0.00252625 0.0116573 0
0.00160848 0.0117405 0
0.00204914 0.0125751 0
0.00206737 0.0116989 0
0.00182881 0.0121578 0
0.0022877 0.0121162 0
0.00252625 0.0116574 0
0.00204914 0.0125943 0
0.00346318 0.0115308 0
0.0022877 0.0121258 0
0.00275616 0.0120626 0
0.00299471 0.0115941 0
0.00252639 0.0116573 0
0.00300868 0.0106546 0
0.00152372 0.0117405 0
0.00276754 0.011156 0
0.0022662 0.0111976 0
0.00202506 0.0116989 0
0.00252639 0.0116574 0
0.00354935 0.0115308 0
0.00300868 0.0106344 0
0.00303787 0.0115941 0
0.00327902 0.0110826 0
0.00276754 0.0111459 0
0.00135049 0.0124798 0
0.00206851 0.0125557 0
0.00158728 0.0117617 0
0.0017095 0.0125177 0
0.00182789 0.0121587 0
0.00146889 0.0121207 0
0.00134951 0.0124798 0
0.00106966 0.0131428 0
0.00201251 0.0125557 0
0.00120958 0.0128113 0
0.00154108 0.0128492 0
0.00168101 0.0125177 0
0.00135049 0.0124793 0
0.00158728 0.011798 0
0.000669274 0.0122895 0
0.00146889 0.0121387 0
0.00112828 0.0120438 0
0.00100988 0.0123844 0
0.00134951 0.0124793 0
0.000715488 0.0122895 0
0.00106966 0.0131133 0
0.0010325 0.0123844 0
0.000892571 0.0127014 0
0.00120958 0.0127963 0
0.00199071 0.0108371 0
0.00157905 0.0117959 0
0.00294946 0.0105954 0
0.00178488 0.0113165 0
0.00226426 0.0111956 0
0.00247009 0.0107163 0
0.00199119 0.0108371 0
0.00304717 0.0105954 0
0.00238868 0.00978113 0
0.00251918 0.0107163 0
0.00271792 0.0101883 0
0.00218993 0.0103091 0
0.00199071 0.0108369 0
0.00106414 0.0110249 0
0.00157905 0.0117634 0
0.00152742 0.0109309 0
0.00132159 0.0113942 0
0.00178488 0.0113002 0
0.00199119 0.0108369 0
0.00238868 0.0098169 0
0.000971217 0.0110249 0
0.00218993 0.0103269 0
0.00167995 0.0104209 0
0.0014812 0.0109309 0
0.00373528 0.00934568 0
0.0030038 0.0106406 0
0.00503023 0.00901015 0
0.00336954 0.00999316 0
0.00401701 0.00982539 0
0.00438276 0.00917791 0
0.00373528 0.00934649 0
0.00244299 0.00972681 0
0.0030038 0.0106388 0
0.00308914 0.00953665 0
0.00272339 0.0101828 0
0.00336954 0.00999264 0
0.00373366 0.00934568 0
0.00514915 0.00901015 0
0.00457232 0.0079302 0
0.00444141 0.00917791 0
0.00486074 0.00847017 0
0.00415299 0.00863794 0
0.00373366 0.00934649 0
0.00457232 0.00792071 0
0.00230788 0.00972681 0
0.00415299 0.0086336 0
0.0034401 0.00882376 0
0.00302077 0.00953665 0
0.000624393 0.0127303 0
0.000230411 0.0121738 0
0.00047323 0.0131243 0
0.000427402 0.0124521 0
0.00035182 0.0126491 0
0.000548811 0.0129273 0
0.000624393 0.012731 0
0.00047323 0.0131544 0
0.00104787 0.0131134 0
0.000548811 0.0129427 0
0.000760549 0.0131339 0
0.000836131 0.0129222 0
0.000625635 0.0127303 0
0.000717928 0.0123259 0
0.000221151 0.0121738 0
0.000671781 0.0125281 0
0.000469539 0.0122498 0
0.000423393 0.0124521 0
0.000625635 0.012731 0
0.00106954 0.0131134 0
0.000717928 0.0122871 0
0.00084759 0.0129222 0
0.000893736 0.0127002 0
0.000671781 0.012509 0
0.000396115 0.0134025 0
0.000672617 0.0140071 0
0.000479295 0.013126 0
0.000534366 0.0137048 0
0.000575956 0.0135665 0
0.000437705 0.0132643 0
0.000396115 0.013402 0
0.000479295 0.0131513 0
0.000145351 0.0126151 0
0.000437705 0.0132766 0
0.000312323 0.0128832 0
0.000270733 0.0130085 0
0.000395125 0.0134025 0
0.000273374 0.0136696 0
0.000662251 0.0140071 0
0.000334249 0.0135361 0
0.000467812 0.0138384 0
0.000528688 0.0137048 0
0.000395125 0.013402 0
0.000145821 0.0126151 0
0.000273374 0.0136513 0
0.000270473 0.0130085 0
0.000209598 0.0131332 0
0.000334249 0.0135267 0
0.000228818 0.0123858 0
0.00045908 0.0131385 0
0.000248741 0.0121555 0
0.000343949 0.0127621 0
0.000353911 0.012647 0
0.00023878 0.0122706 0
0.000227875 0.0123858 0
0.000154683 0.0126244 0
0.000466513 0.0131385 0
0.000191279 0.0125051 0
0.000310598 0.0128814 0
0.000347194 0.0127621 0
0.000228818 0.0123853 0
0.000248741 0.0121878 0
3.1372e-05 0.0114134 0
0.00023878 0.0122866 0
0.000140057 0.0118006 0
0.000130095 0.0118993 0
0.000227875 0.0123853 0
1.45125e-05 0.0114134 0
0.000154683 0.0125987 0
0.000121194 0.0118993 0
8.45977e-05 0.012006 0
0.000191279 0.012492 0
0.00091827 0.0117063 0
0.000709509 0.0123297 0
0.00154173 0.0117525 0
0.00081389 0.012018 0
0.00112562 0.0120411 0
0.00123 0.0117294 0
0.00091827 0.0117054 0
0.000337112 0.0115059 0
0.000709509 0.0122866 0
0.000627691 0.0116057 0
0.000523311 0.0118962 0
0.00081389 0.011996 0
0.000919948 0.0117063 0
0.00159 0.0117525 0
0.00105286 0.0110362 0
0.00125497 0.0117294 0
0.00132143 0.0113944 0
0.000986403 0.0113712 0
0.000919948 0.0117054 0
0.00105286 0.0110911 0
0.000305616 0.0115059 0
0.000986403 0.0113983 0
0.000679238 0.0112985 0
0.000612782 0.0116057 0
0.000339164 0.0118404 0
0.000241671 0.0121944 0
0.000693125 0.0123011 0
0.000290418 0.0120174 0
0.000467398 0.0122477 0
0.000516145 0.0120707 0
0.00034057 0.0118404 0
0.000695041 0.0123011 0
0.000357096 0.0114859 0
0.000517805 0.0120707 0
0.000526069 0.0118935 0
0.000348833 0.0116632 0
0.000339164 0.0118397 0
2.44257e-05 0.0111556 0
0.000241671 0.0121544 0
0.000181795 0.0114977 0
0.000133048 0.011655 0
0.000290418 0.0119971 0
0.00034057 0.0118397 0
0.000357096 0.0115357 0
3.65659e-05 0.0111556 0
0.000348833 0.0116877 0
0.000196831 0.0113457 0
0.000188568 0.0114977 0
3.50103e-07 0.0151945 0
0.000258384 0.01518 0
-1.41655e-05 0.0146803 0
0.000129367 0.0151873 0
0.000122109 0.0149301 0
-6.90769e-06 0.0149374 0
3.50103e-07 0.0151949 0
1.76666e-05 0.0155792 0
0.000258384 0.0151776 0
9.00834e-06 0.015387 0
0.000138025 0.0153784 0
0.000129367 0.0151862 0
-3.50121e-07 0.0151945 0
1.41655e-05 0.0146803 0
-0.000258384 0.01518 0
6.90767e-06 0.0149374 0
-0.000122109 0.0149301 0
-0.000129367 0.0151873 0
-3.50121e-07 0.0151949 0
-0.000258384 0.0151776 0
-1.76666e-05 0.0155792 0
-0.000129367 0.0151862 0
-0.000138025 0.0153784 0
-9.00836e-06 0.015387 0
0.000168339 0.0146167 0
-2.1899e-06 0.0146922 0
0.000243834 0.0151655 0
8.30744e-05 0.0146545 0
0.000120822 0.0149288 0
0.000206086 0.0148911 0
0.000169129 0.0146167 0
0.00026475 0.0151655 0
0.000331597 0.0145211 0
0.000216939 0.0148911 0
0.000298173 0.0148433 0
0.000250363 0.0145689 0
0.000168339 0.0146163 0
9.44386e-05 0.0139101 0
-2.1899e-06 0.0146902 0
0.000131389 0.0142632 0
4.61244e-05 0.0143002 0
8.30744e-05 0.0146533 0
0.000169129 0.0146163 0
0.000331597 0.0145286 0
8.14296e-05 0.0139101 0
0.000250363 0.0145725 0
0.000206513 0.0142194 0
0.000125279 0.0142632 0
-0.000168339 0.0146167 0
-0.000243834 0.0151655 0
2.18989e-06 0.0146922 0
-0.000206086 0.0148911 0
-0.000120822 0.0149288 0
-8.30744e-05 0.0146545 0
-0.000169129 0.0146167 0
-0.000331597 0.0145211 0
-0.00026475 0.0151655 0
-0.000250363 0.0145689 0
-0.000298173 0.0148433 0
-0.000216939 0.0148911 0
-0.000168339 0.0146163 0
2.18989e-06 0.0146902 0
-9.44386e-05 0.0139101 0
-8.30744e-05 0.0146533 0
-4.61244e-05 0.0143002 0
-0.000131389 0.0142632 0
-0.000169129 0.0146163 0
-8.14296e-05 0.0139101 0
-0.000331597 0.0145286 0
-0.000125279 0.0142632 0
-0.000206513 0.0142194 0
-0.000250363 0.0145725 0
-0.00052533 0.0149908 0
-0.000716052 0.0153417 0
-0.00025428 0.0151815 0
-0.000620691 0.0151662 0
-0.000485166 0.0152616 0
-0.000389805 0.0150861 0
-0.00052533 0.0149904 0
-0.00025428 0.0151759 0
-0.000339807 0.0145129 0
-0.000389805 0.0150832 0
-0.000297044 0.0148444 0
-0.000432568 0.0147517 0
-0.000526035 0.0149908 0
-0.000785164 0.0147632 0
-0.000753577 0.0153417 0
-0.0006556 0.014877 0
-0.000769371 0.0150525 0
-0.000639806 0.0151662 0
-0.000526035 0.0149904 0
-0.000309334 0.0145129 0
-0.000785164 0.0147737 0
-0.000417684 0.0147517 0
-0.000547249 0.0146433 0
-0.0006556 0.0148821 0
0.000193258 0.0137871 0
0.000278381 0.013667 0
7.32014e-05 0.0128696 0
0.000235819 0.013727 0
0.000175791 0.0132683 0
0.00013323 0.0133283 0
0.000193258 0.0137875 0
0.000327368 0.0145188 0
0.000278381 0.0136534 0
0.000260313 0.0141532 0
0.000302875 0.0140861 0
0.000235819 0.0137205 0
0.000192385 0.0137871 0
7.00347e-05 0.0128696 0
8.82799e-05 0.0139094 0
0.00013121 0.0133283 0
7.91573e-05 0.0133895 0
0.000140332 0.0138482 0
0.000192385 0.0137875 0
8.82799e-05 0.0139169 0
0.000321802 0.0145188 0
0.000140332 0.0138522 0
0.000205041 0.0142179 0
0.000257093 0.0141532 0
0.00013239 0.01273 0
7.48453e-05 0.0128712 0
0.00027364 0.0136623 0
0.000103618 0.0128006 0
0.000174242 0.0132668 0
0.000203015 0.0131961 0
0.000133145 0.01273 0
0.000262423 0.0136623 0
0.000160178 0.0126007 0
0.000197784 0.0131961 0
0.0002113 0.0131315 0
0.000146662 0.0126654 0
0.00013239 0.0127296 0
4.64911e-06 0.0115797 0
7.48453e-05 0.0128574 0
6.85197e-05 0.0121547 0
3.97472e-05 0.0122185 0
0.000103618 0.0127935 0
0.000133145 0.0127296 0
0.000160178 0.0126199 0
2.34146e-05 0.0115797 0
0.000146662 0.0126747 0
9.17964e-05 0.0120998 0
7.82799e-05 0.0121547 0
4.19968e-07 0.0139133 0
2.10887e-06 0.0146859 0
9.28754e-05 0.0139116 0
1.26442e-06 0.0142996 0
4.74921e-05 0.0142988 0
4.66477e-05 0.0139125 0
4.19968e-07 0.0139129 0
9.28754e-05 0.0139146 0
2.09086e-06 0.012953 0
4.66477e-05 0.0139137 0
4.74831e-05 0.0134338 0
1.25541e-06 0.013433 0
-4.1998e-07 0.0139133 0
-9.28754e-05 0.0139116 0
-2.10888e-06 0.0146859 0
-4.66477e-05 0.0139125 0
-4.74921e-05 0.0142988 0
-1.26443e-06 0.0142996 0
-4.1998e-07 0.0139129 0
-2.09086e-06 0.012953 0
-9.28754e-05 0.0139146 0
-1.25542e-06 0.013433 0
-4.74831e-05 0.0134338 0
-4.66477e-05 0.0139137 0
4.40056e-05 0.0128976 0
8.16703e-05 0.013916 0
7.97056e-05 0.0128599 0
6.28379e-05 0.0134068 0
8.0688e-05 0.013388 0
6.18556e-05 0.0128788 0
4.33201e-05 0.0128976 0
-2.3435e-06 0.0129486 0
9.43278e-05 0.013916 0
2.04883e-05 0.0129231 0
4.59921e-05 0.0134323 0
6.88239e-05 0.0134068 0
4.40056e-05 0.0128972 0
7.97056e-05 0.0128677 0
1.44657e-05 0.0116615 0
6.18556e-05 0.0128825 0
4.70857e-05 0.0122646 0
2.92356e-05 0.0122794 0
4.33201e-05 0.0128972 0
-5.04686e-06 0.0116615 0
-2.3435e-06 0.0129456 0
1.91366e-05 0.0122794 0
-3.69518e-06 0.0123036 0
2.04883e-05 0.0129214 0
0.0196694 0 0
0.0184741 0 0
0.0179041 0.00119531 0
0.0190718 0 0
0.0181891 0.000597655 0
0.0187868 0.000597655 0
0.0196694 0 0
0.0179041 0.00124746 0
0.0209169 0 0
0.0187868 0.000623729 0
0.0194105 0.000623729 0
0.0202932 0 0
0.0166157 0.00116459 0
0.0178473 0.00125203 0
0.0185412 -6.70502e-05 0
0.0172315 0.00120831 0
0.0181943 0.000592492 0
0.0175784 0.00054877 0
0.0166117 0.00116459 0
0.0146053 0.0024864 0
0.0179335 0.00125203 0
0.0156085 0.0018255 0
0.0162694 0.00186922 0
0.0172726 0.00120831 0
0.0166157 0.0011626 0
0.0185412 -2.97499e-05 0
0.0154234 0.00108906 0
0.0175784 0.000566426 0
0.0169823 0.000529655 0
0.0160195 0.00112583 0
0.0166117 0.0011626 0
0.0152974 0.00108906 0
0.0146053 0.00247696 0
0.0159545 0.00112583 0
0.0149513 0.00178301 0
0.0156085 0.00181978 0
0.0131424 0.00244156 0
0.0153611 0.00099271 0
0.0116936 0.00241388 0
0.0142518 0.00171713 0
0.0135274 0.00170329 0
0.012418 0.00242772 0
0.0131424 0.00244285 0
0.01456 0.0025222 0
0.0153611 0.00102528 0
0.0138512 0.00248252 0
0.0149606 0.00177374 0
0.0142518 0.00173407 0
0.0131399 0.00244156 0
0.0115784 0.00241388 0
0.011074 0.00400302 0
0.0123591 0.00242772 0
0.0113262 0.00320845 0
0.0121069 0.00322229 0
0.0131399 0.00244285 0
0.011074 0.00395235 0
0.0146494 0.0025222 0
0.0121069 0.0031976 0
0.0128617 0.00323727 0
0.0138946 0.00248252 0
0.0175452 0 0
0.0153601 0.00102577 0
0.0185709 0 0
0.0164526 0.000512887 0
0.0169655 0.000512887 0
0.0180581 0 0
0.0175452 0 0
0.0165821 0 0
0.0153601 0.000963057 0
0.0170636 0 0
0.0159711 0.000481529 0
0.0164526 0.000481529 0
0.0141242 0.000985405 0
0.011585 0.00230525 0
0.015444 0.00107556 0
0.0128546 0.00164532 0
0.0135145 0.0016904 0
0.0147841 0.00103048 0
0.0141323 0.000985405 0
0.0152476 0.00107556 0
0.0167119 -0.000129832 0
0.0146899 0.00103048 0
0.0159798 0.000472864 0
0.0154221 0.000427786 0
0.0141242 0.000981318 0
0.0127604 0.00094627 0
0.011585 0.00234508 0
0.0134423 0.000963794 0
0.0121727 0.00164568 0
0.0128546 0.0016632 0
0.0141323 0.000981318 0
0.0167119 -0.000112462 0
0.0130385 0.00094627 0
0.0154221 0.000434428 0
0.0148752 0.000416904 0
0.0135854 0.000963794 0
0.00939949 0.0040951 0
0.0110787 0.0039983 0
0.0115764 0.0024159 0
0.0102391 0.0040467 0
0.0113275 0.0032071 0
0.0104879 0.0032555 0
0.00940078 0.0040951 0
0.00758561 0.00578936 0
0.011095 0.0039983 0
0.00849319 0.00494223 0
0.00934032 0.00489383 0
0.0102479 0.0040467 0
0.00939949 0.00409575 0
0.0115764 0.00231808 0
0.00762183 0.0043092 0
0.0104879 0.00320692 0
0.0095991 0.00331364 0
0.00851066 0.00420247 0
0.00940078 0.00409575 0
0.00761842 0.0043092 0
0.00758561 0.00587811 0
0.0085096 0.00420247 0
0.00760201 0.00509365 0
0.00849319 0.00498693 0
0.00586928 0.00619621 0
0.00412671 0.00674428 0
0.00457333 0.00793878 0
0.004998 0.00647025 0
0.00435002 0.00734153 0
0.00522131 0.00706749 0
0.00586928 0.00619377 0
0.00457333 0.00787768 0
0.0075532 0.0058089 0
0.00522131 0.00703573 0
0.00606326 0.00684329 0
0.00671124 0.00600133 0
0.00586441 0.00619621 0
0.00752427 0.00430813 0
0.00397632 0.00674428 0
0.00669434 0.00525217 0
0.0057503 0.0055262 0
0.00492037 0.00647025 0
0.00586441 0.00619377 0
0.00765482 0.0058089 0
0.00752427 0.00440336 0
0.00675961 0.00600133 0
0.00758954 0.00510613 0
0.00669434 0.00529856 0
0.00311483 0.00841415 0
0.00466184 0.00785027 0
0.00400386 0.00686714 0
0.00388833 0.00813221 0
0.00433285 0.0073587 0
0.00355934 0.00764065 0
0.00311778 0.00841415 0
0.00237932 0.00979825 0
0.00450188 0.00785027 0
0.00274855 0.0091062 0
0.0034406 0.00882426 0
0.00380983 0.00813221 0
0.00311483 0.00841563 0
0.00400386 0.00685435 0
0.00155355 0.00906383 0
0.00355934 0.00763499 0
0.00277871 0.00795909 0
0.00233419 0.00873973 0
0.00311778 0.00841563 0
0.00174304 0.00906383 0
0.00237932 0.00979037 0
0.00243041 0.00873973 0
0.00206118 0.0094271 0
0.00274855 0.009103 0
0.0056227 0.00488499 0
0.00400528 0.00677324 0
0.00751096 0.00429481 0
0.00481399 0.00582912 0
0.00575812 0.00553403 0
0.00656683 0.0045899 0
0.00561198 0.00488499 0
0.00762369 0.00429481 0
0.00790199 0.00287327 0
0.00661784 0.0045899 0
0.00776284 0.00358404 0
0.00675698 0.00387913 0
0.0056227 0.00489035 0
0.00362357 0.00576782 0
0.00400528 0.00688949 0
0.00462314 0.00532909 0
0.00381443 0.00632866 0
0.00481399 0.00588992 0
0.00561198 0.00489035 0
0.00790199 0.00268194 0
0.00340356 0.00576782 0
0.00675698 0.00378615 0
0.00565277 0.00422488 0
0.00450777 0.00532909 0
0.00991525 0.00248857 0
0.00754037 0.00422775 0
0.0116544 0.00239612 0
0.00872781 0.00335816 0
0.00959739 0.00331193 0
0.0107848 0.00244235 0
0.00991525 0.0024879 0
0.00802501 0.00275025 0
0.00754037 0.00437814 0
0.00897013 0.00261908 0
0.00778269 0.00356419 0
0.00872781 0.00343302 0
0.00991658 0.00248857 0
0.0115339 0.00239612 0
0.0128354 0.000871228 0
0.0107253 0.00244235 0
0.0121847 0.00163367 0
0.011376 0.0016799 0
0.00991658 0.0024879 0
0.0128354 0.000730205 0
0.00815889 0.00275025 0
0.011376 0.00160905 0
0.0104972 0.00174023 0
0.00903774 0.00261908 0
0.00138858 0.0101651 0
0.00167971 0.00919214 0
0.000415582 0.0105012 0
0.00153414 0.00967864 0
0.00104764 0.00984665 0
0.000902079 0.0103331 0
0.00138858 0.010166 0
0.00242738 0.0097423 0
0.00167971 0.00912716 0
0.00190798 0.00995414 0
0.00205355 0.00943473 0
0.00153414 0.00964657 0
0.00138691 0.0101651 0
0.000512207 0.0105012 0
0.00103943 0.0110398 0
0.000949557 0.0103331 0
0.000775816 0.0107705 0
0.00121317 0.0106025 0
0.00138691 0.010166 0
0.00103943 0.0110931 0
0.00231408 0.0097423 0
0.00121317 0.0106296 0
0.00167675 0.0104177 0
0.0018505 0.00995414 0
0.00242934 0.00769671 0
0.00165836 0.00916864 0
0.00390126 0.00675176 0
0.00204385 0.00843267 0
0.00277981 0.0079602 0
0.0031653 0.00722423 0
0.00242934 0.00769945 0
0.000983518 0.00878967 0
0.00165836 0.00914527 0
0.00170643 0.00824456 0
0.00132094 0.00896747 0
0.00204385 0.00842236 0
0.00242385 0.00769671 0
0.00414301 0.00675176 0
0.00341385 0.00597755 0
0.00328343 0.00722423 0
0.00377843 0.00636465 0
0.00291885 0.00683713 0
0.00242385 0.00769945 0
0.00341385 0.00596252 0
0.000686919 0.00878967 0
0.00291885 0.00683098 0
0.00205038 0.00737609 0
0.00155539 0.00824456 0
0.000777149 0.00977811 0
0.000499942 0.0105855 0
0.00158455 0.00909699 0
0.000638546 0.0101818 0
0.00104225 0.00984125 0
0.00118085 0.00943755 0
0.000781872 0.00977811 0
0.00170664 0.00909699 0
0.000919841 0.00885335 0
0.00124426 0.00943755 0
0.00131324 0.00897517 0
0.000850856 0.00931573 0
0.000777149 0.00977575 0
5.2039e-05 0.01025 0
0.000499942 0.0105009 0
0.000414594 0.0100129 0
0.000275991 0.0103755 0
0.000638546 0.0101383 0
0.000781872 0.00977575 0
0.000919841 0.00897106 0
-2.28168e-05 0.01025 0
0.000850856 0.00937341 0
0.000448512 0.00961055 0
0.000379528 0.0100129 0
0.000494109 0.0110317 0
0.00103491 0.0110444 0
0.000522447 0.0104909 0
0.000764509 0.011038 0
0.000778678 0.0107676 0
0.000508278 0.0107613 0
0.000491534 0.0110317 0
0.00034601 0.0115463 0
0.00100612 0.0110444 0
0.000418772 0.011289 0
0.000676064 0.0112953 0
0.000748825 0.011038 0
0.000494109 0.0110304 0
0.000522447 0.0105679 0
3.15552e-05 0.0107884 0
0.000508278 0.0107992 0
0.000277001 0.0106781 0
0.000262832 0.0109094 0
0.000491534 0.0110304 0
3.46016e-05 0.0107884 0
0.00034601 0.0114874 0
0.000263068 0.0109094 0
0.000190306 0.0111379 0
0.000418772 0.0112589 0
0.0160802 0 0
0.01537 0 0
0.0128365 0.000710196 0
0.0157251 0 0
0.0141032 0.000355098 0
0.0144583 0.000355098 0
0.0160802 0 0
0.0128365 0.00074425 0
0.0168244 0 0
0.0144583 0.000372125 0
0.0148305 0.000372125 0
0.0164523 0 0
0.0114542 0.000940987 0
0.0126283 0.000918467 0
0.015603 -0.000233069 0
0.0120412 0.000929727 0
0.0141156 0.000342699 0
0.0135286 0.000353959 0
0.0114345 0.000940987 0
0.00793886 0.00253022 0
0.0130237 0.000918467 0
0.00968666 0.0017356 0
0.0104813 0.00172434 0
0.0122291 0.000929727 0
0.0114542 0.000931119 0
0.015603 -0.000350038 0
0.010173 0.00111978 0
0.0135286 0.000290541 0
0.012888 0.00038487 0
0.0108136 0.00102545 0
0.0114345 0.000931119 0
0.00958023 0.00111978 0
0.00793886 0.00278535 0
0.0105073 0.00102545 0
0.00875955 0.00195256 0
0.00968666 0.00185823 0
0.00572038 0.00357731 0
0.0032609 0.00499831 0
0.00341129 0.00603679 0
0.00449064 0.00428781 0
0.00333609 0.00551755 0
0.00456584 0.00480705 0
0.00572038 0.00356439 0
0.00341129 0.00577556 0
0.00793154 0.00271149 0
0.00456584 0.00466997 0
0.00567142 0.00424352 0
0.00682596 0.00313794 0
0.00569456 0.00357731 0
0.00945377 0.000804243 0
0.0029215 0.00499831 0
0.00757416 0.00219077 0
0.00618763 0.00290127 0
0.00430803 0.00428781 0
0.00569456 0.00356439 0
0.00801271 0.00271149 0
0.00945377 0.00124624 0
0.00685364 0.00313794 0
0.00873324 0.00197887 0
0.00757416 0.00240532 0
0.00167317 0.00740814 0
0.00365707 0.00579102 0
0.00283496 0.00542424 0
0.00266512 0.00659958 0
0.00324601 0.00560763 0
0.00225406 0.00641619 0
0.00168444 0.00740814 0
0.0008633 0.00896605 0
0.00324234 0.00579102 0
0.00127387 0.0081871 0
0.00205282 0.00737853 0
0.00246339 0.00659958 0
0.00167317 0.00741378 0
0.00283496 0.00541301 0
-0.000327594 0.00918834 0
0.00225406 0.00641339 0
0.00125368 0.00730067 0
0.000672788 0.00830106 0
0.00168444 0.00741378 0
0.000199792 0.00918834 0
0.0008633 0.00889842 0
0.000942115 0.00830106 0
0.000531546 0.00904338 0
0.00127387 0.0081561 0
0.0154961 0 0
0.00951027 0.000457012 0
0.0159531 0 0
0.0125032 0.000228506 0
0.0127317 0.000228506 0
0.0157246 0 0
0.0154961 0 0
0.0147562 0 0
0.00951027 0.000739849 0
0.0151261 0 0
0.0121332 0.000369925 0
0.0125032 0.000369925 0
0.0069148 0.00206718 0
0.00276949 0.0048463 0
0.00969392 0.00104439 0
0.00484214 0.00345674 0
0.0062317 0.00294534 0
0.00830436 0.00155578 0
0.00685108 0.00206718 0
0.00920573 0.00104439 0
0.0150437 -0.000287471 0
0.00802841 0.00155578 0
0.0121247 0.000378459 0
0.0109474 0.000889854 0
0.0069148 0.00209903 0
0.00330078 0.00405104 0
0.00276949 0.00571306 0
0.00510779 0.00307504 0
0.00303513 0.00488205 0
0.00484214 0.00390605 0
0.00685108 0.00209903 0
0.0150437 -0.00160021 0
0.00315184 0.00405104 0
0.0109474 0.000249412 0
0.00909776 0.00122541 0
0.00500146 0.00307504 0
-0.0283219 0.0309398 0
-0.0642134 0.0263698 0
-0.172464 0.0668313 0
-0.0462676 0.0286548 0
-0.118339 0.0466005 0
-0.100393 0.0488856 0
-0.061864 0.0309398 0
-0.0547327 0.0212743 0
-0.0715295 0.0263698 0
-0.0582983 0.026107 0
-0.0631311 0.023822 0
-0.0666967 0.0286548 0
-0.0638277 0 0
-0.105633 0 0
-0.079649 0.0418054 0
-0.0847305 0 0
-0.0926411 0.0209027 0
-0.0717384 0.0209027 0
-0.0638277 0 0
-0.079649 0.0141139 0
-0.0497139 0 0
-0.0717384 0.00705694 0
-0.0646814 0.00705694 0
-0.0567708 0 0
-0.0612555 0.00973292 0
-0.0683729 0.018199 0
-0.0571371 0.0168503 0
-0.0648142 0.0139659 0
-0.062755 0.0175246 0
-0.0591963 0.0132916 0
-0.0618391 0.00973292 0
-0.0537058 -0.00399193 0
-0.0755639 0.018199 0
-0.0577724 0.0028705 0
-0.0646349 0.00710352 0
-0.0687015 0.0139659 0
-0.0612555 0.00944114 0
-0.0571371 0.0158052 0
-0.0548914 0.00397266 0
-0.0591963 0.0126232 0
-0.0560143 0.00988892 0
-0.0580735 0.0067069 0
-0.0618391 0.00944114 0
-0.0535361 0.00397266 0
-0.0537058 0.0011382 0
-0.0576876 0.0067069 0
-0.053621 0.00255543 0
-0.0577724 0.00528967 0
-0.0479613 0 0
-0.0541698 0.0026651 0
-0.0452962 0 0
-0.0510655 0.00133255 0
-0.049733 0.00133255 0
-0.0466287 0 0
-0.0479613 0 0
-0.0525676 0 0
-0.0541698 0.00460632 0
-0.0502644 0 0
-0.0533687 0.00230316 0
-0.0510655 0.00230316 0
-0.0490652 0.00276607 0
-0.0461954 -0.000899199 0
-0.0527305 0.0041044 0
-0.0476303 0.000933435 0
-0.0494629 0.0016026 0
-0.0508979 0.00343523 0
-0.0490862 0.00276607 0
-0.0533232 0.0041044 0
-0.0490053 0.00700302 0
-0.0512047 0.00343523 0
-0.0511643 0.00555371 0
-0.0490458 0.00488455 0
-0.0490652 0.00277657 0
-0.046145 0.00189884 0
-0.0461954 -0.00014368 0
-0.0476051 0.0023377 0
-0.0461702 0.000877581 0
-0.0476303 0.00131644 0
-0.0490862 0.00277657 0
-0.0490053 0.00610053 0
-0.0457623 0.00189884 0
-0.0490458 0.00443855 0
-0.0473838 0.00399968 0
-0.0474242 0.0023377 0
-0.044583 0 0
-0.046339 0 0
-0.0460022 0.00175603 0
-0.045461 0 0
-0.0461706 0.000878013 0
-0.0452926 0.000878013 0
-0.044583 0 0
-0.0460022 0.00145409 0
-0.0431289 0 0
-0.0452926 0.000727044 0
-0.0445655 0.000727044 0
-0.043856 0 0
-0.043594 0.00160706 0
-0.0459025 0.00194935 0
-0.0429607 0.00391555 0
-0.0447483 0.00177821 0
-0.0444316 0.00293245 0
-0.0432774 0.00276131 0
-0.0435822 0.00160706 0
-0.0434465 -0.000317612 0
-0.0455069 0.00194935 0
-0.0435144 0.000644724 0
-0.0444767 0.000815871 0
-0.0445446 0.00177821 0
-0.043594 0.00161295 0
-0.0429607 0.00365637 0
-0.0415506 0.00144896 0
-0.0432774 0.00263466 0
-0.0422557 0.00255266 0
-0.0425723 0.00153095 0
-0.0435822 0.00161295 0
-0.0418284 0.00144896 0
-0.0434465 -0.000140897 0
-0.0427053 0.00153095 0
-0.0426375 0.000654029 0
-0.0435144 0.000736027 0
-0.0422575 0 0
-0.0417094 0.00128727 0
-0.0409702 0 0
-0.0419834 0.000643634 0
-0.0413398 0.000643634 0
-0.0416139 0 0
-0.0422575 0 0
-0.0435874 0 0
-0.0417094 0.00132994 0
-0.0429225 0 0
-0.0426484 0.000664969 0
-0.0419834 0.000664969 0
-0.0400106 0.00139767 0
-0.0410888 -0.000118556 0
-0.0415268 0.00146986 0
-0.0405497 0.000639555 0
-0.0413078 0.000675651 0
-0.0407687 0.00143376 0
-0.0400165 0.00139767 0
-0.0417296 0.00146986 0
-0.0387392 0.00311076 0
-0.040873 0.00143376 0
-0.0402344 0.00229031 0
-0.0393778 0.00225421 0
-0.0400106 0.00140063 0
-0.0385269 0.00139254 0
-0.0410888 -8.30729e-05 0
-0.0392687 0.00139659 0
-0.0398078 0.000654735 0
-0.0405497 0.000658777 0
-0.0400165 0.00140063 0
-0.0387392 0.0030338 0
-0.0383833 0.00139254 0
-0.0393778 0.00221722 0
-0.0385612 0.00221317 0
-0.0391999 0.00139659 0
-0.0398483 0 0
-0.0411719 0 0
-0.0384579 0.00132357 0
-0.0405101 0 0
-0.0398149 0.000661784 0
-0.0391531 0.000661784 0
-0.0398483 0 0
-0.0384579 0.00133575 0
-0.0385125 0 0
-0.0391531 0.000667875 0
-0.0384852 0.000667875 0
-0.0391804 0 0
-0.0369457 0.0014083 0
-0.0384841 0.00140301 0
-0.0353056 0.00294675 0
-0.0377149 0.00140565 0
-0.0368949 0.00217488 0
-0.0361256 0.00217753 0
-0.0369425 0.0014083 0
-0.0385523 -3.9798e-05 0
-0.0383906 0.00140301 0
-0.0377474 0.00068425 0
-0.0384715 0.000681606 0
-0.0376666 0.00140565 0
-0.0369457 0.00140987 0
-0.0353056 0.00292745 0
-0.0354281 0.00143621 0
-0.0361256 0.00216866 0
-0.0353668 0.00218183 0
-0.0361869 0.00142304 0
-0.0369425 0.00140987 0
-0.0354902 0.00143621 0
-0.0385523 -4.24461e-05 0
-0.0362164 0.00142304 0
-0.0370213 0.000696881 0
-0.0377474 0.00068371 0
-0.0371923 0 0
-0.0354565 0.00142332 0
-0.035769 0 0
-0.0363244 0.000711661 0
-0.0356127 0.000711661 0
-0.0364806 0 0
-0.0371923 0 0
-0.0385948 0 0
-0.0354565 0.0014025 0
-0.0378935 0 0
-0.0370256 0.000701248 0
-0.0363244 0.000701248 0
-0.0339678 0.00146401 0
-0.035775 -6.06776e-06 0
-0.0354379 0.00144191 0
-0.0348714 0.000728972 0
-0.0356065 0.000717921 0
-0.0347029 0.00145296 0
-0.0339695 0.00146401 0
-0.0354708 0.00144191 0
-0.0321764 0.00296529 0
-0.0347202 0.00145296 0
-0.0338236 0.0022036 0
-0.033073 0.00221465 0
-0.0339678 0.00146486 0
-0.0324868 0.00149041 0
-0.035775 -1.6161e-05 0
-0.0332273 0.00147763 0
-0.0341309 0.000737124 0
-0.0348714 0.000724348 0
-0.0339695 0.00146486 0
-0.0321764 0.00296355 0
-0.0324708 0.00149041 0
-0.033073 0.00221421 0
-0.0323236 0.00222698 0
-0.0332202 0.00147763 0
-0.0343113 0 0
-0.0357912 0 0
-0.0324763 0.00147992 0
-0.0350512 0 0
-0.0341338 0.000739961 0
-0.0333938 0.000739961 0
-0.0343113 0 0
-0.0324763 0.00149578 0
-0.0328155 0 0
-0.0333938 0.000747889 0
-0.0326459 0.000747889 0
-0.0335634 0 0
-0.0309764 0.00151052 0
-0.0324787 0.00149347 0
-0.0291571 0.00301277 0
-0.0317276 0.001502 0
-0.0308179 0.00225312 0
-0.0300668 0.00226165 0
-0.0309756 0.00151052 0
-0.032808 7.50011e-06 0
-0.0324786 0.00149347 0
-0.0318918 0.000759012 0
-0.0326433 0.000750487 0
-0.0317271 0.001502 0
-0.0309764 0.00151094 0
-0.0291571 0.00301365 0
-0.0294737 0.00152366 0
-0.0300668 0.0022623 0
-0.0293154 0.00226866 0
-0.0302251 0.0015173 0
-0.0309756 0.00151094 0
-0.0294654 0.00152366 0
-0.032808 7.64543e-07 0
-0.0302205 0.0015173 0
-0.0311367 0.000762213 0
-0.0318918 0.000755853 0
-0.0312793 0 0
-0.0294698 0.001534 0
-0.0297452 0 0
-0.0303745 0.000767002 0
-0.0296075 0.000767002 0
-0.0305122 0 0
-0.0312793 0 0
-0.0328072 0 0
-0.0294698 0.00152799 0
-0.0320432 0 0
-0.0311385 0.000763993 0
-0.0303745 0.000763993 0
-0.0279611 0.0015278 0
-0.0297351 1.01267e-05 0
-0.0294788 0.00152496 0
-0.0288481 0.000768963 0
-0.029607 0.000767544 0
-0.02872 0.00152638 0
-0.0279614 0.0015278 0
-0.0294638 0.00152496 0
-0.0261809 0.00303024 0
-0.0287126 0.00152638 0
-0.0278223 0.0022776 0
-0.0270711 0.00227902 0
-0.0279611 0.00152791 0
-0.0264443 0.00152302 0
-0.0297351 1.11391e-05 0
-0.0272027 0.00152547 0
-0.0280897 0.000767079 0
-0.0288481 0.000769527 0
-0.0279614 0.00152791 0
-0.0261809 0.00302762 0
-0.0264617 0.00152302 0
-0.0270711 0.00227777 0
-0.0263213 0.00227532 0
-0.0272115 0.00152547 0
-0.0247037 0.00300897 0
-0.0232274 0.00298339 0
-0.0264571 0.0015326 0
-0.0239656 0.00299618 0
-0.0248422 0.002258 0
-0.0255804 0.00227078 0
-0.0247037 0.00300901 0
-0.0264571 0.00152756 0
-0.0261852 0.00302332 0
-0.0255804 0.00226828 0
-0.0263212 0.00227544 0
-0.0254445 0.00301616 0
-0.0247037 0.00300897 0
-0.0229333 0.00447381 0
-0.0232388 0.00298339 0
-0.0238185 0.00374139 0
-0.023086 0.0037286 0
-0.0239712 0.00299618 0
-0.0247037 0.00300901 0
-0.0261729 0.00302332 0
-0.0229333 0.00447823 0
-0.0254383 0.00301616 0
-0.0245531 0.00375078 0
-0.0238185 0.00374362 0
-0.0281883 0 0
-0.029724 0 0
-0.026457 0.00153566 0
-0.0289561 0 0
-0.0280905 0.000767832 0
-0.0273227 0.000767832 0
-0.0281883 0 0
-0.026457 0.00152949 0
-0.0266588 0 0
-0.0273227 0.000764745 0
-0.0265579 0.000764745 0
-0.0274236 0 0
-0.0249618 0.00150653 0
-0.0264474 0.00152284 0
-0.023236 0.00299206 0
-0.0257046 0.00151469 0
-0.0248417 0.00225745 0
-0.0240989 0.0022493 0
-0.0249622 0.00150653 0
-0.0266538 5.04279e-06 0
-0.0264636 0.00152284 0
-0.025808 0.000755787 0
-0.0265587 0.000763943 0
-0.0257129 0.00151469 0
-0.0249618 0.00150637 0
-0.023236 0.00298345 0
-0.0234847 0.00148144 0
-0.0240989 0.00224491 0
-0.0233604 0.00223244 0
-0.0242233 0.0014939 0
-0.0249622 0.00150637 0
-0.0234717 0.00148144 0
-0.0266538 1.59547e-05 0
-0.0242169 0.0014939 0
-0.0250628 0.000748697 0
-0.025808 0.000761161 0
-0.0214881 0.00443485 0
-0.0232362 0.00298602 0
-0.0229369 0.00447019 0
-0.0223621 0.00371043 0
-0.0230865 0.0037281 0
-0.0222125 0.00445252 0
-0.0214878 0.00443485 0
-0.0229251 0.00447019 0
-0.019733 0.00587214 0
-0.0222064 0.00445252 0
-0.021329 0.00517117 0
-0.0206104 0.00515349 0
-0.0214881 0.00443471 0
-0.0200421 0.00438789 0
-0.0232362 0.00298878 0
-0.0207651 0.0044113 0
-0.0216392 0.00368833 0
-0.0223621 0.00371174 0
-0.0214878 0.00443471 0
-0.019733 0.0058713 0
-0.0200512 0.00438789 0
-0.0206104 0.00515301 0
-0.0198921 0.0051296 0
-0.0207695 0.0044113 0
-0.0183154 0.00581764 0
-0.016887 0.00576315 0
-0.0200458 0.00438924 0
-0.0176012 0.0057904 0
-0.0184664 0.00507619 0
-0.0191806 0.00510344 0
-0.0183154 0.00581778 0
-0.0200458 0.00439332 0
-0.0197399 0.0058644 0
-0.0191806 0.00510555 0
-0.0198928 0.00512886 0
-0.0190277 0.00584109 0
-0.0183151 0.00581764 0
-0.016603 0.00723328 0
-0.0168995 0.00576315 0
-0.0174591 0.00652546 0
-0.0167513 0.00649821 0
-0.0176073 0.0057904 0
-0.0183151 0.00581778 0
-0.0197246 0.0058644 0
-0.016603 0.00722722 0
-0.0190199 0.00584109 0
-0.0181638 0.00654581 0
-0.0174591 0.0065225 0
-0.0186028 0.00432255 0
-0.0200434 0.00438683 0
-0.0168869 0.00576308 0
-0.0193231 0.00435469 0
-0.0184652 0.00507495 0
-0.0177449 0.00504281 0
-0.0186034 0.00432255 0
-0.0203307 0.00287977 0
-0.0200462 0.00438683 0
-0.019467 0.00360116 0
-0.0201884 0.0036333 0
-0.0193248 0.00435469 0
-0.0186028 0.00432225 0
-0.0168869 0.00576824 0
-0.0171568 0.00425008 0
-0.0177449 0.00504525 0
-0.0170219 0.00500916 0
-0.0178798 0.00428616 0
-0.0186034 0.00432225 0
-0.0171599 0.00425008 0
-0.0203307 0.00287873 0
-0.0178817 0.00428616 0
-0.0187453 0.0035644 0
-0.019467 0.00360049 0
-0.0217771 0.00293832 0
-0.0232303 0.00298294 0
-0.0200458 0.00439157 0
-0.0225037 0.00296063 0
-0.0216381 0.00368725 0
-0.0209115 0.00366495 0
-0.0217771 0.00293806 0
-0.0200458 0.00438722 0
-0.0203279 0.00288252 0
-0.0209115 0.00366264 0
-0.0201869 0.00363487 0
-0.0210525 0.00291029 0
-0.0217776 0.00293832 0
-0.0234868 0.00147939 0
-0.0232366 0.00298294 0
-0.0226322 0.00220885 0
-0.0233617 0.00223116 0
-0.0225071 0.00296063 0
-0.0217776 0.00293806 0
-0.020327 0.00288252 0
-0.0234868 0.00148746 0
-0.0210523 0.00291029 0
-0.0219069 0.00218499 0
-0.0226322 0.00221276 0
-0.0152125 0.00718072 0
-0.0168864 0.00577623 0
-0.016617 0.0072193 0
-0.0160495 0.00647848 0
-0.0167517 0.00649777 0
-0.0159148 0.00720001 0
-0.0152124 0.00718072 0
-0.0165925 0.0072193 0
-0.0135874 0.00856074 0
-0.0159024 0.00720001 0
-0.0150899 0.00789002 0
-0.0143999 0.00787073 0
-0.0152125 0.00718066 0
-0.0137954 0.00714126 0
-0.0168864 0.00576354 0
-0.014504 0.00716096 0
-0.0153409 0.0064524 0
-0.0160495 0.0064721 0
-0.0152124 0.00718066 0
-0.0135874 0.00857421 0
-0.0138189 0.00714126 0
-0.0143999 0.00787744 0
-0.0137032 0.00785774 0
-0.0145157 0.00716096 0
-0.0251417 0 0
-0.0234864 0.00147596 0
-0.0236657 0 0
-0.0243141 0.00073798 0
-0.0235761 0.00073798 0
-0.0244037 0 0
-0.0251417 0 0
-0.0266378 0 0
-0.0234864 0.00149614 0
-0.0258898 0 0
-0.0250621 0.000748072 0
-0.0243141 0.000748072 0
-0.0220345 0.00144063 0
-0.0236733 -7.552e-06 0
-0.0234827 0.00147969 0
-0.0228539 0.000716538 0
-0.023578 0.000736068 0
-0.0227586 0.00146016 0
-0.0220335 0.00144063 0
-0.023479 0.00147969 0
-0.0203306 0.00288613 0
-0.0227563 0.00146016 0
-0.0219048 0.00218291 0
-0.0211821 0.00216338 0
-0.0220345 0.00144012 0
-0.0206088 0.001394 0
-0.0236733 1.43627e-05 0
-0.0213217 0.00141706 0
-0.022141 0.000704179 0
-0.0228539 0.000727243 0
-0.0220335 0.00144012 0
-0.0203306 0.00287128 0
-0.0206024 0.001394 0
-0.0211821 0.0021557 0
-0.0204665 0.00213264 0
-0.021318 0.00141706 0
-0.0188939 0.00280397 0
-0.0171532 0.00424214 0
-0.0174557 0.002722 0
-0.0180236 0.00352306 0
-0.0173045 0.00348207 0
-0.0181748 0.00276299 0
-0.0188939 0.00280451 0
-0.0203328 0.00288082 0
-0.0171532 0.00424339 0
-0.0196133 0.00284267 0
-0.018743 0.0035621 0
-0.0180236 0.00352395 0
-0.018895 0.00280397 0
-0.0174783 0.002722 0
-0.020618 0.00138725 0
-0.0181866 0.00276299 0
-0.0190481 0.00205463 0
-0.0197565 0.00209561 0
-0.018895 0.00280451 0
-0.020618 0.0013784 0
-0.0203211 0.00288082 0
-0.0197565 0.00209145 0
-0.0204695 0.00212961 0
-0.019608 0.00284267 0
-0.0154456 0.00570227 0
-0.0171526 0.00425427 0
-0.0168936 0.00576155 0
-0.0162991 0.00497827 0
-0.0170231 0.00500791 0
-0.0161696 0.00573191 0
-0.0154456 0.0057021 0
-0.0139836 0.00564431 0
-0.0171526 0.00424007 0
-0.0147146 0.0056732 0
-0.0155681 0.00494219 0
-0.0162991 0.00497109 0
-0.0154453 0.00570227 0
-0.0168844 0.00576155 0
-0.0137956 0.00714142 0
-0.0161649 0.00573191 0
-0.01534 0.00645149 0
-0.0146204 0.00642185 0
-0.0154453 0.0057021 0
-0.0137956 0.00715804 0
-0.0139893 0.00564431 0
-0.0146204 0.00643007 0
-0.0138925 0.00640117 0
-0.0147173 0.0056732 0
-0.0156934 0.00416562 0
-0.0174666 0.00271115 0
-0.0171479 0.00424748 0
-0.01658 0.00343838 0
-0.0173072 0.00347932 0
-0.0164206 0.00420655 0
-0.0156925 0.00416562 0
-0.0171601 0.00424748 0
-0.0139724 0.00563314 0
-0.0164263 0.00420655 0
-0.0155662 0.00494031 0
-0.0148325 0.00489938 0
-0.0156934 0.00416519 0
-0.014228 0.00408819 0
-0.0174666 0.00269982 0
-0.0149607 0.00412669 0
-0.0158473 0.003394 0
-0.01658 0.0034325 0
-0.0156925 0.00416519 0
-0.0139724 0.00565048 0
-0.0142072 0.00408819 0
-0.0148325 0.00490784 0
-0.0140898 0.00486934 0
-0.0149499 0.00412669 0
-0.0222563 0 0
-0.0236589 0 0
-0.0206173 0.00140257 0
-0.0229576 0 0
-0.0221381 0.000701284 0
-0.0214368 0.000701284 0
-0.0222563 0 0
-0.0206173 0.00136668 0
-0.0208897 0 0
-0.0214368 0.00068334 0
-0.0207535 0.00068334 0
-0.021573 0 0
-0.0192361 0.00132591 0
-0.0206209 0.00139014 0
-0.0174669 0.00271067 0
-0.0199285 0.00135802 0
-0.0190439 0.00205041 0
-0.0183515 0.00201829 0
-0.0192382 0.00132591 0
-0.0209195 -2.98295e-05 0
-0.0205939 0.00139014 0
-0.0200788 0.000648038 0
-0.0207567 0.000680155 0
-0.019916 0.00135802 0
-0.0192361 0.00132488 0
-0.0174669 0.00269266 0
-0.0178683 0.00125925 0
-0.0183515 0.00200877 0
-0.0176676 0.00197596 0
-0.0185522 0.00129207 0
-0.0192382 0.00132488 0
-0.0179159 0.00125925 0
-0.0209195 2.58846e-06 0
-0.018577 0.00129207 0
-0.0194177 0.000630921 0
-0.0200788 0.000663733 0
-0.0122355 0.00854151 0
-0.0108402 0.00853998 0
-0.0137944 0.00714621 0
-0.0115379 0.00854074 0
-0.0123173 0.0078431 0
-0.013015 0.00784386 0
-0.0122355 0.00854142 0
-0.0137944 0.00716572 0
-0.0136112 0.00855044 0
-0.013015 0.00785357 0
-0.0137028 0.00785808 0
-0.0129234 0.00854593 0
-0.0122357 0.00854151 0
-0.0107509 0.00989561 0
-0.0108816 0.00853998 0
-0.0114933 0.00921856 0
-0.0108162 0.0092178 0
-0.0115586 0.00854074 0
-0.0122357 0.00854142 0
-0.0135716 0.00855044 0
-0.0107509 0.00987736 0
-0.0129037 0.00854593 0
-0.0121613 0.0092139 0
-0.0114933 0.00920939 0
-0.0123593 0.00711799 0
-0.0137876 0.00713936 0
-0.0108465 0.00854629 0
-0.0130734 0.00712868 0
-0.0123171 0.00784282 0
-0.0116029 0.00783214 0
-0.0123591 0.00711799 0
-0.0139708 0.00566286 0
-0.0138143 0.00713936 0
-0.013165 0.00639043 0
-0.0138925 0.00640111 0
-0.0130867 0.00712868 0
-0.0123593 0.00711806 0
-0.0108465 0.00857125 0
-0.0109061 0.00711158 0
-0.0116029 0.00784465 0
-0.0108763 0.00784141 0
-0.0116327 0.00711482 0
-0.0123591 0.00711806 0
-0.010878 0.00711158 0
-0.0139708 0.0056369 0
-0.0116186 0.00711482 0
-0.0124244 0.00637424 0
-0.013165 0.00637748 0
-0.00946577 0.0098955 0
-0.010845 0.00857657 0
-0.0107847 0.00986179 0
-0.0101554 0.00923604 0
-0.0108149 0.00921918 0
-0.0101252 0.00987864 0
-0.00946621 0.0098955 0
-0.0107273 0.00986179 0
-0.00817077 0.0111566 0
-0.0100968 0.00987864 0
-0.00944905 0.0105092 0
-0.00881849 0.0105261 0
-0.00946577 0.00989573 0
-0.00812551 0.00994193 0
-0.010845 0.00855547 0
-0.00879564 0.00991883 0
-0.00948526 0.0092487 0
-0.0101554 0.0092256 0
-0.00946621 0.00989573 0
-0.00817077 0.0111746 0
-0.00818734 0.00994193 0
-0.00881849 0.0105352 0
-0.00817905 0.0105583 0
-0.00882678 0.00991883 0
-0.0069952 0.0112044 0
-0.0059214 0.0123604 0
-0.00583925 0.0112833 0
-0.0064583 0.0117824 0
-0.00588033 0.0118219 0
-0.00641722 0.0112439 0
-0.0069952 0.0112042 0
-0.00813906 0.0111337 0
-0.0059214 0.0123481 0
-0.00756713 0.011169 0
-0.00703023 0.0117409 0
-0.0064583 0.0117761 0
-0.00699468 0.0112044 0
-0.00576148 0.0112833 0
-0.00814206 0.00997125 0
-0.00637808 0.0112439 0
-0.00695177 0.0106273 0
-0.00756837 0.0105878 0
-0.00699468 0.0112042 0
-0.00814206 0.00998721 0
-0.00821166 0.0111337 0
-0.00756837 0.0105957 0
-0.00817686 0.0105605 0
-0.00760317 0.011169 0
-0.00489985 0.0123943 0
-0.00579215 0.0113304 0
-0.00596376 0.012318 0
-0.005346 0.0118624 0
-0.00587796 0.0118242 0
-0.00543181 0.0123562 0
-0.00490017 0.0123943 0
-0.00588405 0.012318 0
-0.00405576 0.0133782 0
-0.00539211 0.0123562 0
-0.0049699 0.0128481 0
-0.00447796 0.0128863 0
-0.00489985 0.0123945 0
-0.00383006 0.0124621 0
-0.00579215 0.0113247 0
-0.00436495 0.0124283 0
-0.00481111 0.0118934 0
-0.005346 0.0118596 0
-0.00490017 0.0123945 0
-0.00405576 0.0133816 0
-0.00391303 0.0124621 0
-0.00447796 0.0128881 0
-0.00398439 0.0129219 0
-0.0044066 0.0124283 0
-0.0068417 0.0100432 0
-0.00811228 0.00994147 0
-0.00579191 0.0113137 0
-0.00747699 0.00999232 0
-0.00695209 0.0106276 0
-0.0063168 0.0106785 0
-0.00684084 0.0100432 0
-0.00799321 0.00869726 0
-0.00818674 0.00994147 0
-0.00741703 0.00937021 0
-0.00808998 0.00931937 0
-0.00751379 0.00999232 0
-0.0068417 0.0100436 0
-0.00579191 0.0113305 0
-0.00555476 0.0101687 0
-0.0063168 0.0106871 0
-0.00567333 0.0107496 0
-0.00619823 0.0101062 0
-0.00684084 0.0100436 0
-0.00547177 0.0101687 0
-0.00799321 0.00867452 0
-0.00615631 0.0101062 0
-0.00673249 0.00942163 0
-0.00741703 0.00935905 0
-0.00944813 0.00857983 0
-0.0108279 0.00853836 0
-0.00814318 0.0099596 0
-0.010138 0.00855909 0
-0.00948553 0.00924898 0
-0.00879565 0.00926971 0
-0.00944813 0.00858016 0
-0.00814318 0.00998504 0
-0.00804324 0.00864723 0
-0.00879565 0.0092826 0
-0.00809321 0.00931614 0
-0.00874568 0.00861369 0
-0.00944747 0.00857983 0
-0.0108698 0.00714789 0
-0.0108794 0.00853836 0
-0.0101586 0.00786386 0
-0.0108746 0.00784312 0
-0.0101634 0.00855909 0
-0.00944747 0.00858016 0
-0.00798517 0.00864723 0
-0.0108698 0.00711785 0
-0.00871632 0.00861369 0
-0.00942748 0.00788254 0
-0.0101586 0.007849 0
-0.00322358 0.0133734 0
-0.00235936 0.0133647 0
-0.00387165 0.0125092 0
-0.00279147 0.013369 0
-0.00311551 0.0129369 0
-0.00354761 0.0129413 0
-0.00322358 0.0133734 0
-0.00387165 0.0125035 0
-0.00409352 0.0133439 0
-0.00354761 0.0129385 0
-0.00398258 0.0129237 0
-0.00365855 0.0133586 0
-0.00322353 0.0133734 0
-0.00259284 0.0141619 0
-0.002435 0.0133647 0
-0.00290819 0.0137677 0
-0.00251392 0.0137633 0
-0.00282927 0.013369 0
-0.00322353 0.0133734 0
-0.00401739 0.0133439 0
-0.00259284 0.0141673 0
-0.00362046 0.0133586 0
-0.00330512 0.0137556 0
-0.00290819 0.0137704 0
-0.00465524 0.0114045 0
-0.00575231 0.0112849 0
-0.0038695 0.0125015 0
-0.00520377 0.0113447 0
-0.00481091 0.0118932 0
-0.00426237 0.011953 0
-0.00465524 0.0114048 0
-0.0038695 0.0125042 0
-0.00355583 0.0115254 0
-0.00426237 0.0119545 0
-0.00371267 0.0120148 0
-0.00410554 0.0114651 0
-0.00465468 0.0114045 0
-0.0055019 0.0102216 0
-0.00583756 0.0112849 0
-0.00507829 0.010813 0
-0.00566973 0.0107532 0
-0.00524612 0.0113447 0
-0.00465468 0.0114048 0
-0.00346502 0.0115254 0
-0.0055019 0.0102151 0
-0.00405985 0.0114651 0
-0.00448346 0.0108702 0
-0.00507829 0.0108099 0
-0.00294948 0.012527 0
-0.00382844 0.012466 0
-0.00240066 0.013406 0
-0.00338896 0.0124965 0
-0.00311455 0.012936 0
-0.00267507 0.0129665 0
-0.00294953 0.012527 0
-0.00351238 0.0115688 0
-0.0039077 0.012466 0
-0.00323095 0.0120479 0
-0.00371004 0.0120174 0
-0.00342862 0.0124965 0
-0.00294948 0.012527 0
-0.00240066 0.0133952 0
-0.00208129 0.0125477 0
-0.00267507 0.0129611 0
-0.00224097 0.0129714 0
-0.00251538 0.0125374 0
-0.00294953 0.012527 0
-0.00200258 0.0125477 0
-0.00351238 0.01158 0
-0.00247605 0.0125374 0
-0.00275748 0.0120639 0
-0.00323095 0.0120535 0
-0.00196417 0.0140527 0
-0.0024045 0.0133952 0
-0.00262172 0.014133 0
-0.00218433 0.013724 0
-0.00251311 0.0137641 0
-0.00229294 0.0140929 0
-0.00196373 0.0140527 0
-0.00255849 0.014133 0
-0.00151598 0.0146475 0
-0.00226111 0.0140929 0
-0.00203723 0.0143903 0
-0.00173986 0.0143501 0
-0.00196417 0.0140525 0
-0.00132108 0.0138965 0
-0.0024045 0.0134094 0
-0.00164262 0.0139745 0
-0.00186279 0.013653 0
-0.00218433 0.013731 0
-0.00196373 0.0140525 0
-0.00151598 0.0146363 0
-0.00137996 0.0138965 0
-0.00173986 0.0143444 0
-0.00144797 0.0142664 0
-0.00167185 0.0139745 0
-0.00936594 0.00716394 0
-0.0109034 0.00562683 0
-0.010903 0.0071085 0
-0.0101347 0.00639538 0
-0.0109032 0.00636766 0
-0.0101345 0.00713622 0
-0.00936688 0.00716394 0
-0.0108604 0.0071085 0
-0.00799543 0.00865749 0
-0.0101137 0.00713622 0
-0.00942793 0.00788299 0
-0.00868115 0.00791071 0
-0.00936594 0.00716441 0
-0.00778498 0.00726594 0
-0.0109034 0.00558345 0
-0.00857546 0.00721517 0
-0.00934418 0.0064247 0
-0.0101347 0.00637393 0
-0.00936688 0.00716441 0
-0.00799543 0.0086943 0
-0.00783699 0.00726594 0
-0.00868115 0.00792935 0
-0.00791621 0.00798012 0
-0.00860193 0.00721517 0
-0.0124731 0.00560402 0
-0.0108723 0.00713919 0
-0.0109379 0.00559231 0
-0.0116727 0.0063716 0
-0.0109051 0.00636575 0
-0.0117055 0.00559816 0
-0.0124731 0.00560405 0
-0.013975 0.00564108 0
-0.0108723 0.00710595 0
-0.013224 0.00562256 0
-0.0124237 0.00637351 0
-0.0116727 0.006355 0
-0.0124731 0.00560402 0
-0.0109317 0.00559231 0
-0.0142001 0.00406259 0
-0.0117024 0.00559816 0
-0.0125659 0.00482745 0
-0.0133366 0.0048333 0
-0.0124731 0.00560405 0
-0.0142001 0.00409534 0
-0.0139818 0.00564108 0
-0.0133366 0.0048497 0
-0.014091 0.00486821 0
-0.0132275 0.00562256 0
-0.00656755 0.00880272 0
-0.00550197 0.0102228 0
-0.00514749 0.00900784 0
-0.00603476 0.00951275 0
-0.00532473 0.00961531 0
-0.00585752 0.00890528 0
-0.00656755 0.008802 0
-0.00796449 0.00864579 0
-0.00550197 0.0101989 0
-0.00726602 0.0087239 0
-0.00673323 0.00942236 0
-0.00603476 0.00950047 0
-0.00656612 0.00880272 0
-0.00505369 0.00900784 0
-0.00777873 0.00729029 0
-0.0058099 0.00890528 0
-0.00641621 0.00814906 0
-0.00717243 0.0080465 0
-0.00656612 0.008802 0
-0.00777873 0.00732419 0
-0.00804393 0.00864579 0
-0.00717243 0.0080631 0
-0.00791133 0.00798499 0
-0.00730502 0.0087239 0
-0.00425616 0.0103695 0
-0.00508388 0.00907145 0
-0.00555423 0.0101705 0
-0.00467002 0.00972048 0
-0.00531905 0.00962098 0
-0.0049052 0.01027 0
-0.0042571 0.0103695 0
-0.00545733 0.0101705 0
-0.00350937 0.0115697 0
-0.00485722 0.01027 0
-0.00448335 0.0108701 0
-0.00388324 0.0109696 0
-0.00425616 0.01037 0
-0.00294997 0.0105868 0
-0.00508388 0.00906379 0
-0.00360307 0.0104784 0
-0.00401692 0.0098253 0
-0.00467002 0.00971689 0
-0.0042571 0.01037 0
-0.00350937 0.0115708 0
-0.00305629 0.0105868 0
-0.00388324 0.0109704 0
-0.00328283 0.0110788 0
-0.00365669 0.0104784 0
-0.00930553 0.0056627 0
-0.0109067 0.00558677 0
-0.0077829 0.00726385 0
-0.0101061 0.00562474 0
-0.00934479 0.00642531 0
-0.00854422 0.00646328 0
-0.00930553 0.00566333 0
-0.0077829 0.00731937 0
-0.00764949 0.0058157 0
-0.00854422 0.00649135 0
-0.00771619 0.00656754 0
-0.00847751 0.00573952 0
-0.00930428 0.0056627 0
-0.0110677 0.00403529 0
-0.0109317 0.00558677 0
-0.010186 0.004849 0
-0.0109997 0.00481103 0
-0.010118 0.00562474 0
-0.00930428 0.00566333 0
-0.00761195 0.0058157 0
-0.0110677 0.003971 0
-0.00845812 0.00573952 0
-0.00933985 0.00489335 0
-0.010186 0.00481717 0
-0.00622116 0.00750851 0
-0.00775118 0.00726273 0
-0.00508438 0.00903853 0
-0.00698617 0.00738562 0
-0.00641778 0.00815063 0
-0.00565277 0.00827352 0
-0.00621861 0.00750851 0
-0.00757762 0.00588758 0
-0.00783954 0.00726273 0
-0.00689811 0.00669804 0
-0.00770858 0.00657516 0
-0.00702907 0.00738562 0
-0.00622116 0.00750979 0
-0.00508438 0.00907492 0
-0.00465603 0.00784649 0
-0.00565277 0.00829235 0
-0.0048702 0.0084607 0
-0.00543859 0.00767814 0
-0.00621861 0.00750979 0
-0.00454213 0.00784649 0
-0.00757762 0.00583332 0
-0.00538037 0.00767814 0
-0.00605988 0.0068399 0
-0.00689811 0.00667155 0
-0.0126794 0.00402695 0
-0.0142205 0.00408301 0
-0.0109075 0.00556808 0
-0.0134499 0.00405498 0
-0.012564 0.00482555 0
-0.0117934 0.00479752 0
-0.0126801 0.00402695 0
-0.0146033 0.00251389 0
-0.0141932 0.00408301 0
-0.0136417 0.00327042 0
-0.0143982 0.00329845 0
-0.0134366 0.00405498 0
-0.0126794 0.00402658 0
-0.0109075 0.00561098 0
-0.011095 0.00400806 0
-0.0117934 0.00481878 0
-0.0110012 0.00480952 0
-0.0118872 0.00401732 0
-0.0126801 0.00402658 0
-0.0111297 0.00400806 0
-0.0146033 0.00247615 0
-0.0119049 0.00401732 0
-0.0128665 0.00324211 0
-0.0136417 0.00325136 0
-0.0160424 0.00261969 0
-0.017485 0.00271825 0
-0.0142021 0.00406228 0
-0.0167637 0.00266897 0
-0.0158436 0.00339026 0
-0.0151223 0.00334098 0
-0.0160424 0.00261878 0
-0.0142021 0.00407408 0
-0.0145871 0.00253009 0
-0.0151223 0.00334643 0
-0.0143946 0.00330208 0
-0.0153148 0.00257443 0
-0.0160442 0.00261969 0
-0.017905 0.00122257 0
-0.0174413 0.00271825 0
-0.0169746 0.00192113 0
-0.0176732 0.00197041 0
-0.0167428 0.00266897 0
-0.0160442 0.00261878 0
-0.014649 0.00253009 0
-0.017905 0.0012235 0
-0.0153466 0.00257443 0
-0.016277 0.00187679 0
-0.0169746 0.00192114 0
-0.00108224 0.0143664 0
-0.000648424 0.0140003 0
-0.0013619 0.0139326 0
-0.000865334 0.0141833 0
-0.00100516 0.0139664 0
-0.00122207 0.0141495 0
-0.00108224 0.0143668 0
-0.0013619 0.0139146 0
-0.00153443 0.0146178 0
-0.00122207 0.0141407 0
-0.00144816 0.0142662 0
-0.00130834 0.0144923 0
-0.00108154 0.0143664 0
-0.000780816 0.0147617 0
-0.000686268 0.0140003 0
-0.000931177 0.014564 0
-0.000733542 0.014381 0
-0.000883903 0.0141833 0
-0.00108154 0.0143668 0
-0.00148953 0.0146178 0
-0.000780816 0.0147747 0
-0.00128553 0.0144923 0
-0.00113517 0.0146963 0
-0.000931177 0.0145708 0
-0.000893498 0.0135872 0
-0.00133252 0.0139032 0
-0.000674367 0.0140262 0
-0.00111301 0.0137452 0
-0.00100344 0.0139647 0
-0.000783932 0.0138067 0
-0.000894421 0.0135872 0
-0.00107597 0.0131142 0
-0.00136744 0.0139032 0
-0.000985195 0.0133507 0
-0.0012217 0.0135087 0
-0.00113093 0.0137452 0
-0.000893498 0.0135867 0
-0.000674367 0.0140053 0
-0.000474894 0.0131304 0
-0.000783932 0.013796 0
-0.000574631 0.0135679 0
-0.000684196 0.0133586 0
-0.000894421 0.0135867 0
-0.000449204 0.0131304 0
-0.00107597 0.0131415 0
-0.000671812 0.0133586 0
-0.000762586 0.013136 0
-0.000985195 0.0133641 0
-0.00171613 0.0132832 0
-0.00236548 0.0133704 0
-0.00135706 0.0139325 0
-0.0020408 0.0133268 0
-0.00186127 0.0136515 0
-0.00153659 0.0136078 0
-0.00171613 0.0132828 0
-0.00135706 0.0139136 0
-0.00108539 0.0131047 0
-0.00153659 0.0135982 0
-0.00122123 0.0135092 0
-0.00140076 0.0131938 0
-0.00171675 0.0132832 0
-0.00205455 0.0125745 0
-0.00242543 0.0133704 0
-0.00188565 0.0129288 0
-0.00223999 0.0129724 0
-0.00207109 0.0133268 0
-0.00171675 0.0132828 0
-0.00103164 0.0131047 0
-0.00205455 0.0125977 0
-0.00137419 0.0131938 0
-0.00154309 0.0128512 0
-0.00188565 0.0129403 0
-0.000515597 0.0142809 0
-0.000679501 0.014007 0
-0.00078944 0.0147531 0
-0.000597549 0.0141439 0
-0.00073447 0.01438 0
-0.000652519 0.014517 0
-0.000514761 0.0142809 0
-0.000764509 0.0147531 0
-0.000327045 0.0145306 0
-0.000639635 0.014517 0
-0.000545777 0.0146418 0
-0.000420903 0.0144057 0
-0.000515597 0.0142804 0
-0.000259471 0.0136557 0
-0.000679501 0.0140243 0
-0.000387534 0.0139681 0
-0.000469486 0.01384 0
-0.000597549 0.0141524 0
-0.000514761 0.0142804 0
-0.000327045 0.0145192 0
-0.000276043 0.0136557 0
-0.000420903 0.0143998 0
-0.000301544 0.0140875 0
-0.000395402 0.0139681 0
-0.00252625 0.0116573 0
-0.00204914 0.0125751 0
-0.00160848 0.0117405 0
-0.0022877 0.0121162 0
-0.00182881 0.0121578 0
-0.00206737 0.0116989 0
-0.00252625 0.0116574 0
-0.00346318 0.0115308 0
-0.00204914 0.0125943 0
-0.00299471 0.0115941 0
-0.00275616 0.0120626 0
-0.0022877 0.0121258 0
-0.00252639 0.0116573 0
-0.00152372 0.0117405 0
-0.00300868 0.0106546 0
-0.00202506 0.0116989 0
-0.0022662 0.0111976 0
-0.00276754 0.011156 0
-0.00252639 0.0116574 0
-0.00300868 0.0106344 0
-0.00354935 0.0115308 0
-0.00276754 0.0111459 0
-0.00327902 0.0110826 0
-0.00303787 0.0115941 0
-0.00135049 0.0124798 0
-0.00158728 0.0117617 0
-0.00206851 0.0125557 0
-0.00146889 0.0121207 0
-0.00182789 0.0121587 0
-0.0017095 0.0125177 0
-0.00134951 0.0124798 0
-0.00201251 0.0125557 0
-0.00106966 0.0131428 0
-0.00168101 0.0125177 0
-0.00154108 0.0128492 0
-0.00120958 0.0128113 0
-0.00135049 0.0124793 0
-0.000669274 0.0122895 0
-0.00158728 0.011798 0
-0.00100988 0.0123844 0
-0.00112828 0.0120438 0
-0.00146889 0.0121387 0
-0.00134951 0.0124793 0
-0.00106966 0.0131133 0
-0.000715488 0.0122895 0
-0.00120958 0.0127963 0
-0.000892571 0.0127014 0
-0.0010325 0.0123844 0
-0.00199071 0.0108371 0
-0.00294946 0.0105954 0
-0.00157905 0.0117959 0
-0.00247009 0.0107163 0
-0.00226426 0.0111956 0
-0.00178488 0.0113165 0
-0.00199119 0.0108371 0
-0.00238868 0.00978113 0
-0.00304717 0.0105954 0
-0.00218993 0.0103091 0
-0.00271792 0.0101883 0
-0.00251918 0.0107163 0
-0.00199071 0.0108369 0
-0.00157905 0.0117634 0
-0.00106414 0.0110249 0
-0.00178488 0.0113002 0
-0.00132159 0.0113942 0
-0.00152742 0.0109309 0
-0.00199119 0.0108369 0
-0.000971217 0.0110249 0
-0.00238868 0.0098169 0
-0.0014812 0.0109309 0
-0.00167995 0.0104209 0
-0.00218993 0.0103269 0
-0.00373528 0.00934568 0
-0.00503023 0.00901015 0
-0.0030038 0.0106406 0
-0.00438276 0.00917791 0
-0.00401701 0.00982539 0
-0.00336954 0.00999316 0
-0.00373528 0.00934649 0
-0.0030038 0.0106388 0
-0.00244299 0.00972681 0
-0.00336954 0.00999264 0
-0.00272339 0.0101828 0
-0.00308914 0.00953665 0
-0.00373366 0.00934568 0
-0.00457232 0.0079302 0
-0.00514915 0.00901015 0
-0.00415299 0.00863794 0
-0.00486074 0.00847017 0
-0.00444141 0.00917791 0
-0.00373366 0.00934649 0
-0.00230788 0.00972681 0
-0.00457232 0.00792071 0
-0.00302077 0.00953665 0
-0.0034401 0.00882376 0
-0.00415299 0.0086336 0
-0.000624393 0.0127303 0
-0.00047323 0.0131243 0
-0.000230411 0.0121738 0
-0.000548811 0.0129273 0
-0.00035182 0.0126491 0
-0.000427402 0.0124521 0
-0.000624393 0.012731 0
-0.00104787 0.0131134 0
-0.00047323 0.0131544 0
-0.000836131 0.0129222 0
-0.000760549 0.0131339 0
-0.000548811 0.0129427 0
-0.000625635 0.0127303 0
-0.000221151 0.0121738 0
-0.000717928 0.0123259 0
-0.000423393 0.0124521 0
-0.000469539 0.0122498 0
-0.000671781 0.0125281 0
-0.000625635 0.012731 0
-0.000717928 0.0122871 0
-0.00106954 0.0131134 0
-0.000671781 0.012509 0
-0.000893736 0.0127002 0
-0.00084759 0.0129222 0
-0.000396115 0.0134025 0
-0.000479295 0.013126 0
-0.000672617 0.0140071 0
-0.000437705 0.0132643 0
-0.000575956 0.0135665 0
-0.000534366 0.0137048 0
-0.000396115 0.013402 0
-0.000145351 0.0126151 0
-0.000479295 0.0131513 0
-0.000270733 0.0130085 0
-0.000312323 0.0128832 0
-0.000437705 0.0132766 0
-0.000395125 0.0134025 0
-0.000662251 0.0140071 0
-0.000273374 0.0136696 0
-0.000528688 0.0137048 0
-0.000467812 0.0138384 0
-0.00033425 0.0135361 0
-0.000395125 0.013402 0
-0.000273374 0.0136513 0
-0.000145821 0.0126151 0
-0.00033425 0.0135267 0
-0.000209598 0.0131332 0
-0.000270473 0.0130085 0
-0.000228818 0.0123858 0
-0.000248741 0.0121555 0
-0.00045908 0.0131385 0
-0.00023878 0.0122706 0
-0.000353911 0.012647 0
-0.000343949 0.0127621 0
-0.000227875 0.0123858 0
-0.000466513 0.0131385 0
-0.000154683 0.0126244 0
-0.000347194 0.0127621 0
-0.000310598 0.0128814 0
-0.000191279 0.0125051 0
-0.000228818 0.0123853 0
-3.1372e-05 0.0114134 0
-0.000248741 0.0121878 0
-0.000130095 0.0118993 0
-0.000140057 0.0118006 0
-0.00023878 0.0122866 0
-0.000227875 0.0123853 0
-0.000154683 0.0125987 0
-1.45125e-05 0.0114134 0
-0.000191279 0.012492 0
-8.45978e-05 0.012006 0
-0.000121194 0.0118993 0
-0.00091827 0.0117063 0
-0.00154173 0.0117525 0
-0.000709509 0.0123297 0
-0.00123 0.0117294 0
-0.00112562 0.0120411 0
-0.00081389 0.012018 0
-0.00091827 0.0117054 0
-0.000709509 0.0122866 0
-0.000337112 0.0115059 0
-0.00081389 0.011996 0
-0.000523311 0.0118962 0
-0.000627691 0.0116057 0
-0.000919948 0.0117063 0
-0.00105286 0.0110362 0
-0.00159 0.0117525 0
-0.000986403 0.0113712 0
-0.00132143 0.0113944 0
-0.00125497 0.0117294 0
-0.000919948 0.0117054 0
-0.000305616 0.0115059 0
-0.00105286 0.0110911 0
-0.000612782 0.0116057 0
-0.000679238 0.0112985 0
-0.000986403 0.0113983 0
-0.000339164 0.0118404 0
-0.000693125 0.0123011 0
-0.000241671 0.0121944 0
-0.000516145 0.0120707 0
-0.000467398 0.0122477 0
-0.000290418 0.0120174 0
-0.00034057 0.0118404 0
-0.000357096 0.0114859 0
-0.000695041 0.0123011 0
-0.000348833 0.0116632 0
-0.000526069 0.0118935 0
-0.000517805 0.0120707 0
-0.000339164 0.0118397 0
-0.000241671 0.0121544 0
-2.44257e-05 0.0111556 0
-0.000290418 0.0119971 0
-0.000133048 0.011655 0
-0.000181795 0.0114977 0
-0.00034057 0.0118397 0
-3.65659e-05 0.0111556 0
-0.000357096 0.0115357 0
-0.000188568 0.0114977 0
-0.000196831 0.0113457 0
-0.000348833 0.0116877 0
-0.000193258 0.0137871 0
-7.32014e-05 0.0128696 0
-0.000278381 0.013667 0
-0.00013323 0.0133283 0
-0.000175791 0.0132683 0
-0.000235819 0.013727 0
-0.000193258 0.0137875 0
-0.000278381 0.0136534 0
-0.000327368 0.0145188 0
-0.000235819 0.0137205 0
-0.000302875 0.0140861 0
-0.000260313 0.0141532 0
-0.000192385 0.0137871 0
-8.82799e-05 0.0139094 0
-7.00347e-05 0.0128696 0
-0.000140332 0.0138482 0
-7.91573e-05 0.0133895 0
-0.00013121 0.0133283 0
-0.000192385 0.0137875 0
-0.000321802 0.0145188 0
-8.82799e-05 0.0139169 0
-0.000257093 0.0141532 0
-0.000205041 0.0142179 0
-0.000140332 0.0138522 0
-0.00013239 0.01273 0
-0.00027364 0.0136623 0
-7.48453e-05 0.0128712 0
-0.000203015 0.0131961 0
-0.000174242 0.0132668 0
-0.000103618 0.0128006 0
-0.000133145 0.01273 0
-0.000160178 0.0126007 0
-0.000262423 0.0136623 0
-0.000146662 0.0126654 0
-0.0002113 0.0131315 0
-0.000197784 0.0131961 0
-0.00013239 0.0127296 0
-7.48453e-05 0.0128574 0
-4.64912e-06 0.0115797 0
-0.000103618 0.0127935 0
-3.97472e-05 0.0122185 0
-6.85197e-05 0.0121547 0
-0.000133145 0.0127296 0
-2.34146e-05 0.0115797 0
-0.000160178 0.0126199 0
-7.82799e-05 0.0121547 0
-9.17964e-05 0.0120998 0
-0.000146662 0.0126747 0
-4.40056e-05 0.0128976 0
-7.97056e-05 0.0128599 0
-8.16703e-05 0.013916 0
-6.18556e-05 0.0128788 0
-8.0688e-05 0.013388 0
-6.28379e-05 0.0134068 0
-4.33201e-05 0.0128976 0
-9.43278e-05 0.013916 0
2.34349e-06 0.0129486 0
-6.88239e-05 0.0134068 0
-4.59921e-05 0.0134323 0
-2.04883e-05 0.0129231 0
-4.40056e-05 0.0128972 0
-1.44657e-05 0.0116615 0
-7.97056e-05 0.0128677 0
-2.92357e-05 0.0122794 0
-4.70857e-05 0.0122646 0
-6.18556e-05 0.0128825 0
-4.33201e-05 0.0128972 0
2.34349e-06 0.0129456 0
5.04685e-06 0.0116615 0
-2.04883e-05 0.0129214 0
3.69517e-06 0.0123036 0
-1.91366e-05 0.0122794 0
-0.0196694 0 0
-0.0179041 0.00119531 0
-0.0184741 0 0
-0.0187868 0.000597655 0
-0.0181891 0.000597655 0
-0.0190718 0 0
-0.0196694 0 0
-0.0209169 0 0
-0.0179041 0.00124746 0
-0.0202932 0 0
-0.0194105 0.000623729 0
-0.0187868 0.000623729 0
-0.0166157 0.00116459 0
-0.0185412 -6.70502e-05 0
-0.0178473 0.00125203 0
-0.0175784 0.00054877 0
-0.0181943 0.000592492 0
-0.0172315 0.00120831 0
-0.0166117 0.00116459 0
-0.0179335 0.00125203 0
-0.0146053 0.0024864 0
-0.0172726 0.00120831 0
-0.0162694 0.00186922 0
-0.0156085 0.0018255 0
-0.0166157 0.0011626 0
-0.0154234 0.00108906 0
-0.0185412 -2.97499e-05 0
-0.0160195 0.00112583 0
-0.0169823 0.000529655 0
-0.0175784 0.000566426 0
-0.0166117 0.0011626 0
-0.0146053 0.00247696 0
-0.0152974 0.00108906 0
-0.0156085 0.00181978 0
-0.0149513 0.00178301 0
-0.0159545 0.00112583 0
-0.0131424 0.00244156 0
-0.0116936 0.00241388 0
-0.0153611 0.00099271 0
-0.012418 0.00242772 0
-0.0135274 0.00170329 0
-0.0142518 0.00171713 0
-0.0131424 0.00244285 0
-0.0153611 0.00102528 0
-0.01456 0.0025222 0
-0.0142518 0.00173407 0
-0.0149606 0.00177374 0
-0.0138512 0.00248252 0
-0.0131399 0.00244156 0
-0.011074 0.00400302 0
-0.0115784 0.00241388 0
-0.0121069 0.00322229 0
-0.0113262 0.00320845 0
-0.0123591 0.00242772 0
-0.0131399 0.00244285 0
-0.0146494 0.0025222 0
-0.011074 0.00395235 0
-0.0138946 0.00248252 0
-0.0128617 0.00323727 0
-0.0121069 0.0031976 0
-0.0175452 0 0
-0.0185709 0 0
-0.0153601 0.00102577 0
-0.0180581 0 0
-0.0169655 0.000512887 0
-0.0164526 0.000512887 0
-0.0175452 0 0
-0.0153601 0.000963057 0
-0.0165821 0 0
-0.0164526 0.000481529 0
-0.0159711 0.000481529 0
-0.0170636 0 0
-0.0141242 0.000985405 0
-0.015444 0.00107556 0
-0.011585 0.00230525 0
-0.0147841 0.00103048 0
-0.0135145 0.0016904 0
-0.0128546 0.00164532 0
-0.0141323 0.000985405 0
-0.0167119 -0.000129832 0
-0.0152476 0.00107556 0
-0.0154221 0.000427786 0
-0.0159798 0.000472864 0
-0.0146899 0.00103048 0
-0.0141242 0.000981318 0
-0.011585 0.00234508 0
-0.0127604 0.00094627 0
-0.0128546 0.0016632 0
-0.0121727 0.00164568 0
-0.0134423 0.000963794 0
-0.0141323 0.000981318 0
-0.0130385 0.00094627 0
-0.0167119 -0.000112462 0
-0.0135854 0.000963794 0
-0.0148752 0.000416904 0
-0.0154221 0.000434428 0
-0.00939949 0.0040951 0
-0.0115764 0.0024159 0
-0.0110787 0.0039983 0
-0.0104879 0.0032555 0
-0.0113275 0.0032071 0
-0.0102391 0.0040467 0
-0.00940078 0.0040951 0
-0.011095 0.0039983 0
-0.00758561 0.00578936 0
-0.0102479 0.0040467 0
-0.00934032 0.00489383 0
-0.00849319 0.00494223 0
-0.00939949 0.00409575 0
-0.00762183 0.0043092 0
-0.0115764 0.00231808 0
-0.00851066 0.00420247 0
-0.0095991 0.00331364 0
-0.0104879 0.00320692 0
-0.00940078 0.00409575 0
-0.00758561 0.00587811 0
-0.00761842 0.0043092 0
-0.00849319 0.00498693 0
-0.00760201 0.00509365 0
-0.0085096 0.00420247 0
-0.00586928 0.00619621 0
-0.00457333 0.00793878 0
-0.00412671 0.00674428 0
-0.00522131 0.00706749 0
-0.00435002 0.00734153 0
-0.004998 0.00647025 0
-0.00586928 0.00619377 0
-0.0075532 0.0058089 0
-0.00457333 0.00787768 0
-0.00671124 0.00600133 0
-0.00606326 0.00684329 0
-0.00522131 0.00703573 0
-0.00586441 0.00619621 0
-0.00397632 0.00674428 0
-0.00752427 0.00430813 0
-0.00492037 0.00647025 0
-0.0057503 0.0055262 0
-0.00669434 0.00525217 0
-0.00586441 0.00619377 0
-0.00752427 0.00440336 0
-0.00765482 0.0058089 0
-0.00669434 0.00529856 0
-0.00758954 0.00510613 0
-0.00675961 0.00600133 0
-0.00311483 0.00841415 0
-0.00400386 0.00686714 0
-0.00466184 0.00785027 0
-0.00355934 0.00764065 0
-0.00433285 0.0073587 0
-0.00388833 0.00813221 0
-0.00311778 0.00841415 0
-0.00450188 0.00785027 0
-0.00237932 0.00979825 0
-0.00380983 0.00813221 0
-0.0034406 0.00882426 0
-0.00274855 0.0091062 0
-0.00311483 0.00841563 0
-0.00155355 0.00906383 0
-0.00400386 0.00685435 0
-0.00233419 0.00873973 0
-0.00277871 0.00795909 0
-0.00355934 0.00763499 0
-0.00311778 0.00841563 0
-0.00237932 0.00979037 0
-0.00174304 0.00906383 0
-0.00274855 0.009103 0
-0.00206118 0.0094271 0
-0.00243041 0.00873973 0
-0.0056227 0.00488499 0
-0.00751096 0.00429481 0
-0.00400528 0.00677324 0
-0.00656683 0.0045899 0
-0.00575812 0.00553403 0
-0.00481399 0.00582912 0
-0.00561198 0.00488499 0
-0.00790199 0.00287327 0
-0.00762369 0.00429481 0
-0.00675698 0.00387913 0
-0.00776284 0.00358404 0
-0.00661784 0.0045899 0
-0.0056227 0.00489035 0
-0.00400528 0.00688949 0
-0.00362357 0.00576782 0
-0.00481399 0.00588992 0
-0.00381443 0.00632866 0
-0.00462314 0.00532909 0
-0.00561198 0.00489035 0
-0.00340356 0.00576782 0
-0.00790199 0.00268194 0
-0.00450777 0.00532909 0
-0.00565277 0.00422488 0
-0.00675698 0.00378615 0
-0.00991525 0.00248857 0
-0.0116544 0.00239612 0
-0.00754037 0.00422775 0
-0.0107848 0.00244235 0
-0.00959739 0.00331193 0
-0.00872781 0.00335816 0
-0.00991525 0.0024879 0
-0.00754037 0.00437814 0
-0.00802501 0.00275025 0
-0.00872781 0.00343302 0
-0.00778269 0.00356419 0
-0.00897013 0.00261908 0
-0.00991658 0.00248857 0
-0.0128354 0.000871228 0
-0.0115339 0.00239612 0
-0.011376 0.0016799 0
-0.0121847 0.00163367 0
-0.0107253 0.00244235 0
-0.00991658 0.0024879 0
-0.00815889 0.00275025 0
-0.0128354 0.000730205 0
-0.00903774 0.00261908 0
-0.0104972 0.00174023 0
-0.011376 0.00160905 0
-0.00138858 0.0101651 0
-0.000415582 0.0105012 0
-0.00167971 0.00919214 0
-0.000902079 0.0103331 0
-0.00104764 0.00984665 0
-0.00153414 0.00967864 0
-0.00138858 0.010166 0
-0.00167971 0.00912716 0
-0.00242738 0.0097423 0
-0.00153414 0.00964657 0
-0.00205355 0.00943473 0
-0.00190798 0.00995414 0
-0.00138691 0.0101651 0
-0.00103943 0.0110398 0
-0.000512207 0.0105012 0
-0.00121317 0.0106025 0
-0.000775816 0.0107705 0
-0.000949557 0.0103331 0
-0.00138691 0.010166 0
-0.00231408 0.0097423 0
-0.00103943 0.0110931 0
-0.0018505 0.00995414 0
-0.00167675 0.0104177 0
-0.00121317 0.0106296 0
-0.00242934 0.00769671 0
-0.00390126 0.00675176 0
-0.00165836 0.00916864 0
-0.0031653 0.00722423 0
-0.00277981 0.0079602 0
-0.00204385 0.00843267 0
-0.00242934 0.00769945 0
-0.00165836 0.00914527 0
-0.000983518 0.00878967 0
-0.00204385 0.00842236 0
-0.00132094 0.00896747 0
-0.00170643 0.00824456 0
-0.00242385 0.00769671 0
-0.00341385 0.00597755 0
-0.00414301 0.00675176 0
-0.00291885 0.00683713 0
-0.00377843 0.00636465 0
-0.00328343 0.00722423 0
-0.00242385 0.00769945 0
-0.000686919 0.00878967 0
-0.00341385 0.00596252 0
-0.00155539 0.00824456 0
-0.00205038 0.00737609 0
-0.00291885 0.00683098 0
-0.000777149 0.00977811 0
-0.00158455 0.00909699 0
-0.000499942 0.0105855 0
-0.00118085 0.00943755 0
-0.00104225 0.00984125 0
-0.000638546 0.0101818 0
-0.000781872 0.00977811 0
-0.000919841 0.00885335 0
-0.00170664 0.00909699 0
-0.000850856 0.00931573 0
-0.00131324 0.00897517 0
-0.00124426 0.00943755 0
-0.000777149 0.00977575 0
-0.000499942 0.0105009 0
-5.2039e-05 0.01025 0
-0.000638546 0.0101383 0
-0.000275991 0.0103755 0
-0.000414594 0.0100129 0
-0.000781872 0.00977575 0
2.28168e-05 0.01025 0
-0.000919841 0.00897106 0
-0.000379528 0.0100129 0
-0.000448512 0.00961055 0
-0.000850856 0.00937341 0
-0.000494109 0.0110317 0
-0.000522447 0.0104909 0
-0.00103491 0.0110444 0
-0.000508278 0.0107613 0
-0.000778678 0.0107676 0
-0.000764509 0.011038 0
-0.000491534 0.0110317 0
-0.00100612 0.0110444 0
-0.00034601 0.0115463 0
-0.000748825 0.011038 0
-0.000676064 0.0112953 0
-0.000418772 0.011289 0
-0.000494109 0.0110304 0
-3.15552e-05 0.0107884 0
-0.000522447 0.0105679 0
-0.000262832 0.0109094 0
-0.000277001 0.0106781 0
-0.000508278 0.0107992 0
-0.000491534 0.0110304 0
-0.00034601 0.0114874 0
-3.46016e-05 0.0107884 0
-0.000418772 0.0112589 0
-0.000190306 0.0111379 0
-0.000263068 0.0109094 0
-0.0160802 0 0
-0.0128365 0.000710196 0
-0.01537 0 0
-0.0144583 0.000355098 0
-0.0141032 0.000355098 0
-0.0157251 0 0
-0.0160802 0 0
-0.0168244 0 0
-0.0128365 0.00074425 0
-0.0164523 0 0
-0.0148305 0.000372125 0
-0.0144583 0.000372125 0
-0.0114542 0.000940987 0
-0.015603 -0.000233069 0
-0.0126283 0.000918467 0
-0.0135286 0.000353959 0
-0.0141156 0.000342699 0
-0.0120412 0.000929727 0
-0.0114345 0.000940987 0
-0.0130237 0.000918467 0
-0.00793886 0.00253022 0
-0.0122291 0.000929727 0
-0.0104813 0.00172434 0
-0.00968666 0.0017356 0
-0.0114542 0.000931119 0
-0.010173 0.00111978 0
-0.015603 -0.000350038 0
-0.0108136 0.00102545 0
-0.012888 0.00038487 0
-0.0135286 0.000290541 0
-0.0114345 0.000931119 0
-0.00793886 0.00278535 0
-0.00958023 0.00111978 0
-0.00968666 0.00185823 0
-0.00875955 0.00195256 0
-0.0105073 0.00102545 0
-0.00572038 0.00357731 0
-0.00341129 0.00603679 0
-0.0032609 0.00499831 0
-0.00456584 0.00480705 0
-0.00333609 0.00551755 0
-0.00449064 0.00428781 0
-0.00572038 0.00356439 0
-0.00793154 0.00271149 0
-0.00341129 0.00577556 0
-0.00682596 0.00313794 0
-0.00567142 0.00424352 0
-0.00456584 0.00466997 0
-0.00569456 0.00357731 0
-0.0029215 0.00499831 0
-0.00945377 0.000804243 0
-0.00430803 0.00428781 0
-0.00618763 0.00290127 0
-0.00757416 0.00219077 0
-0.00569456 0.00356439 0
-0.00945377 0.00124624 0
-0.00801271 0.00271149 0
-0.00757416 0.00240532 0
-0.00873324 0.00197887 0
-0.00685364 0.00313794 0
-0.00167317 0.00740814 0
-0.00283496 0.00542424 0
-0.00365707 0.00579102 0
-0.00225406 0.00641619 0
-0.00324601 0.00560763 0
-0.00266512 0.00659958 0
-0.00168444 0.00740814 0
-0.00324234 0.00579102 0
-0.0008633 0.00896605 0
-0.00246339 0.00659958 0
-0.00205282 0.00737853 0
-0.00127387 0.0081871 0
-0.00167317 0.00741378 0
0.000327594 0.00918834 0
-0.00283496 0.00541301 0
-0.000672788 0.00830106 0
-0.00125368 0.00730067 0
-0.00225406 0.00641339 0
-0.00168444 0.00741378 0
-0.0008633 0.00889842 0
-0.000199792 0.00918834 0
-0.00127387 0.0081561 0
-0.000531546 0.00904338 0
-0.000942115 0.00830106 0
-0.0154961 0 0
-0.0159531 0 0
-0.00951027 0.000457012 0
-0.0157246 0 0
-0.0127317 0.000228506 0
-0.0125032 0.000228506 0
-0.0154961 0 0
-0.00951027 0.000739849 0
-0.0147562 0 0
-0.0125032 0.000369925 0
-0.0121332 0.000369925 0
-0.0151261 0 0
-0.0069148 0.00206718 0
-0.00969392 0.00104439 0
-0.00276949 0.0048463 0
-0.00830436 0.00155578 0
-0.0062317 0.00294534 0
-0.00484214 0.00345674 0
-0.00685108 0.00206718 0
-0.0150437 -0.000287471 0
-0.00920573 0.00104439 0
-0.0109474 0.000889854 0
-0.0121247 0.000378459 0
-0.00802841 0.00155578 0
-0.0069148 0.00209903 0
-0.00276949 0.00571306 0
-0.00330078 0.00405104 0
-0.00484214 0.00390605 0
-0.00303513 0.00488205 0
-0.00510779 0.00307504 0
-0.00685108 0.00209903 0
-0.00315184 0.00405104 0
-0.0150437 -0.00160021 0
-0.00500146 0.00307504 0
-0.00909776 0.00122541 0
-0.0109474 0.000249412 0
-0.0154189 0 0
-0.000325749 0.00681553 0
-0.00860341 0 0
-0.00787234 0.00340776 0
-0.00446458 0.00340776 0
-0.0120112 0 0
-0.0154189 0 0
-0.0166439 0 0
-0.000325749 0.00122495 0
-0.0160314 0 0
-0.00848482 0.000612475 0
-0.00787234 0.000612475 0
0 0.0100475 0
0 0.00860341 0
-0.00144414 0.00569714 0
0 0.00932547 0
-0.000722068 0.00715027 0
-0.000722068 0.00787234 0
0 0.0100475 0
-0.00122696 0.00569714 0
0 0.0112745 0
-0.000613478 0.00787234 0
-0.000613478 0.00848582 0
0 0.010661 0
-0.00105607 0.00793973 0
-0.00175181 0.0056 0
-0.00339579 0.00508675 0
-0.00140394 0.00676986 0
-0.0025738 0.00534338 0
-0.00222593 0.00651324 0
-0.00105607 0.00790642 0
0.000628357 0.0106461 0
-0.00175181 0.006222 0
-0.000213855 0.00927628 0
-0.000561728 0.00843407 0
-0.00140394 0.00706421 0
-0.000989462 0.00793973 0
-0.0025087 0.00508675 0
5.69676e-05 0.00945896 0
-0.00174908 0.00651324 0
-0.00122587 0.00727286 0
-0.000466247 0.00869934 0
-0.000989462 0.00790642 0
5.69676e-05 0.0093032 0
0.000407316 0.0106461 0
-0.000466247 0.00860481 0
0.000232142 0.00997467 0
-0.000291073 0.00927628 0
0 0.00997797 0
-0.00021946 0.00950709 0
0 0.0101974 0
-0.00010973 0.00974253 0
-0.00010973 0.00985226 0
0 0.0100877 0
0 0.00997797 0
0 0.0102388 0
0.000260852 0.00950709 0
0 0.0101084 0
0.000130426 0.00987296 0
0.000130426 0.00974253 0
-0.000309033 0.00978222 0
8.80025e-06 0.0101886 0
-0.000176759 0.00946438 0
-0.000150116 0.00998543 0
-8.39791e-05 0.00982651 0
-0.000242896 0.0096233 0
-0.000309033 0.00979236 0
-0.000176759 0.00921137 0
-0.000890027 0.00887169 0
-0.000242896 0.00950187 0
-0.000533393 0.00904153 0
-0.00059953 0.00933203 0
-0.000288737 0.00978222 0
-5.12405e-05 0.0102132 0
0.000142199 0.0101886 0
-0.000169989 0.00999769 0
4.54793e-05 0.0102009 0
-7.32691e-05 0.00998543 0
-0.000288737 0.00979236 0
-0.00082047 0.00887169 0
-5.12405e-05 0.0103241 0
-0.000554604 0.00933203 0
-0.000435855 0.0095979 0
-0.000169989 0.0100582 0
0 0.00999775 0
0 0.0100464 0
4.86799e-05 0.0103131 0
0 0.0100221 0
2.434e-05 0.0101798 0
2.434e-05 0.0101554 0
0 0.00999775 0
-0.00011109 0.0103131 0
0 0.0101088 0
-5.55452e-05 0.0101554 0
-5.55452e-05 0.010211 0
0 0.0100533 0
-0.000172363 0.010494 0
-0.000103262 0.0101988 0
-0.000467511 0.0105333 0
-0.000137812 0.0103464 0
-0.000285386 0.0103661 0
-0.000319937 0.0105136 0
-0.000172363 0.0104914 0
1.37968e-05 0.010095 0
-0.000103262 0.0103052 0
-7.92829e-05 0.0102932 0
-4.47326e-05 0.0102001 0
-0.000137812 0.0103983 0
-0.00016724 0.010494 0
-0.000487865 0.0105333 0
-5.77523e-05 0.0108146 0
-0.000327553 0.0105136 0
-0.000272809 0.0106739 0
-0.000112496 0.0106543 0
-0.00016724 0.0104914 0
-5.77523e-05 0.010744 0
8.5375e-05 0.010095 0
-0.000112496 0.0106177 0
1.38113e-05 0.0104195 0
-4.09326e-05 0.0102932 0
0 0.0100014 0
-7.84057e-05 0.01081 0
0 0.0100798 0
-3.92029e-05 0.0104057 0
-3.92029e-05 0.0104449 0
0 0.0100406 0
0 0.0100014 0
0 0.0100097 0
8.25999e-06 0.01081 0
0 0.0100055 0
4.13e-06 0.0104099 0
4.13e-06 0.0104057 0
-0.000118738 0.0109383 0
1.0477e-05 0.0100693 0
-7.74424e-05 0.0108091 0
-5.41304e-05 0.0105038 0
-3.34827e-05 0.0104392 0
-9.80901e-05 0.0108737 0
-0.000118738 0.0109394 0
-7.74424e-05 0.0107456 0
-0.000312581 0.0115208 0
-9.80901e-05 0.0108425 0
-0.000195012 0.0111332 0
-0.00021566 0.0112301 0
-0.000116512 0.0109383 0
-4.60035e-05 0.0111171 0
6.23495e-05 0.0100693 0
-8.1258e-05 0.0110277 0
8.17301e-06 0.0105932 0
-2.70815e-05 0.0105038 0
-0.000116512 0.0109394 0
-0.000342201 0.0115208 0
-4.60035e-05 0.0111651 0
-0.000229357 0.0112301 0
-0.000194102 0.0113429 0
-8.1258e-05 0.0110522 0
0 0.0100019 0
0 0.010007 0
5.07413e-06 0.0111682 0
0 0.0100045 0
2.53706e-06 0.0105876 0
2.53706e-06 0.0105851 0
0 0.0100019 0
-6.18978e-05 0.0111682 0
0 0.0100638 0
-3.09489e-05 0.0105851 0
-3.09489e-05 0.010616 0
0 0.0100329 0
-8.32873e-05 0.0112518 0
-5.81976e-05 0.0111219 0
-0.000213194 0.0121829 0
-7.07424e-05 0.0111868 0
-0.000135696 0.0116524 0
-0.000148241 0.0117173 0
-8.32873e-05 0.011251 0
3.22528e-06 0.0100606 0
-5.81976e-05 0.0111645 0
-4.0031e-05 0.0106558 0
-2.74862e-05 0.0106126 0
-7.07424e-05 0.0112078 0
-8.17952e-05 0.0112518 0
-0.000243799 0.0121829 0
-3.1756e-05 0.0114138 0
-0.000162797 0.0117173 0
-0.000137777 0.0117983 0
-5.67756e-05 0.0113328 0
-8.17952e-05 0.011251 0
-3.1756e-05 0.0113816 0
4.87509e-05 0.0100606 0
-5.67756e-05 0.0113163 0
8.49745e-06 0.0107211 0
-1.65221e-05 0.0106558 0
0 0.010002 0
-5.0498e-05 0.0114232 0
0 0.0100525 0
-2.5249e-05 0.0107126 0
-2.5249e-05 0.0107378 0
0 0.0100272 0
0 0.010002 0
0 0.0100118 0
9.87065e-06 0.0114232 0
0 0.0100069 0
4.93533e-06 0.0107175 0
4.93533e-06 0.0107126 0
-5.38027e-05 0.0114633 0
-4.79874e-06 0.0100573 0
-4.15862e-05 0.0114143 0
-2.93007e-05 0.0107603 0
-2.31925e-05 0.0107358 0
-4.76944e-05 0.0114388 0
-5.38027e-05 0.0114639 0
-4.15862e-05 0.0113863 0
-0.000131398 0.0126219 0
-4.76944e-05 0.0114251 0
-8.64921e-05 0.0120041 0
-9.26003e-05 0.0120429 0
-5.25583e-05 0.0114633 0
-1.73152e-05 0.0115543 0
3.84828e-05 0.0100573 0
-3.49368e-05 0.0115088 0
1.05838e-05 0.0108058 0
-7.03774e-06 0.0107603 0
-5.25583e-05 0.0114639 0
-0.000162236 0.0126219 0
-1.73152e-05 0.0115736 0
-0.000107397 0.0120429 0
-8.97757e-05 0.0120978 0
-3.49368e-05 0.0115188 0
0 0.010002 0
0 0.0100188 0
1.68154e-05 0.0115885 0
0 0.0100104 0
8.40772e-06 0.0108036 0
8.40772e-06 0.0107952 0
0 0.010002 0
-4.10994e-05 0.0115885 0
0 0.0100431 0
-2.05497e-05 0.0107952 0
-2.05497e-05 0.0108158 0
0 0.0100225 0
-2.67246e-05 0.011588 0
-2.62505e-05 0.0115581 0
-5.66017e-05 0.0128756 0
-2.64876e-05 0.011573 0
-4.14261e-05 0.0122168 0
-4.16632e-05 0.0122318 0
-2.67246e-05 0.0115874 0
-1.29477e-05 0.010056 0
-2.62505e-05 0.0115736 0
-1.98362e-05 0.0108217 0
-1.95991e-05 0.0108148 0
-2.64876e-05 0.0115805 0
-2.55745e-05 0.011588 0
-8.75963e-05 0.0128756 0
-2.9196e-06 0.01165 0
-5.65854e-05 0.0122318 0
-4.52579e-05 0.0122628 0
-1.4247e-05 0.011619 0
-2.55745e-05 0.0115874 0
-2.9196e-06 0.0116425 0
2.95485e-05 0.010056 0
-1.4247e-05 0.011615 0
1.33144e-05 0.0108493 0
1.987e-06 0.0108217 0
0 0.010002 0
-3.25768e-05 0.0116699 0
0 0.0100345 0
-1.62884e-05 0.010836 0
-1.62884e-05 0.0108522 0
0 0.0100183 0
0 0.010002 0
0 0.0100265 0
2.45015e-05 0.0116699 0
0 0.0100142 0
1.22507e-05 0.0108482 0
1.22507e-05 0.010836 0
-5.62484e-07 0.0116283 0
-2.11529e-05 0.0100557 0
-1.15331e-05 0.0116489 0
-1.08577e-05 0.010842 0
-1.6343e-05 0.0108523 0
-6.0478e-06 0.0116386 0
-5.62484e-07 0.0116289 0
-1.15331e-05 0.011645 0
1.5528e-05 0.0129588 0
-6.0478e-06 0.0116369 0
1.99746e-06 0.0123019 0
7.48278e-06 0.0122938 0
5.62481e-07 0.0116283 0
1.15331e-05 0.0116489 0
2.11529e-05 0.0100557 0
6.0478e-06 0.0116386 0
1.6343e-05 0.0108523 0
1.08577e-05 0.010842 0
5.62481e-07 0.0116289 0
-1.5528e-05 0.0129588 0
1.15331e-05 0.011645 0
-7.48278e-06 0.0122938 0
-1.99746e-06 0.0123019 0
6.0478e-06 0.0116369 0
0 0.010002 0
0 0.0100345 0
3.25768e-05 0.0116699 0
0 0.0100183 0
1.62884e-05 0.0108522 0
1.62884e-05 0.010836 0
0 0.010002 0
-2.45015e-05 0.0116699 0
0 0.0100265 0
-1.22507e-05 0.010836 0
-1.22507e-05 0.0108482 0
0 0.0100142 0
2.55745e-05 0.011588 0
2.9196e-06 0.01165 0
8.75963e-05 0.0128756 0
1.4247e-05 0.011619 0
4.52579e-05 0.0122628 0
5.65854e-05 0.0122318 0
2.55745e-05 0.0115874 0
-2.95485e-05 0.010056 0
2.9196e-06 0.0116425 0
-1.98701e-06 0.0108217 0
-1.33144e-05 0.0108493 0
1.4247e-05 0.011615 0
2.67246e-05 0.011588 0
5.66017e-05 0.0128756 0
2.62505e-05 0.0115581 0
4.16632e-05 0.0122318 0
4.14261e-05 0.0122168 0
2.64876e-05 0.011573 0
2.67246e-05 0.0115874 0
2.62505e-05 0.0115736 0
1.29477e-05 0.010056 0
2.64876e-05 0.0115805 0
1.95991e-05 0.0108148 0
1.98361e-05 0.0108217 0
0 0.010002 0
-1.68154e-05 0.0115885 0
0 0.0100188 0
-8.40772e-06 0.0107952 0
-8.40772e-06 0.0108036 0
0 0.0100104 0
0 0.010002 0
0 0.0100431 0
4.10994e-05 0.0115885 0
0 0.0100225 0
2.05497e-05 0.0108158 0
2.05497e-05 0.0107952 0
5.25583e-05 0.0114633 0
-3.84828e-05 0.0100573 0
1.73152e-05 0.0115543 0
7.03774e-06 0.0107603 0
-1.05838e-05 0.0108058 0
3.49368e-05 0.0115088 0
5.25583e-05 0.0114639 0
1.73152e-05 0.0115736 0
0.000162236 0.0126219 0
3.49368e-05 0.0115188 0
8.97757e-05 0.0120978 0
0.000107397 0.0120429 0
5.38027e-05 0.0114633 0
4.15862e-05 0.0114143 0
4.79874e-06 0.0100573 0
4.76944e-05 0.0114388 0
2.31925e-05 0.0107358 0
2.93007e-05 0.0107603 0
5.38027e-05 0.0114639 0
0.000131398 0.0126219 0
4.15862e-05 0.0113863 0
9.26003e-05 0.0120429 0
8.64921e-05 0.0120041 0
4.76944e-05 0.0114251 0
0 0.010002 0
0 0.0100525 0
5.0498e-05 0.0114232 0
0 0.0100272 0
2.5249e-05 0.0107378 0
2.5249e-05 0.0107126 0
0 0.010002 0
-9.87066e-06 0.0114232 0
0 0.0100118 0
-4.93533e-06 0.0107126 0
-4.93533e-06 0.0107175 0
0 0.0100069 0
8.17952e-05 0.0112518 0
3.1756e-05 0.0114138 0
0.000243799 0.0121829 0
5.67756e-05 0.0113328 0
0.000137777 0.0117983 0
0.000162797 0.0117173 0
8.17952e-05 0.011251 0
-4.87509e-05 0.0100606 0
3.1756e-05 0.0113816 0
1.65221e-05 0.0106558 0
-8.49745e-06 0.0107211 0
5.67756e-05 0.0113163 0
8.32873e-05 0.0112518 0
0.000213194 0.0121829 0
5.81976e-05 0.0111219 0
0.000148241 0.0117173 0
0.000135696 0.0116524 0
7.07424e-05 0.0111868 0
8.32873e-05 0.011251 0
5.81976e-05 0.0111645 0
-3.22528e-06 0.0100606 0
7.07424e-05 0.0112078 0
2.74862e-05 0.0106126 0
4.0031e-05 0.0106558 0
0 0.0100019 0
-5.07413e-06 0.0111682 0
0 0.010007 0
-2.53706e-06 0.0105851 0
-2.53707e-06 0.0105876 0
0 0.0100045 0
0 0.0100019 0
0 0.0100638 0
6.18978e-05 0.0111682 0
0 0.0100329 0
3.09489e-05 0.010616 0
3.09489e-05 0.0105851 0
0.000116512 0.0109383 0
-6.23495e-05 0.0100693 0
4.60035e-05 0.0111171 0
2.70815e-05 0.0105038 0
-8.17301e-06 0.0105932 0
8.1258e-05 0.0110277 0
0.000116512 0.0109394 0
4.60035e-05 0.0111651 0
0.000342201 0.0115208 0
8.1258e-05 0.0110522 0
0.000194102 0.0113429 0
0.000229357 0.0112301 0
0.000118738 0.0109383 0
7.74424e-05 0.0108091 0
-1.0477e-05 0.0100693 0
9.80901e-05 0.0108737 0
3.34827e-05 0.0104392 0
5.41304e-05 0.0105038 0
0.000118738 0.0109394 0
0.000312581 0.0115208 0
7.74424e-05 0.0107456 0
0.00021566 0.0112301 0
0.000195012 0.0111332 0
9.80901e-05 0.0108425 0
0 0.0100014 0
0 0.0100798 0
7.84057e-05 0.01081 0
0 0.0100406 0
3.92029e-05 0.0104449 0
3.92029e-05 0.0104057 0
0 0.0100014 0
-8.25999e-06 0.01081 0
0 0.0100097 0
-4.13e-06 0.0104057 0
-4.13e-06 0.0104099 0
0 0.0100055 0
0.00016724 0.010494 0
5.77523e-05 0.0108146 0
0.000487865 0.0105333 0
0.000112496 0.0106543 0
0.000272809 0.0106739 0
0.000327553 0.0105136 0
0.00016724 0.0104914 0
-8.5375e-05 0.010095 0
5.77523e-05 0.010744 0
4.09326e-05 0.0102932 0
-1.38113e-05 0.0104195 0
0.000112496 0.0106177 0
0.000172363 0.010494 0
0.000467511 0.0105333 0
0.000103262 0.0101988 0
0.000319937 0.0105136 0
0.000285386 0.0103661 0
0.000137812 0.0103464 0
0.000172363 0.0104914 0
0.000103262 0.0103052 0
-1.37968e-05 0.010095 0
0.000137812 0.0103983 0
4.47326e-05 0.0102001 0
7.92829e-05 0.0102932 0
0 0.00999775 0
-4.86799e-05 0.0103131 0
0 0.0100464 0
-2.434e-05 0.0101554 0
-2.434e-05 0.0101798 0
0 0.0100221 0
0 0.00999775 0
0 0.0101088 0
0.00011109 0.0103131 0
0 0.0100533 0
5.55452e-05 0.010211 0
5.55452e-05 0.0101554 0
0.000288737 0.00978222 0
-0.000142199 0.0101886 0
5.12405e-05 0.0102132 0
7.32691e-05 0.00998543 0
-4.54793e-05 0.0102009 0
0.000169989 0.00999769 0
0.000288737 0.00979236 0
5.12405e-05 0.0103241 0
0.00082047 0.00887169 0
0.000169989 0.0100582 0
0.000435855 0.0095979 0
0.000554604 0.00933203 0
0.000309033 0.00978222 0
0.000176759 0.00946438 0
-8.80025e-06 0.0101886 0
0.000242896 0.0096233 0
8.39791e-05 0.00982651 0
0.000150116 0.00998543 0
0.000309033 0.00979236 0
0.000890027 0.00887169 0
0.000176759 0.00921137 0
0.00059953 0.00933203 0
0.000533393 0.00904153 0
0.000242896 0.00950187 0
0 0.00997797 0
0 0.0101974 0
0.00021946 0.00950709 0
0 0.0100877 0
0.00010973 0.00985226 0
0.00010973 0.00974253 0
0 0.00997797 0
-0.000260852 0.00950709 0
0 0.0102388 0
-0.000130426 0.00974253 0
-0.000130426 0.00987296 0
0 0.0101084 0
0.000989462 0.00793973 0
-5.69676e-05 0.00945896 0
0.0025087 0.00508675 0
0.000466247 0.00869934 0
0.00122587 0.00727286 0
0.00174908 0.00651324 0
0.000989462 0.00790642 0
-0.000407316 0.0106461 0
-5.69676e-05 0.0093032 0
0.000291073 0.00927628 0
-0.000232142 0.00997467 0
0.000466247 0.00860481 0
0.00105607 0.00793973 0
0.00339579 0.00508675 0
0.00175181 0.0056 0
0.00222593 0.00651324 0
0.0025738 0.00534338 0
0.00140394 0.00676986 0
0.00105607 0.00790642 0
0.00175181 0.006222 0
-0.000628357 0.0106461 0
0.00140394 0.00706421 0
0.000561728 0.00843407 0
0.000213855 0.00927628 0
0.0154189 0 0
0.00860341 0 0
0.000325749 0.00681553 0
0.0120112 0 0
0.00446458 0.00340776 0
0.00787234 0.00340776 0
0.0154189 0 0
0.000325749 0.00122495 0
0.0166439 0 0
0.00787234 0.000612475 0
0.00848482 0.000612475 0
0.0160314 0 0
0 0.0100475 0
0.00144414 0.00569714 0
0 0.00860341 0
0.000722068 0.00787234 0
0.000722068 0.00715027 0
0 0.00932547 0
0 0.0100475 0
0 0.0112745 0
0.00122696 0.00569714 0
0 0.010661 0
0.000613478 0.00848582 0
0.000613478 0.00787234 0
VECTORS stress_2 float
0.0226232 0.0617213 0
0.0703249 0.0560625 0
0.0169644 0.00721131 0
0.046474 0.0588919 0
0.0436447 0.0316369 0
0.0197938 0.0344663 0
0.0392515 0.0617213 0
0.0375772 0.00721131 0
0.0159885 0.0633956 0
0.0384144 0.0344663 0
0.0267828 0.0353035 0
0.02762 0.0625584 0
0.0217454 0.0252947 0
0.0243156 0.016996 0
0.0134467 0.0108149 0
0.0230305 0.0211453 0
0.0188812 0.0139054 0
0.017596 0.0180548 0
0.0217454 0.0252404 0
0.0265128 0.0528712 0
0.0243156 0.0204729 0
0.0241291 0.0390558 0
0.0254142 0.0366721 0
0.0230305 0.0228566 0
0.0217725 0.0252947 0
0.0172523 0.0108149 0
0.018235 0.0298148 0
0.0195124 0.0180548 0
0.0177437 0.0203149 0
0.0200038 0.0275547 0
0.0217725 0.0252404 0
0.018235 0.025795 0
0.0223271 0.0528712 0
0.0200038 0.0255177 0
0.0202811 0.0393331 0
0.0220498 0.0390558 0
-0.000353819 0 0
0.0243693 0.0146162 0
0.0142624 0 0
0.0120077 0.0073081 0
0.0193158 0.0073081 0
0.00695428 0 0
-0.000353819 0 0
-0.00566639 0 0
0.0243693 0.00531257 0
-0.0030101 0 0
0.00935145 0.00265628 0
0.0120077 0.00265628 0
0.00942072 0.00432704 0
0.0160587 0.0134268 0
0.0185205 0.0112009 0
0.0127397 0.00887694 0
0.0172896 0.0123139 0
0.0139706 0.00776398 0
0.00941226 0.00432704 0
0.0184809 0.0112009 0
-0.000924746 -0.00474164 0
0.0139466 0.00776398 0
0.0087781 0.00322964 0
0.00424376 -0.0002073 0
0.00942072 0.00434396 0
0.00404095 0.000162379 0
0.0160587 0.00972374 0
0.00673084 0.00225317 0
0.0100498 0.00494306 0
0.0127397 0.00703385 0
0.00941226 0.00434396 0
-0.000924746 -0.000869279 0
0.00419902 0.000162379 0
0.00424376 0.00173734 0
0.00163714 -0.00035345 0
0.00680564 0.00225317 0
0.0157047 0.0421108 0
0.0193969 0.0283274 0
0.0109713 0.0384186 0
0.0175508 0.0352191 0
0.0151841 0.033373 0
0.013338 0.0402647 0
0.0150866 0.0421108 0
0.0172476 0.0477917 0
0.0207675 0.0283274 0
0.0161671 0.0449512 0
0.0190075 0.0380595 0
0.017927 0.0352191 0
0.014836 0.0274282 0
0.0123538 0.0370361 0
0.0178139 0.0299104 0
0.0135949 0.0322322 0
0.0150839 0.0334733 0
0.016325 0.0286693 0
0.014836 0.0273599 0
0.0178139 0.0277847 0
0.0152608 0.0183795 0
0.016325 0.0275723 0
0.0165374 0.0230821 0
0.0150484 0.0228697 0
0.0148019 0.0274282 0
0.0122381 0.0249543 0
0.0123279 0.0370361 0
0.01352 0.0261912 0
0.012283 0.0309952 0
0.0135649 0.0322322 0
0.0148019 0.0273599 0
0.0157648 0.0183795 0
0.0122381 0.0263969 0
0.0152833 0.0228697 0
0.0140015 0.0223882 0
0.01352 0.0268784 0
0.0160469 0.0159973 0
0.0198267 0.0282232 0
0.0158497 0.0122175 0
0.0179368 0.0221103 0
0.0178382 0.0202204 0
0.0159483 0.0141074 0
0.0160694 0.0159973 0
0.0150617 0.0181804 0
0.0182525 0.0282232 0
0.0155655 0.0170888 0
0.0166571 0.0232018 0
0.0171609 0.0221103 0
0.0160469 0.0160424 0
0.0158497 0.0120011 0
0.0120057 0.00860006 0
0.0159483 0.0140217 0
0.0139277 0.0103006 0
0.0140263 0.0123212 0
0.0160694 0.0160424 0
0.0132645 0.00860006 0
0.0150617 0.0188472 0
0.014667 0.0123212 0
0.0141631 0.0137236 0
0.0155655 0.0174448 0
0.0133226 0.0113984 0
0.0128052 0.00913712 0
0.0110613 0.00685481 0
0.0130639 0.0102678 0
0.0119333 0.00799597 0
0.0121919 0.00912662 0
0.0133226 0.0113733 0
0.0156365 0.0182724 0
0.0128052 0.00905939 0
0.0144795 0.0148228 0
0.0142208 0.0136659 0
0.0130639 0.0102163 0
0.0133352 0.0113984 0
0.0116585 0.00685481 0
0.0132379 0.0130752 0
0.0124968 0.00912662 0
0.0124482 0.00996499 0
0.0132866 0.0122368 0
0.0133352 0.0113733 0
0.0132379 0.0129011 0
0.014863 0.0182724 0
0.0132866 0.0121372 0
0.0140505 0.0155867 0
0.0140991 0.0148228 0
0.00956855 0.00468091 0
0.0114849 0.00727837 0
0.012166 0.00849792 0
0.0105267 0.00597964 0
0.0118254 0.00788815 0
0.0108673 0.00658941 0
0.00955191 0.00468091 0
0.0126303 0.00849792 0
0.00675239 0.00160254 0
0.0110911 0.00658941 0
0.00969133 0.00505023 0
0.00815215 0.00314172 0
0.00956855 0.00471417 0
0.00754544 0.00240003 0
0.0114849 0.00673728 0
0.00855699 0.0035571 0
0.00951515 0.00456865 0
0.0105267 0.00572572 0
0.00955191 0.00471417 0
0.00675239 0.00247626 0
0.007314 0.00240003 0
0.00815215 0.00359521 0
0.0070332 0.00243814 0
0.00843296 0.0035571 0
0.00975177 0.00483269 0
0.0128673 0.00946173 0
0.0143808 0.0105323 0
0.0113095 0.00714721 0
0.0136241 0.009997 0
0.0120663 0.00768248 0
0.00975177 0.00492322 0
0.00641412 0.0019408 0
0.0128673 0.00826087 0
0.00808295 0.00343201 0
0.00964072 0.00510084 0
0.0113095 0.00659205 0
0.00970651 0.00483269 0
0.0152501 0.0105323 0
0.00491427 -0.000710945 0
0.0124783 0.00768248 0
0.0100822 0.00491066 0
0.00731039 0.00206087 0
0.00970651 0.00492322 0
0.00491427 0.00139524 0
0.00617853 0.0019408 0
0.00731039 0.00315923 0
0.0055464 0.00166802 0
0.00794252 0.00343201 0
0.0135201 0.0186549 0
0.0136446 0.0128572 0
0.0120807 0.0185304 0
0.0135824 0.015756 0
0.0128626 0.0156938 0
0.0128004 0.0185926 0
0.0135288 0.0186549 0
0.0149107 0.0183201 0
0.013194 0.0128572 0
0.0142198 0.0184875 0
0.0140524 0.0155886 0
0.0133614 0.015756 0
0.0135201 0.0186721 0
0.0120807 0.0177894 0
0.0126374 0.0256678 0
0.0128004 0.0182307 0
0.012359 0.0217286 0
0.0130788 0.02217 0
0.0135288 0.0186721 0
0.0129673 0.0256678 0
0.0149107 0.0192336 0
0.013248 0.02217 0
0.013939 0.0224507 0
0.0142198 0.0189529 0
0.012111 0.00844809 0
0.013501 0.0128121 0
0.0114553 0.00705802 0
0.012806 0.0106301 0
0.0124781 0.00993504 0
0.0117831 0.00775305 0
0.012117 0.00844809 0
0.0123618 0.00941091 0
0.0130798 0.0128121 0
0.0122394 0.0089295 0
0.0127208 0.0111115 0
0.0125984 0.0106301 0
0.012111 0.00846019 0
0.0114553 0.0071352 0
0.010786 0.0054082 0
0.0117831 0.00779769 0
0.0111206 0.0062717 0
0.0114485 0.00693419 0
0.012117 0.00846019 0
0.0111225 0.0054082 0
0.0123618 0.00945472 0
0.0116197 0.00693419 0
0.0117422 0.00743146 0
0.0122394 0.00895745 0
0.0125943 0.0132322 0
0.0125117 0.0180994 0
0.0131869 0.0133149 0
0.012553 0.0156658 0
0.0128493 0.0157071 0
0.0128906 0.0132736 0
0.0125943 0.0132302 0
0.0131869 0.0129192 0
0.0122833 0.00933235 0
0.0128906 0.0130747 0
0.0127351 0.0111257 0
0.0124388 0.0112813 0
0.0125933 0.0132322 0
0.011893 0.012854 0
0.012215 0.0180994 0
0.0122431 0.0130431 0
0.012054 0.0154767 0
0.0124041 0.0156658 0
0.0125933 0.0132302 0
0.0125943 0.00933235 0
0.011893 0.0132291 0
0.0125938 0.0112813 0
0.0122437 0.0112807 0
0.0122431 0.0132297 0
0.00914904 0.0322994 0
0.0113731 0.0360813 0
0.0129309 0.025647 0
0.0102611 0.0341904 0
0.012152 0.0308642 0
0.01104 0.0289732 0
0.00922812 0.0322994 0
0.0126955 0.025647 0
0.0072517 0.028832 0
0.0109618 0.0289732 0
0.00997363 0.0272395 0
0.00823991 0.0305657 0
0.0105013 0.0233333 0
0.0121952 0.0252256 0
0.0123936 0.0181023 0
0.0113483 0.0242795 0
0.0122944 0.021664 0
0.0114475 0.0207178 0
0.0105013 0.0233575 0
0.00771154 0.0283722 0
0.0121952 0.0261474 0
0.00910644 0.0258649 0
0.00995339 0.0272598 0
0.0113483 0.0247524 0
0.0104892 0.0233333 0
0.0124511 0.0181023 0
0.008961 0.0213715 0
0.0114702 0.0207178 0
0.0107061 0.0197369 0
0.00972512 0.0223524 0
0.0104892 0.0233575 0
0.008961 0.0206918 0
0.00782351 0.0283722 0
0.00972512 0.0220247 0
0.00839225 0.024532 0
0.00915637 0.0258649 0
-5.67283e-06 0 0
-0.000624104 0 0
0.00398684 0.000618431 0
-0.000314888 0 0
0.00168137 0.000309216 0
0.00199059 0.000309216 0
-5.67283e-06 0 0
0.00398684 -4.97941e-05 0
-5.54669e-05 0 0
0.00199059 -2.4897e-05 0
0.00196569 -2.4897e-05 0
-3.05699e-05 0 0
0.00278524 0.000746455 0
0.00377499 0.000830288 0
-0.000380812 -0.000243292 0
0.00328011 0.000788372 0
0.00169709 0.000293498 0
0.00120221 0.000251581 0
0.00275538 0.000746455 0
0.00657812 0.0023404 0
0.00434932 0.000830288 0
0.00466675 0.00154343 0
0.00546372 0.00158534 0
0.00355235 0.000788372 0
0.00278524 0.000686728 0
-0.000380812 -0.000242237 0
0.00185627 -2.92444e-05 0
0.00120221 0.000222246 0
0.000737731 -0.000135741 0
0.00232076 0.000328742 0
0.00275538 0.000686728 0
0.00170003 -2.92444e-05 0
0.00657812 0.00174207 0
0.0022277 0.000328742 0
0.00413908 0.000856414 0
0.00466675 0.0012144 0
0.00480902 0.00116585 0
0.00373908 0.000412768 0
0.00761525 0.00223579 0
0.00427405 0.00078931 0
0.00567716 0.00132428 0
0.00621213 0.00170082 0
0.00480902 0.00117076 0
0.00761525 0.00270127 0
0.00633953 0.0020634 0
0.00621213 0.00193602 0
0.00697739 0.00238234 0
0.00557427 0.00161708 0
0.00481147 0.00116585 0
0.00194535 0.000141794 0
0.00378742 0.000412768 0
0.00337841 0.000653823 0
0.00286638 0.000277281 0
0.00429945 0.00078931 0
0.00481147 0.00117076 0
0.0062568 0.0020634 0
0.00194535 -0.00027456 0
0.00553414 0.00161708 0
0.00410107 0.000894419 0
0.00337841 0.000448102 0
0.00958553 0.00410429 0
0.0114124 0.00680974 0
0.00766804 0.00227743 0
0.010499 0.00545701 0
0.00954022 0.00454358 0
0.00862679 0.00319086 0
0.00958553 0.00411942 0
0.00766804 0.00270089 0
0.008167 0.00234302 0
0.00862679 0.00341015 0
0.00791752 0.00252196 0
0.00887627 0.00323122 0
0.0095931 0.00410429 0
0.0110188 0.00564098 0
0.0111298 0.00680974 0
0.0103059 0.00487263 0
0.0110743 0.00622536 0
0.0103614 0.00545701 0
0.0095931 0.00411942 0
0.00834369 0.00234302 0
0.0110188 0.00536883 0
0.00896839 0.00323122 0
0.00968122 0.00385592 0
0.0103059 0.00474412 0
0.00625026 0.00140403 0
0.00742308 0.00242795 0
0.00392064 0.000231208 0
0.00683667 0.00191599 0
0.00567186 0.00132958 0
0.00508545 0.000817619 0
0.00625118 0.00140403 0
0.00837194 0.00254796 0
0.00739511 0.00242795 0
0.00731156 0.00197599 0
0.00788352 0.00248796 0
0.00682314 0.00191599 0
0.00625026 0.00140586 0
0.00392064 0.000550866 0
0.00539527 0.000651781 0
0.00508545 0.000978361 0
0.00465795 0.000601323 0
0.00582277 0.00102882 0
0.00625118 0.00140586 0
0.00541046 0.000651781 0
0.00837194 0.00224657 0
0.00583082 0.00102882 0
0.0068912 0.00144918 0
0.00731156 0.00182621 0
3.2993e-06 0 0
0.00174364 -0.000141874 0
-0.000138575 0 0
0.000873472 -7.09371e-05 0
0.000802535 -7.09371e-05 0
-6.76378e-05 0 0
3.2993e-06 0 0
-0.000151797 0 0
0.00174364 0.000155096 0
-7.42489e-05 0 0
0.000795924 7.75482e-05 0
0.000873472 7.75482e-05 0
0.00161454 0.000150883 0
0.00383978 0.00046513 0
0.00192879 0.000125237 0
0.00272716 0.000308006 0
0.00288428 0.000295183 0
0.00177167 0.00013806 0
0.00162204 0.000150883 0
0.0017735 0.000125237 0
-0.000151214 -5.83526e-07 0
0.00169777 0.00013806 0
0.000811145 6.23267e-05 0
0.000735412 7.51497e-05 0
0.00161454 0.000135894 0
0.00135698 -3.18154e-05 0
0.00383978 0.000393455 0
0.00148576 5.20395e-05 0
0.00259838 0.00018082 0
0.00272716 0.000264674 0
0.00162204 0.000135894 0
-0.000151214 -7.87938e-05 0
0.00140735 -3.18154e-05 0
0.000735412 2.85503e-05 0
0.000628068 -5.53046e-05 0
0.00151469 5.20395e-05 0
0.00611883 0.0247873 0
0.0091822 0.0210213 0
0.00501814 0.0217239 0
0.00765051 0.0229043 0
0.00710017 0.0213726 0
0.00556848 0.0232556 0
0.00609444 0.0247873 0
0.00743465 0.0279833 0
0.00929046 0.0210213 0
0.00676455 0.0263853 0
0.00836255 0.0245023 0
0.00769245 0.0229043 0
0.00792102 0.0185724 0
0.00524184 0.0215002 0
0.00895186 0.0212516 0
0.00658143 0.0200363 0
0.00709685 0.0213759 0
0.00843644 0.019912 0
0.00792102 0.018561 0
0.00895186 0.0207544 0
0.0101145 0.0153774 0
0.00843644 0.0196577 0
0.00953317 0.0180659 0
0.00901775 0.0169692 0
0.0079153 0.0185724 0
0.00698341 0.0159934 0
0.0053363 0.0215002 0
0.00744936 0.0172829 0
0.00615986 0.0187468 0
0.0066258 0.0200363 0
0.0079153 0.018561 0
0.0101001 0.0153774 0
0.00698341 0.0163762 0
0.0090077 0.0169692 0
0.00854175 0.0158768 0
0.00744936 0.0174686 0
0.0109407 0.0168663 0
0.00930183 0.0210306 0
0.0120483 0.0185051 0
0.0101212 0.0189485 0
0.0106751 0.0197679 0
0.0114945 0.0176857 0
0.0109359 0.0168663 0
0.00989551 0.0151584 0
0.00922805 0.0210306 0
0.0104157 0.0160124 0
0.00956178 0.0180945 0
0.010082 0.0189485 0
0.0109407 0.0168569 0
0.0120483 0.0179327 0
0.0120165 0.0129774 0
0.0114945 0.0173948 0
0.0120324 0.0154551 0
0.0114786 0.0149172 0
0.0109359 0.0168569 0
0.0121562 0.0129774 0
0.00989551 0.0156366 0
0.0115461 0.0149172 0
0.0110259 0.014307 0
0.0104157 0.0162468 0
0.0112347 0.0121721 0
0.0118738 0.0129107 0
0.0119734 0.00933561 0
0.0115543 0.0125414 0
0.0119236 0.0111232 0
0.011604 0.0107538 0
0.0112347 0.0121758 0
0.0101507 0.0153815 0
0.0118738 0.0132598 0
0.0106927 0.0137786 0
0.0110122 0.0143207 0
0.0115543 0.0127178 0
0.0112328 0.0121721 0
0.0121105 0.00933561 0
0.0106011 0.0112944 0
0.0116716 0.0107538 0
0.0113558 0.010315 0
0.010917 0.0117332 0
0.0112328 0.0121758 0
0.0106011 0.0109828 0
0.0100398 0.0153815 0
0.010917 0.0115793 0
0.0103204 0.0131821 0
0.0106363 0.0137786 0
0.0121938 0.00955033 0
0.011927 0.00928919 0
0.0119326 0.0129695 0
0.0120604 0.00941976 0
0.0119298 0.0111294 0
0.0120632 0.0112599 0
0.0121932 0.00955033 0
0.0121526 0.0129695 0
0.0123357 0.00959099 0
0.0121729 0.0112599 0
0.0122441 0.0112803 0
0.0122645 0.00957066 0
0.0121938 0.00955135 0
0.0122494 0.00683348 0
0.011927 0.0094957 0
0.0122216 0.00819242 0
0.0120882 0.00816459 0
0.0120604 0.00952352 0
0.0121932 0.00955135 0
0.0123357 0.00939469 0
0.0120366 0.00683348 0
0.0122645 0.00947302 0
0.0121861 0.00811409 0
0.0121149 0.00819242 0
0.00912485 0.0136332 0
0.00843567 0.0116692 0
0.00716087 0.016191 0
0.00878026 0.0126512 0
0.00779827 0.0139301 0
0.00814286 0.0149121 0
0.00912739 0.0136332 0
0.0071686 0.016191 0
0.00988551 0.015592 0
0.008148 0.0149121 0
0.00852706 0.0158915 0
0.00950645 0.0146126 0
0.00912485 0.0136281 0
0.0107697 0.0111082 0
0.00843567 0.0119833 0
0.00994727 0.0123681 0
0.00960268 0.0115457 0
0.00878026 0.0128057 0
0.00912739 0.0136281 0
0.00988551 0.0152272 0
0.0107265 0.0111082 0
0.00950645 0.0144276 0
0.010306 0.0131677 0
0.00992693 0.0123681 0
0.00432095 0.0184328 0
0.00512438 0.0212883 0
0.00717649 0.0161865 0
0.00472266 0.0198605 0
0.00615044 0.0187374 0
0.00574872 0.0173096 0
0.00433415 0.0184328 0
0.00710951 0.0161865 0
0.0036799 0.0156574 0
0.00572183 0.0173096 0
0.00539471 0.015922 0
0.00400703 0.0170451 0
0.0063479 0.0137717 0
0.00698089 0.016011 0
0.00858722 0.0118207 0
0.00666439 0.0148914 0
0.00778406 0.0139159 0
0.00746756 0.0127962 0
0.0063479 0.0137778 0
0.00381057 0.0155267 0
0.00698089 0.0163151 0
0.00507923 0.0146523 0
0.00539573 0.0159209 0
0.00666439 0.0150465 0
0.00634486 0.0137717 0
0.008562 0.0118207 0
0.00577833 0.0115546 0
0.00745343 0.0127962 0
0.00717017 0.0116876 0
0.00606159 0.0126631 0
0.00634486 0.0137778 0
0.00577833 0.0113113 0
0.0038784 0.0155267 0
0.00606159 0.0125446 0
0.00482836 0.013419 0
0.00511163 0.0146523 0
0.0116101 0.00870904 0
0.0107876 0.0111079 0
0.0119146 0.00953149 0
0.0111989 0.00990845 0
0.0113511 0.0103197 0
0.0117623 0.00912027 0
0.0116095 0.00870904 0
0.0112803 0.00778161 0
0.010682 0.0111079 0
0.0114449 0.00824533 0
0.0109812 0.00944474 0
0.0111458 0.00990845 0
0.0116101 0.00870782 0
0.0119146 0.00930848 0
0.0122107 0.00664772 0
0.0117623 0.00900815 0
0.0120627 0.0079781 0
0.0119104 0.00767777 0
0.0116095 0.00870782 0
0.0123249 0.00664772 0
0.0112803 0.00799238 0
0.0119672 0.00767777 0
0.0118026 0.00732005 0
0.0114449 0.0083501 0
0.0101063 0.00977324 0
0.00859512 0.0118238 0
0.0105934 0.0112844 0
0.00935071 0.0107985 0
0.00959427 0.0115541 0
0.0103499 0.0105288 0
0.0101063 0.00977059 0
0.0105934 0.0110192 0
0.011355 0.00785624 0
0.0103499 0.0103949 0
0.0109742 0.00943774 0
0.0107306 0.00881341 0
0.010105 0.00977324 0
0.0096499 0.00822204 0
0.00855376 0.0118238 0
0.00987744 0.00899764 0
0.00910183 0.0100229 0
0.00932937 0.0107985 0
0.010105 0.00977059 0
0.0114149 0.00785624 0
0.0096499 0.00846066 0
0.0107599 0.00881341 0
0.0105324 0.00815845 0
0.00987744 0.00911563 0
0.0116898 0.00634977 0
0.0110069 0.00557761 0
0.0109176 0.00420144 0
0.0113483 0.00596369 0
0.0109622 0.00488953 0
0.0113037 0.0052756 0
0.0116898 0.00634283 0
0.0125088 0.00930776 0
0.0110069 0.00552381 0
0.0120993 0.00782529 0
0.0117578 0.00741578 0
0.0113483 0.00593332 0
0.0116932 0.00634977 0
0.0111291 0.00420144 0
0.0121014 0.00691394 0
0.0114112 0.0052756 0
0.0116153 0.00555769 0
0.0118973 0.00663185 0
0.0116932 0.00634283 0
0.0121014 0.00689835 0
0.0122488 0.00930776 0
0.0118973 0.00662059 0
0.0121751 0.00810305 0
0.011971 0.00782529 0
0.00988687 0.00341375 0
0.0110597 0.00434356 0
0.0108167 0.00538742 0
0.0104733 0.00387865 0
0.0109382 0.00486549 0
0.0103518 0.00440058 0
0.00988303 0.00341375 0
0.0110002 0.00538742 0
0.00839009 0.00229662 0
0.0104416 0.00440058 0
0.00969512 0.00384202 0
0.00913656 0.00285518 0
0.00988687 0.00342141 0
0.00911584 0.00205802 0
0.0110597 0.00419244 0
0.00950135 0.00273971 0
0.0100878 0.00312523 0
0.0104733 0.00380693 0
0.00988303 0.00342141 0
0.00839009 0.0025244 0
0.00898602 0.00205802 0
0.00913656 0.00297291 0
0.00868805 0.00229121 0
0.00943453 0.00273971 0
0.0121966 0.00689298 0
0.0120945 0.00932819 0
0.0120878 0.00699511 0
0.0121455 0.00811058 0
0.0120911 0.00816165 0
0.0121422 0.00694404 0
0.0121966 0.00689454 0
0.0120878 0.00688308 0
0.0121851 0.00496475 0
0.0121422 0.00688881 0
0.0121365 0.00592392 0
0.0121909 0.00592965 0
0.0121974 0.00689298 0
0.0121929 0.00662988 0
0.0119343 0.00932819 0
0.0121951 0.00676143 0
0.0120636 0.00797903 0
0.0120658 0.00811058 0
0.0121974 0.00689454 0
0.0123344 0.00496475 0
0.0121929 0.00675756 0
0.0122659 0.00592965 0
0.0122636 0.00586115 0
0.0121951 0.00682605 0
0.0117414 0.00473164 0
0.0121958 0.00681963 0
0.0110532 0.00427732 0
0.0119686 0.00577563 0
0.0116245 0.00554847 0
0.0113973 0.00450448 0
0.0117435 0.00473164 0
0.0122328 0.00501245 0
0.0120243 0.00681963 0
0.0119882 0.00487204 0
0.0121286 0.00591604 0
0.0118839 0.00577563 0
0.0117414 0.0047358 0
0.0110532 0.00430817 0
0.0113138 0.00319011 0
0.0113973 0.00452199 0
0.0111835 0.00374914 0
0.0115276 0.00396296 0
0.0117435 0.0047358 0
0.0114561 0.00319011 0
0.0122328 0.00502323 0
0.0115998 0.00396296 0
0.0118445 0.00410667 0
0.0119882 0.00487952 0
0.0120802 0.00346767 0
0.0114008 0.00325961 0
0.0118721 0.00235287 0
0.0117405 0.00336364 0
0.0116365 0.00280624 0
0.0119761 0.00291027 0
0.0120802 0.003465 0
0.0122998 0.00495629 0
0.0114008 0.00324537 0
0.01219 0.00421064 0
0.0118503 0.00410083 0
0.0117405 0.00335518 0
0.0120815 0.00346767 0
0.011972 0.00235287 0
0.012608 0.00357719 0
0.0120267 0.00291027 0
0.01229 0.00296503 0
0.0123448 0.00352243 0
0.0120815 0.003465 0
0.012608 0.00356471 0
0.0121812 0.00495629 0
0.0123448 0.00351485 0
0.0123946 0.0042605 0
0.0121313 0.00421064 0
0.0110111 0.00209901 0
0.0119316 0.00241242 0
0.0113245 0.00318325 0
0.0114714 0.00225572 0
0.0116281 0.00279784 0
0.0111678 0.00264113 0
0.0110097 0.00209901 0
0.0114159 0.00318325 0
0.00991772 0.00169283 0
0.0112128 0.00264113 0
0.0106668 0.00243804 0
0.0104637 0.00189592 0
0.0110111 0.00210177 0
0.0107499 0.00132112 0
0.0119316 0.00236296 0
0.0108805 0.00171144 0
0.0113408 0.00184204 0
0.0114714 0.00223237 0
0.0110097 0.00210177 0
0.00991772 0.00176985 0
0.0106778 0.00132112 0
0.0104637 0.00193581 0
0.0102977 0.00154548 0
0.0108437 0.00171144 0
0.0103812 0.00272718 0
0.0114046 0.00328095 0
0.010935 0.00418998 0
0.0108929 0.00300407 0
0.0111698 0.00373546 0
0.0106581 0.00345858 0
0.0103812 0.00273161 0
0.00991836 0.00169218 0
0.0114046 0.00319448 0
0.0101498 0.0022119 0
0.0106615 0.00244333 0
0.0108929 0.00296305 0
0.010379 0.00272718 0
0.0110622 0.00418998 0
0.00912985 0.002044 0
0.0107206 0.00345858 0
0.010096 0.00311699 0
0.00975443 0.00238559 0
0.010379 0.00273161 0
0.00912985 0.00217477 0
0.00982217 0.00169218 0
0.00975443 0.00245319 0
0.00947601 0.00193348 0
0.0101006 0.0022119 0
0.0124804 0.00490439 0
0.012682 0.003532 0
0.012635 0.00470279 0
0.0125812 0.0042182 0
0.0126585 0.0041174 0
0.0125577 0.00480359 0
0.0124797 0.00490439 0
0.0122249 0.00500002 0
0.0125753 0.003532 0
0.0123523 0.00495221 0
0.0124001 0.00426601 0
0.0125275 0.0042182 0
0.0124804 0.00490297 0
0.012635 0.0046144 0
0.0121919 0.00664197 0
0.0125577 0.00475868 0
0.0124134 0.00562818 0
0.0123361 0.00577247 0
0.0124797 0.00490297 0
0.0123085 0.00664197 0
0.0122249 0.00507418 0
0.0123941 0.00577247 0
0.0122667 0.00585808 0
0.0123523 0.00498858 0
0.0125879 0.00246624 0
0.0126586 0.00352659 0
0.0119293 0.00239554 0
0.0126233 0.00299642 0
0.012294 0.00296106 0
0.0122586 0.00243089 0
0.0125888 0.00246624 0
0.0131228 0.00245195 0
0.0125745 0.00352659 0
0.0128558 0.0024591 0
0.0128487 0.00298927 0
0.0125817 0.00299642 0
0.0125879 0.00246803 0
0.0119293 0.00239869 0
0.0125186 0.00167523 0
0.0122586 0.00243336 0
0.0122239 0.00203696 0
0.0125533 0.00207163 0
0.0125888 0.00246803 0
0.0125902 0.00167523 0
0.0131228 0.00246672 0
0.0125895 0.00207163 0
0.0128565 0.00207098 0
0.0128558 0.00246738 0
0.0129388 0.0033911 0
0.0127191 0.00461867 0
0.0126033 0.00361075 0
0.012829 0.00400489 0
0.0126612 0.00411471 0
0.012771 0.00350093 0
0.0129388 0.00339226 0
0.0126033 0.00355532 0
0.0131018 0.00243098 0
0.012771 0.00347379 0
0.0128526 0.00299315 0
0.0130203 0.00291162 0
0.0129394 0.0033911 0
0.0131851 0.00308601 0
0.0126343 0.00461867 0
0.0130622 0.00323855 0
0.0129097 0.00385234 0
0.0127868 0.00400489 0
0.0129394 0.00339226 0
0.0131786 0.00243098 0
0.0131851 0.00315306 0
0.013059 0.00291162 0
0.0131818 0.00279202 0
0.0130622 0.00327266 0
0.0121071 0.00609866 0
0.012185 0.00663509 0
0.0126435 0.00462291 0
0.012146 0.00636688 0
0.0124143 0.005629 0
0.0123753 0.00536079 0
0.0121071 0.00609881 0
0.0114183 0.00785444 0
0.012185 0.00678766 0
0.0117627 0.00697663 0
0.0118016 0.00732105 0
0.012146 0.00644324 0
0.012107 0.00609866 0
0.0127332 0.00462291 0
0.0119896 0.00547246 0
0.0124201 0.00536079 0
0.0123614 0.00504769 0
0.0120483 0.00578556 0
0.012107 0.00609881 0
0.0119896 0.00532137 0
0.0113296 0.00785444 0
0.0120483 0.00571009 0
0.0116596 0.00658791 0
0.0117183 0.00697663 0
0.00848025 0.00125264 0
0.00906934 0.00205811 0
0.00687474 0.000663552 0
0.00877479 0.00165538 0
0.00797204 0.00136083 0
0.00767749 0.000958096 0
0.00848137 0.00125264 0
0.00991446 0.00178447 0
0.00901319 0.00205811 0
0.00919791 0.00151856 0
0.00946383 0.00192129 0
0.00874728 0.00165538 0
0.00848025 0.00125488 0
0.00687474 0.0008058 0
0.00803117 0.000678906 0
0.00767749 0.00103034 0
0.00745295 0.000742353 0
0.00825571 0.000966891 0
0.00848137 0.00125488 0
0.00807166 0.000678906 0
0.00991446 0.00166458 0
0.00827651 0.000966891 0
0.00899306 0.00117174 0
0.00919791 0.00145973 0
0.00741937 0.00140231 0
0.00681658 0.000721706 0
0.00912235 0.0020051 0
0.00711798 0.00106201 0
0.00796947 0.0013634 0
0.00827086 0.0017037 0
0.00741937 0.00139958 0
0.00912235 0.00219434 0
0.00821413 0.00234845 0
0.00827086 0.00179696 0
0.00866824 0.00227139 0
0.00781675 0.00187401 0
0.007418 0.00140231 0
0.00551472 0.000764053 0
0.00677975 0.000721706 0
0.00646636 0.00108318 0
0.00614724 0.00074288 0
0.00709888 0.00106201 0
0.007418 0.00139958 0
0.00827007 0.00234845 0
0.00551472 0.000547518 0
0.00784404 0.00187401 0
0.0068924 0.00144798 0
0.00646636 0.000973549 0
0.00949549 0.00104274 0
0.00923019 0.00058016 0
0.0107411 0.00130803 0
0.00936284 0.00081145 0
0.00998562 0.000944096 0
0.0101183 0.00117539 0
0.00949549 0.00104106 0
0.0107411 0.0013844 0
0.00983882 0.00169096 0
0.0101183 0.00121273 0
0.0102899 0.00153768 0
0.00966715 0.00136601 0
0.00949464 0.00104274 0
0.00810294 0.0007408 0
0.0091927 0.00058016 0
0.00879879 0.00089177 0
0.00864782 0.00066048 0
0.00934367 0.00081145 0
0.00949464 0.00104106 0
0.00988808 0.00169096 0
0.00810294 0.000647623 0
0.00969136 0.00136601 0
0.00899551 0.00116929 0
0.00879879 0.000844341 0
0.0117191 0.00155543 0
0.0119461 0.0023485 0
0.0107426 0.00132839 0
0.0118326 0.00195196 0
0.0113444 0.00183844 0
0.0112308 0.00144191 0
0.0117191 0.00155724 0
0.0107426 0.00137401 0
0.0115358 0.000985919 0
0.0112308 0.00146563 0
0.0111392 0.00117997 0
0.0116275 0.00127158 0
0.01172 0.00155543 0
0.0125579 0.00171457 0
0.0118791 0.0023485 0
0.012139 0.001635 0
0.0122185 0.00203153 0
0.0117995 0.00195196 0
0.01172 0.00155724 0
0.0115902 0.000985919 0
0.0125579 0.00168704 0
0.0116551 0.00127158 0
0.0120741 0.00133648 0
0.012139 0.00162214 0
0.0104758 0.000817837 0
0.0107293 0.00131978 0
0.00924601 0.000564338 0
0.0106026 0.00106881 0
0.00998766 0.000942061 0
0.00986091 0.000691088 0
0.0104764 0.000817837 0
0.0115797 0.00102979 0
0.0106884 0.00131978 0
0.0110281 0.000923816 0
0.011134 0.00117479 0
0.0105824 0.00106881 0
0.0104758 0.000819067 0
0.00924601 0.000625631 0
0.0102824 0.000466501 0
0.00986091 0.000722349 0
0.00976419 0.000546066 0
0.0103791 0.000642784 0
0.0104764 0.000819067 0
0.0103147 0.000466501 0
0.0115797 0.000980794 0
0.0103956 0.000642784 0
0.0109472 0.000723648 0
0.0110281 0.00089993 0
0.00646429 0.000404645 0
0.00809362 0.000741355 0
0.006801 0.000732066 0
0.00727896 0.000573 0
0.00744731 0.00073671 0
0.00663265 0.000568356 0
0.00646429 0.000404447 0
0.00622047 0.000149476 0
0.00809362 0.000648271 0
0.00634238 0.000276962 0
0.00715704 0.000398873 0
0.00727896 0.000526359 0
0.00646439 0.000404645 0
0.00680294 0.000732066 0
0.00475803 6.60992e-05 0
0.00663366 0.000568356 0
0.00578048 0.000399083 0
0.00561121 0.000235372 0
0.00646439 0.000404447 0
0.00475803 0.000157206 0
0.00621715 0.000149476 0
0.00561121 0.000280827 0
0.00548759 0.000153341 0
0.00634077 0.000276962 0
0.00779496 0.000377691 0
0.00924089 0.000628351 0
0.00804562 0.000683478 0
0.00851793 0.000503021 0
0.00864326 0.000655914 0
0.00792029 0.000530585 0
0.00779481 0.000377691 0
0.00805841 0.000683478 0
0.00625586 0.000114084 0
0.00792661 0.000530585 0
0.00715714 0.000398781 0
0.00702533 0.000245888 0
0.00779496 0.000378005 0
0.00761262 0.000154203 0
0.00924089 0.000560349 0
0.00770379 0.000266104 0
0.00842676 0.000357276 0
0.00851793 0.000469177 0
0.00779481 0.000378005 0
0.00625586 0.00018522 0
0.00760202 0.000154203 0
0.00702533 0.000281613 0
0.00692894 0.000169712 0
0.00769841 0.000266104 0
0.00500696 0.000379371 0
0.00685664 0.000798597 0
0.00542618 0.000675515 0
0.0059318 0.000588984 0
0.00614141 0.000737056 0
0.00521657 0.000527443 0
0.00500782 0.000379371 0
0.00540297 0.000675515 0
0.00313248 -1.57758e-05 0
0.00520539 0.000527443 0
0.00426772 0.00032987 0
0.00407015 0.000181797 0
0.00500696 0.000377651 0
0.00470625 0.000117886 0
0.00685664 0.000678362 0
0.0048566 0.000247768 0
0.00578144 0.000398124 0
0.0059318 0.000528007 0
0.00500782 0.000377651 0
0.00313248 8.72594e-05 0
0.00471743 0.000117886 0
0.00407015 0.000232455 0
0.00392496 0.000102573 0
0.00486262 0.000247768 0
0.0033868 0.000283776 0
0.00547707 0.000733575 0
0.0038366 0.000466831 0
0.00443194 0.000508675 0
0.00465683 0.000600203 0
0.0036117 0.000375304 0
0.0033868 0.000278758 0
0.00306415 5.2561e-05 0
0.00547707 0.000601414 0
0.00322548 0.000165659 0
0.00427061 0.000326988 0
0.00443194 0.000440086 0
0.00338931 0.000283776 0
0.0037664 0.000466831 0
0.00141848 -9.33124e-05 0
0.00357786 0.000375304 0
0.00259244 0.00018676 0
0.0024039 9.52319e-05 0
0.00338931 0.000278758 0
0.00141848 -1.13355e-05 0
0.00309922 5.2561e-05 0
0.0024039 0.000133711 0
0.00225885 2.06128e-05 0
0.00324427 0.000165659 0
0.0110078 0.00676945 0
0.0120967 0.00537014 0
0.0107496 0.00568057 0
0.0115523 0.0060698 0
0.0114231 0.00552535 0
0.0108787 0.00622501 0
0.0110084 0.00676945 0
0.0112746 0.00779944 0
0.0120384 0.00537014 0
0.0111415 0.00728445 0
0.0116565 0.00658479 0
0.0115234 0.0060698 0
0.0110078 0.00677069 0
0.0107496 0.00549579 0
0.00973291 0.008328 0
0.0108787 0.00613324 0
0.0102412 0.00691189 0
0.0103704 0.00754934 0
0.0110084 0.00677069 0
0.00978257 0.008328 0
0.0112746 0.00799654 0
0.0103955 0.00754934 0
0.0105286 0.00816227 0
0.0111415 0.00738361 0
0.0118839 0.00445557 0
0.0108581 0.00557204 0
0.0119855 0.00548132 0
0.011371 0.0050138 0
0.0114218 0.00552668 0
0.0119347 0.00496845 0
0.0118839 0.00445513 0
0.0119855 0.00532928 0
0.012758 0.00348248 0
0.0119347 0.0048922 0
0.0123718 0.00440588 0
0.0123209 0.0039688 0
0.0118836 0.00445557 0
0.011773 0.00338424 0
0.0108123 0.00557204 0
0.0118283 0.00391991 0
0.0112927 0.00447814 0
0.011348 0.0050138 0
0.0118836 0.00445513 0
0.0128069 0.00348248 0
0.011773 0.00353182 0
0.0123453 0.0039688 0
0.01229 0.00350715 0
0.0118283 0.00399347 0
0.0126992 0.00412113 0
0.012094 0.00536806 0
0.0126299 0.00472628 0
0.0123966 0.00474459 0
0.012362 0.00504717 0
0.0126645 0.00442371 0
0.0126993 0.00412113 0
0.0127216 0.00344609 0
0.0120243 0.00536806 0
0.0127105 0.00378361 0
0.012373 0.00440707 0
0.0123618 0.00474459 0
0.0126992 0.0041214 0
0.0126299 0.00461426 0
0.013192 0.00309295 0
0.0126645 0.00436783 0
0.012911 0.0038536 0
0.0129456 0.00360718 0
0.0126993 0.0041214 0
0.0132599 0.00309295 0
0.0127216 0.00356087 0
0.0129796 0.00360718 0
0.0129907 0.00332691 0
0.0127105 0.00384114 0
0.00932943 0.00674494 0
0.0096465 0.00824159 0
0.0108261 0.00557228 0
0.00948797 0.00749326 0
0.0102363 0.00690693 0
0.0100778 0.00615861 0
0.00932943 0.00674652 0
0.0076293 0.00796504 0
0.0096465 0.00844666 0
0.00847937 0.00735578 0
0.0086379 0.00820585 0
0.00948797 0.00759659 0
0.00932864 0.00674494 0
0.0108517 0.00557228 0
0.0090463 0.00522188 0
0.0100902 0.00615861 0
0.009949 0.00539708 0
0.00918747 0.00598341 0
0.00932864 0.00674652 0
0.0090463 0.00503265 0
0.00761476 0.00796504 0
0.00918747 0.00588959 0
0.00833053 0.00649884 0
0.0084717 0.00735578 0
0.00794807 0.0098946 0
0.00843148 0.0117015 0
0.00975502 0.00832715 0
0.00818978 0.0107981 0
0.00909325 0.0100144 0
0.00885155 0.00911088 0
0.00794669 0.0098946 0
0.009766 0.00832715 0
0.00751905 0.00807529 0
0.00885634 0.00911088 0
0.00864252 0.00820122 0
0.00773287 0.00898495 0
0.00794807 0.00989738 0
0.0058942 0.0114387 0
0.00843148 0.0119513 0
0.00692114 0.010668 0
0.00716284 0.011695 0
0.00818978 0.0109243 0
0.00794669 0.00989738 0
0.00751905 0.00785332 0
0.00590263 0.0114387 0
0.00773287 0.00887535 0
0.00671084 0.00964601 0
0.00692466 0.010668 0
0.0134904 0.002248 0
0.0137769 0.00194502 0
0.0131874 0.0030899 0
0.0136336 0.00209651 0
0.0134821 0.00251746 0
0.0133389 0.00266895 0
0.0134899 0.002248 0
0.0132483 0.0030899 0
0.0131199 0.00248968 0
0.0133691 0.00266895 0
0.0131841 0.00278979 0
0.0133049 0.00236884 0
0.0134904 0.0022489 0
0.0137407 0.00159778 0
0.0137769 0.00199859 0
0.0136156 0.00192334 0
0.0137588 0.00179818 0
0.0136336 0.00212374 0
0.0134899 0.0022489 0
0.0131199 0.00244516 0
0.0136862 0.00159778 0
0.0133049 0.00234703 0
0.013403 0.00202147 0
0.0135881 0.00192334 0
0.013337 0.00263631 0
0.0131818 0.00308426 0
0.013785 0.00195311 0
0.0132594 0.00286028 0
0.0134834 0.00251868 0
0.013561 0.00229471 0
0.013337 0.00263591 0
0.0128019 0.00348062 0
0.0131818 0.00317104 0
0.0130694 0.00305827 0
0.0129918 0.00332583 0
0.0132594 0.00290347 0
0.0133372 0.00263631 0
0.0138339 0.00195311 0
0.01344 0.00213963 0
0.0135856 0.00229471 0
0.013637 0.00204637 0
0.0133886 0.00238797 0
0.0133372 0.00263591 0
0.01344 0.00204883 0
0.0127501 0.00348062 0
0.0133886 0.00234237 0
0.0130951 0.00276473 0
0.0130437 0.00305827 0
0.0131812 0.00169099 0
0.0125565 0.00170558 0
0.0131958 0.00114418 0
0.0128689 0.00169828 0
0.0128762 0.00142488 0
0.0131885 0.00141758 0
0.0131812 0.00168975 0
0.0131621 0.00242743 0
0.0125565 0.00170888 0
0.0131717 0.00205859 0
0.0128593 0.00206815 0
0.0128689 0.00169931 0
0.0131818 0.00169099 0
0.0132471 0.00114418 0
0.0136985 0.0016257 0
0.0132145 0.00141758 0
0.0134728 0.00138494 0
0.0134402 0.00165834 0
0.0131818 0.00168975 0
0.0136985 0.00161005 0
0.0131021 0.00242743 0
0.0134402 0.0016499 0
0.0134003 0.00201874 0
0.013142 0.00205859 0
0.0124609 0.00110779 0
0.0132218 0.00117017 0
0.0125233 0.00167237 0
0.0128414 0.00113898 0
0.0128726 0.00142127 0
0.0124921 0.00139008 0
0.0124603 0.00110779 0
0.0125726 0.00167237 0
0.0115806 0.000995507 0
0.0125165 0.00139008 0
0.0120766 0.00133394 0
0.0120205 0.00105165 0
0.0124609 0.00110902 0
0.0124147 0.000706915 0
0.0132218 0.00115527 0
0.0124378 0.000907966 0
0.0128182 0.000931092 0
0.0128414 0.00113214 0
0.0124603 0.00110902 0
0.0115806 0.00102265 0
0.012374 0.000706915 0
0.0120205 0.00106584 0
0.0119773 0.000864784 0
0.0124171 0.000907966 0
0.0140638 0.00140241 0
0.0138245 0.001951 0
0.0136967 0.00164178 0
0.0139441 0.0016767 0
0.0137606 0.00179639 0
0.0138803 0.00152209 0
0.0140638 0.00140308 0
0.0136967 0.00160553 0
0.0142663 0.000986355 0
0.0138803 0.0015043 0
0.0139815 0.00129594 0
0.0141651 0.00119472 0
0.0140642 0.00140241 0
0.0143497 0.00112064 0
0.0137824 0.001951 0
0.014207 0.00126152 0
0.0140661 0.00153582 0
0.0139233 0.0016767 0
0.0140642 0.00140308 0
0.0143036 0.000986355 0
0.0143497 0.00116362 0
0.0141839 0.00119472 0
0.0143267 0.00107499 0
0.014207 0.00128335 0
0.0137963 0.00110272 0
0.0137287 0.00159546 0
0.013221 0.0011703 0
0.0137625 0.00134909 0
0.0134749 0.00138288 0
0.0135087 0.00113651 0
0.0137967 0.00110272 0
0.0142726 0.000992652 0
0.0136866 0.00159546 0
0.0140347 0.00104769 0
0.0139796 0.00129405 0
0.0137417 0.00134909 0
0.0137963 0.00110358 0
0.013221 0.00116443 0
0.0138572 0.000744759 0
0.0135087 0.00113401 0
0.0135391 0.000954597 0
0.0138267 0.000924168 0
0.0137967 0.00110358 0
0.0138933 0.000744759 0
0.0142726 0.00100705 0
0.013845 0.000924168 0
0.0140829 0.000875903 0
0.0140347 0.00105531 0
0.0127266 0.00270518 0
0.0127124 0.00180357 0
0.011825 0.00344369 0
0.0127195 0.00225437 0
0.0122687 0.00262363 0
0.0122758 0.00307443 0
0.0127266 0.00270518 0
0.0118612 0.00344369 0
0.0127188 0.00357062 0
0.0122939 0.00307443 0
0.01229 0.00350716 0
0.0127227 0.0031379 0
0.0127266 0.00270513 0
0.0135073 0.00207956 0
0.0127124 0.00192442 0
0.0131169 0.00239235 0
0.0131099 0.00200199 0
0.0127195 0.00231477 0
0.0127266 0.00270513 0
0.0127188 0.00344928 0
0.0134708 0.00207956 0
0.0127227 0.00307721 0
0.0130948 0.00276442 0
0.0130987 0.00239235 0
0.0105749 0.00424832 0
0.0107469 0.00550662 0
0.0118332 0.00344436 0
0.0106609 0.00487747 0
0.01129 0.00447549 0
0.011204 0.00384634 0
0.0105745 0.00424832 0
0.0118604 0.00344436 0
0.0104205 0.00296237 0
0.0112174 0.00384634 0
0.0111405 0.00320337 0
0.0104975 0.00360535 0
0.0105749 0.0042491 0
0.00914686 0.00512132 0
0.0107469 0.0056771 0
0.00986086 0.00468521 0
0.00994687 0.00539921 0
0.0106609 0.0049631 0
0.0105745 0.0042491 0
0.0104205 0.00279969 0
0.00912506 0.00512132 0
0.0104975 0.00352439 0
0.00977279 0.0039605 0
0.00984977 0.00468521 0
0.011708 0.00233414 0
0.0117711 0.00338979 0
0.0127637 0.00185482 0
0.0117395 0.00286197 0
0.0122674 0.00262231 0
0.0122358 0.00209448 0
0.011708 0.00233442 0
0.0105087 0.00287418 0
0.0117711 0.00353371 0
0.0111084 0.0026043 0
0.0111399 0.00320394 0
0.0117395 0.00293407 0
0.0117079 0.00233414 0
0.012785 0.00185482 0
0.0116476 0.00125695 0
0.0122464 0.00209448 0
0.0122163 0.00155588 0
0.0116777 0.00179554 0
0.0117079 0.00233442 0
0.0116476 0.00111591 0
0.0104893 0.00287418 0
0.0116777 0.00172517 0
0.0110685 0.00199504 0
0.0110986 0.0026043 0
0.013965 0.00154873 0
0.0135015 0.00207813 0
0.0137748 0.0020122 0
0.0137333 0.00181343 0
0.0136382 0.00204517 0
0.0138699 0.00178047 0
0.0139652 0.00154873 0
0.0140971 0.0010496 0
0.0134661 0.00207813 0
0.0140312 0.00129916 0
0.0137816 0.00156386 0
0.0137156 0.00181343 0
0.013965 0.00154911 0
0.0137748 0.00194339 0
0.0143593 0.0011302 0
0.0138699 0.00174625 0
0.014067 0.0015368 0
0.0141621 0.00133965 0
0.0139652 0.00154911 0
0.0143921 0.0011302 0
0.0140971 0.00112221 0
0.0141786 0.00133965 0
0.0142446 0.0011262 0
0.0140312 0.00133566 0
0.0135031 0.00142825 0
0.0127827 0.00185414 0
0.0134382 0.00214865 0
0.0131429 0.0016412 0
0.0131104 0.00200139 0
0.0134706 0.00178845 0
0.0135031 0.00142836 0
0.0134382 0.00205028 0
0.014125 0.00107748 0
0.0134706 0.00173932 0
0.0137816 0.00156388 0
0.013814 0.00125292 0
0.0135031 0.00142825 0
0.0135339 0.000683691 0
0.0127586 0.00185414 0
0.0135185 0.00105597 0
0.0131462 0.00126892 0
0.0131308 0.0016412 0
0.0135031 0.00142836 0
0.0141484 0.00107748 0
0.0135339 0.000783092 0
0.0138258 0.00125292 0
0.0138411 0.000930284 0
0.0135185 0.00110572 0
0.00327698 0.0127601 0
0.00586061 0.0114364 0
0.00289747 0.0101764 0
0.00456879 0.0120982 0
0.00437904 0.0108064 0
0.00308723 0.0114683 0
0.00326887 0.0127601 0
0.00374627 0.0153946 0
0.00590342 0.0114364 0
0.00350757 0.0140773 0
0.00482484 0.0134155 0
0.00458614 0.0120982 0
0.00540784 0.00909585 0
0.00298425 0.0100897 0
0.00577759 0.0115194 0
0.00419605 0.00959275 0
0.00438092 0.0108045 0
0.00559272 0.0103076 0
0.00540784 0.00909255 0
0.00577759 0.0113137 0
0.00762894 0.00796321 0
0.00559272 0.0102031 0
0.00670327 0.00963843 0
0.00651839 0.00852788 0
0.00540619 0.00909585 0
0.00508442 0.00671758 0
0.00302792 0.0100897 0
0.00524531 0.00790672 0
0.00405617 0.00840362 0
0.00421706 0.00959275 0
0.00540619 0.00909255 0
0.00760835 0.00796321 0
0.00508442 0.00689039 0
0.00650727 0.00852788 0
0.00634639 0.0074268 0
0.00524531 0.00799147 0
0.00724375 0.0059775 0
0.00913544 0.00512064 0
0.00701659 0.0040858 0
0.00818959 0.00554907 0
0.00807601 0.00460322 0
0.00713017 0.00503165 0
0.00724445 0.0059775 0
0.00751707 0.00786735 0
0.0091343 0.00512064 0
0.00738076 0.00692242 0
0.00832569 0.006494 0
0.00818937 0.00554907 0
0.00724375 0.00597891 0
0.00701659 0.00391273 0
0.00517757 0.00680595 0
0.00713017 0.00494582 0
0.00609708 0.00535934 0
0.00621066 0.00639243 0
0.00724445 0.00597891 0
0.00516887 0.00680595 0
0.00751707 0.00805449 0
0.00620666 0.00639243 0
0.00634297 0.00743022 0
0.00738076 0.0070167 0
0.0088839 0.00343071 0
0.00710329 0.00399909 0
0.00904478 0.00521131 0
0.0079936 0.0037149 0
0.00807404 0.0046052 0
0.00896434 0.00432101 0
0.0088839 0.00342997 0
0.00904478 0.00504103 0
0.010495 0.00287412 0
0.00896434 0.0042355 0
0.00976987 0.00395758 0
0.00968943 0.00315205 0
0.00888353 0.00343071 0
0.00875582 0.00164617 0
0.007099 0.00399909 0
0.00881968 0.00253844 0
0.00792741 0.00282263 0
0.00799126 0.0037149 0
0.00888353 0.00342997 0
0.0105044 0.00287412 0
0.00875582 0.00180913 0
0.00969395 0.00315205 0
0.0096301 0.00234163 0
0.00881968 0.00261955 0
0.00267603 0.00750354 0
0.00293746 0.0099992 0
0.0051717 0.00680485 0
0.00280675 0.00875137 0
0.00405458 0.00840203 0
0.00392386 0.0071542 0
0.00268055 0.00750354 0
0.00514745 0.00680485 0
0.00249075 0.00503664 0
0.003914 0.0071542 0
0.0038191 0.00592075 0
0.00258565 0.00627009 0
0.00490673 0.00451724 0
0.00508424 0.00671262 0
0.00710211 0.00399826 0
0.00499549 0.00561493 0
0.00609318 0.00535544 0
0.00600442 0.00425775 0
0.00490673 0.00451872 0
0.00255739 0.00497001 0
0.00508424 0.00686806 0
0.00373206 0.00474436 0
0.00382081 0.00591903 0
0.00499549 0.00569339 0
0.00490599 0.00451724 0
0.00709104 0.00399826 0
0.00476679 0.0023322 0
0.00599852 0.00425775 0
0.00592891 0.00316523 0
0.00483639 0.00342472 0
0.00490599 0.00451872 0
0.00476679 0.00219152 0
0.0025788 0.00497001 0
0.00483639 0.00335512 0
0.00367279 0.00358076 0
0.0037424 0.00474436 0
1.53658e-07 0 0
-4.41722e-05 0 0
0.00136659 4.43258e-05 0
-2.20093e-05 0 0
0.00066121 2.21629e-05 0
0.000683373 2.21629e-05 0
1.53658e-07 0 0
0.00136659 -7.25734e-05 0
-7.24198e-05 0 0
0.000683373 -3.62867e-05 0
0.000647086 -3.62867e-05 0
-3.61331e-05 0 0
0.00140394 1.68786e-05 0
0.00140026 1.06524e-05 0
-6.47284e-05 2.05562e-05 0
0.0014021 1.37655e-05 0
0.000667768 1.56043e-05 0
0.000669607 1.87174e-05 0
0.00140189 1.68786e-05 0
0.00310212 5.54597e-05 0
0.00144047 1.06524e-05 0
0.002252 3.61692e-05 0
0.00227129 3.30561e-05 0
0.00142118 1.37655e-05 0
0.00140394 1.27684e-05 0
-6.47284e-05 -2.44186e-05 0
0.00136676 -2.80528e-05 0
0.000669607 -5.8251e-06 0
0.000651014 -2.62357e-05 0
0.00138535 -7.64224e-06 0
0.00140189 1.27684e-05 0
0.00135532 -2.80528e-05 0
0.00310212 5.93315e-05 0
0.00137861 -7.64224e-06 0
0.00222872 1.56393e-05 0
0.002252 3.60499e-05 0
0.00301245 3.03163e-05 0
0.00137026 -2.95984e-05 0
0.00295253 -3.82699e-05 0
0.00219135 3.58922e-07 0
0.0021614 -3.39342e-05 0
0.00298249 -3.9768e-06 0
0.00301245 3.25152e-05 0
0.00308795 7.34973e-05 0
0.00137026 -4.29893e-05 0
0.0030502 5.30063e-05 0
0.00222911 1.5254e-05 0
0.00219135 -5.23706e-06 0
0.00301135 3.03163e-05 0
0.00293716 -3.82699e-05 0
0.00473943 0.000104509 0
0.00297425 -3.9768e-06 0
0.00383829 3.31193e-05 0
0.00387539 6.74124e-05 0
0.00301135 3.25152e-05 0
0.00473943 0.000139889 0
0.00311872 7.34973e-05 0
0.00387539 8.62021e-05 0
0.00392908 0.000106693 0
0.00306504 5.30063e-05 0
-1.69439e-07 0 0
0.00135467 -4.01404e-05 0
-4.03098e-05 0 0
0.000677249 -2.00702e-05 0
0.000657179 -2.00702e-05 0
-2.02396e-05 0 0
-1.69439e-07 0 0
-9.03148e-06 0 0
0.00135467 8.86203e-06 0
-4.60046e-06 0 0
0.000672818 4.43102e-06 0
0.000677249 4.43102e-06 0
0.0014104 -1.53068e-05 0
0.00295037 -4.04295e-05 0
0.00138528 -1.45828e-05 0
0.00218039 -2.78682e-05 0
0.00216783 -2.75062e-05 0
0.00139784 -1.49448e-05 0
0.00141098 -1.53068e-05 0
0.00137811 -1.45828e-05 0
-2.65932e-05 1.75617e-05 0
0.00139455 -1.49448e-05 0
0.00067576 1.48941e-06 0
0.000692194 1.12746e-06 0
0.0014104 -1.64714e-05 0
0.00142378 -2.12176e-05 0
0.00295037 -2.98573e-05 0
0.00141709 -1.88445e-05 0
0.00218708 -2.55375e-05 0
0.00218039 -2.31644e-05 0
0.00141098 -1.64714e-05 0
-2.65932e-05 -4.65677e-06 0
0.0014228 -2.12176e-05 0
0.000692194 -1.05641e-05 0
0.000698101 -1.29372e-05 0
0.00141689 -1.88445e-05 0
0.00460262 4.80756e-05 0
0.00471369 0.00013025 0
0.00296188 -6.29956e-05 0
0.00465815 8.91627e-05 0
0.00383779 3.36271e-05 0
0.00378225 -7.45998e-06 0
0.00460201 4.80756e-05 0
0.00624482 0.000177146 0
0.00473108 0.00013025 0
0.00542341 0.000112611 0
0.00548795 0.000153698 0
0.00466654 8.91627e-05 0
0.00460262 4.68551e-05 0
0.00296188 -3.06174e-05 0
0.00452515 -3.62251e-05 0
0.00378225 8.11882e-06 0
0.00374351 -3.34213e-05 0
0.00456388 5.31495e-06 0
0.00460201 4.68551e-05 0
0.0045163 -3.62251e-05 0
0.00624482 0.000132562 0
0.00455915 5.31495e-06 0
0.00538056 4.81685e-05 0
0.00542341 8.97086e-05 0
0.00610379 5.70471e-05 0
0.00602126 -2.32394e-05 0
0.00762872 0.000139577 0
0.00606252 1.69039e-05 0
0.00682499 5.81689e-05 0
0.00686625 9.83121e-05 0
0.00610379 5.75624e-05 0
0.00762872 0.000180902 0
0.00622713 0.000156488 0
0.00686625 0.000119232 0
0.00692792 0.000168695 0
0.00616546 0.000107025 0
0.00610405 5.70471e-05 0
0.00453936 -2.31134e-05 0
0.00602389 -2.32394e-05 0
0.0053217 1.69669e-05 0
0.00528162 -2.31764e-05 0
0.00606397 1.69039e-05 0
0.00610405 5.75624e-05 0
0.00622089 0.000156488 0
0.00453936 -5.92852e-05 0
0.00616247 0.000107025 0
0.00538013 4.86014e-05 0
0.0053217 -8.61377e-07 0
0.00750325 6.53933e-05 0
0.0076101 0.0001582 0
0.00603948 -4.14575e-05 0
0.00755667 0.000111796 0
0.00682479 5.83711e-05 0
0.00677136 1.19679e-05 0
0.00750317 6.53933e-05 0
0.00890675 0.000171508 0
0.00760928 0.0001582 0
0.00820496 0.000118451 0
0.00825801 0.000164854 0
0.00755622 0.000111796 0
0.00750325 6.5228e-05 0
0.00603948 -8.59321e-06 0
0.00742943 1.66986e-06 0
0.00677136 2.83174e-05 0
0.00673445 -3.46167e-06 0
0.00746634 3.34489e-05 0
0.00750317 6.5228e-05 0
0.0074314 1.66986e-06 0
0.00890675 0.00013699 0
0.00746728 3.34489e-05 0
0.00816907 6.93299e-05 0
0.00820496 0.000101109 0
0.00902489 0.000325526 0
0.00921905 0.000582192 0
0.00763546 0.000131363 0
0.00912197 0.000453859 0
0.00842726 0.000356777 0
0.00833017 0.000228444 0
0.00902489 0.000325958 0
0.00763546 0.000184379 0
0.00888331 0.000148071 0
0.00833017 0.000255168 0
0.00825938 0.000166225 0
0.0089541 0.000237015 0
0.0090251 0.000325526 0
0.0103189 0.000502998 0
0.00920258 0.000582192 0
0.00967198 0.000414262 0
0.00976072 0.000542595 0
0.00911384 0.000453859 0
0.0090251 0.000325958 0
0.00889676 0.000148071 0
0.0103189 0.000454303 0
0.00896093 0.000237015 0
0.00960781 0.000301187 0
0.00967198 0.00039013 0
0.00450591 -3.99046e-05 0
0.00603343 -1.36948e-05 0
0.00453212 -3.0353e-05 0
0.00526967 -2.67997e-05 0
0.00528278 -2.20239e-05 0
0.00451902 -3.51288e-05 0
0.00450623 -3.99046e-05 0
0.00452287 -3.0353e-05 0
0.00297229 -5.65454e-05 0
0.00451455 -3.51288e-05 0
0.00374758 -4.34492e-05 0
0.00373926 -4.8225e-05 0
0.00450591 -4.05409e-05 0
0.00449422 -5.41221e-05 0
0.00603343 -2.88528e-05 0
0.00450007 -4.73315e-05 0
0.00526383 -4.14874e-05 0
0.00526967 -3.46969e-05 0
0.00450623 -4.05409e-05 0
0.00297229 -4.77509e-05 0
0.00449902 -5.41221e-05 0
0.00373926 -4.41459e-05 0
0.00373566 -5.09365e-05 0
0.00450262 -4.73315e-05 0
0.0029597 -3.32477e-05 0
0.00453077 -3.06038e-05 0
0.00296234 -3.01609e-05 0
0.00374523 -3.19258e-05 0
0.00374655 -3.03824e-05 0
0.00296102 -3.17043e-05 0
0.0029597 -3.41177e-05 0
0.00296383 -4.80786e-05 0
0.00453077 -3.82497e-05 0
0.00296176 -4.10981e-05 0
0.0037473 -4.31641e-05 0
0.00374523 -3.61837e-05 0
0.00296013 -3.32477e-05 0
0.00295068 -3.01609e-05 0
0.00142636 -2.37952e-05 0
0.0029554 -3.17043e-05 0
0.00218852 -2.6978e-05 0
0.00219325 -2.85215e-05 0
0.00296013 -3.41177e-05 0
0.00142636 -2.48492e-05 0
0.0029694 -4.80786e-05 0
0.00219325 -2.94835e-05 0
0.00219788 -3.64639e-05 0
0.00296476 -4.10981e-05 0
0.0114198 0.000616072 0
0.0103219 0.000500305 0
0.011304 0.000363349 0
0.0108708 0.000558189 0
0.010813 0.000431827 0
0.0113619 0.000489711 0
0.0114198 0.000615185 0
0.0115757 0.000984826 0
0.0103219 0.000459256 0
0.0114977 0.000800006 0
0.0109488 0.000722041 0
0.0108708 0.000537221 0
0.0114202 0.000616072 0
0.0113307 0.000363349 0
0.0124048 0.000705562 0
0.0113755 0.000489711 0
0.0118677 0.000534455 0
0.0119125 0.000660817 0
0.0114202 0.000615185 0
0.0124048 0.00073774 0
0.0115428 0.000984826 0
0.0119125 0.000676463 0
0.0119738 0.000861283 0
0.0114815 0.000800006 0
0.0101688 0.000270822 0
0.0113317 0.000391076 0
0.0102891 0.000467455 0
0.0107503 0.000330949 0
0.0108104 0.000429266 0
0.010229 0.000369138 0
0.0101686 0.000270822 0
0.0103057 0.000467455 0
0.00891109 0.00013374 0
0.0102372 0.000369138 0
0.0096084 0.000300598 0
0.00953986 0.000202281 0
0.0101688 0.000271222 0
0.0100843 0.000144403 0
0.0113317 0.000355762 0
0.0101266 0.000207813 0
0.010708 0.000250082 0
0.0107503 0.000313492 0
0.0101686 0.000271222 0
0.00891109 0.000173063 0
0.0100705 0.000144403 0
0.00953986 0.000222143 0
0.00949078 0.000158733 0
0.0101195 0.000207813 0
0.012315 0.0004495 0
0.0124042 0.000706153 0
0.0113338 0.000360275 0
0.0123596 0.000577827 0
0.011869 0.000533214 0
0.0118244 0.000404888 0
0.0123153 0.0004495 0
0.0131909 0.00051269 0
0.0123785 0.000706153 0
0.0127531 0.000481095 0
0.0127847 0.000609422 0
0.0123469 0.000577827 0
0.012315 0.00045013 0
0.0113338 0.000389154 0
0.012254 0.000282811 0
0.0118244 0.000419642 0
0.0117939 0.000335983 0
0.0122845 0.000366471 0
0.0123153 0.00045013 0
0.0122753 0.000282811 0
0.0131909 0.000490112 0
0.0122953 0.000366471 0
0.0127331 0.000386461 0
0.0127531 0.000470121 0
0.0131937 0.000757229 0
0.0132347 0.00114233 0
0.0124054 0.000716176 0
0.0132142 0.000949781 0
0.0128201 0.000929254 0
0.0127996 0.000736702 0
0.0131937 0.000758066 0
0.0124054 0.0007331 0
0.0131687 0.000490497 0
0.0127996 0.000745583 0
0.0127871 0.000611798 0
0.0131812 0.000624281 0
0.0131941 0.000757229 0
0.0138744 0.000762035 0
0.0131989 0.00114233 0
0.0135343 0.000759632 0
0.0135367 0.000952183 0
0.0131965 0.000949781 0
0.0131941 0.000758066 0
0.0131987 0.000490497 0
0.0138744 0.000753477 0
0.0131964 0.000624281 0
0.0135366 0.000621987 0
0.0135343 0.000755771 0
0.00880283 7.87152e-05 0
0.00744478 1.63072e-05 0
0.00874043 4.01578e-05 0
0.0081238 4.75112e-05 0
0.0080926 2.82325e-05 0
0.00877163 5.94365e-05 0
0.00880283 7.8732e-05 0
0.00889327 0.000150467 0
0.00744478 -1.17025e-05 0
0.00884805 0.000114599 0
0.00816902 6.93822e-05 0
0.0081238 3.35148e-05 0
0.00880283 7.87152e-05 0
0.00874532 4.01578e-05 0
0.0100905 0.000136224 0
0.00877407 5.94365e-05 0
0.00941789 8.81907e-05 0
0.00944665 0.000107469 0
0.00880283 7.8732e-05 0
0.0100905 0.000164401 0
0.00888849 0.000150467 0
0.00944665 0.000121567 0
0.00948948 0.000157434 0
0.00884566 0.000114599 0
0.00598811 -2.80801e-05 0
0.00744042 1.26648e-05 0
0.00602885 -1.92176e-05 0
0.00671426 -7.70765e-06 0
0.00673464 -3.27644e-06 0
0.00600848 -2.36488e-05 0
0.00598811 -2.84676e-05 0
0.00596392 -3.28004e-05 0
0.00744042 -4.28429e-06 0
0.00597601 -3.0634e-05 0
0.00670217 -1.85424e-05 0
0.00671426 -1.63759e-05 0
0.0059883 -2.80801e-05 0
0.00602379 -1.92176e-05 0
0.00450367 -6.35741e-05 0
0.00600605 -2.36488e-05 0
0.00526373 -4.13959e-05 0
0.00524599 -4.58271e-05 0
0.0059883 -2.84676e-05 0
0.00450367 -5.05004e-05 0
0.00596627 -3.28004e-05 0
0.00524599 -3.9484e-05 0
0.00523497 -4.16504e-05 0
0.00597728 -3.0634e-05 0
0.00738592 4.50877e-06 0
0.00875179 5.15223e-05 0
0.00743294 4.46856e-06 0
0.00806886 2.80155e-05 0
0.00809236 2.79954e-05 0
0.00740943 4.48867e-06 0
0.00738604 4.50877e-06 0
0.00743167 4.46856e-06 0
0.00597224 -4.11161e-05 0
0.00740886 4.48867e-06 0
0.00670195 -1.83238e-05 0
0.00667914 -1.83037e-05 0
0.00738592 4.26757e-06 0
0.00735534 1.55867e-05 0
0.00875179 3.4855e-05 0
0.00737063 9.92716e-06 0
0.00805356 2.52209e-05 0
0.00806886 1.95613e-05 0
0.00738604 4.26757e-06 0
0.00597224 -2.68609e-05 0
0.00735492 1.55867e-05 0
0.00667914 -1.12966e-05 0
0.00666358 -5.63706e-06 0
0.00737048 9.92716e-06 0
0.0112314 0.000227389 0
0.0113236 0.000363893 0
0.0100935 0.000135171 0
0.0112775 0.000295641 0
0.0107086 0.000249532 0
0.0106624 0.00018128 0
0.0112314 0.000227712 0
0.0100935 0.000165421 0
0.0111691 0.000149631 0
0.0106624 0.000196566 0
0.0106313 0.000157526 0
0.0112002 0.000188671 0
0.0112315 0.000227389 0
0.0122756 0.000304384 0
0.0113085 0.000363893 0
0.0117535 0.000265887 0
0.011792 0.000334138 0
0.01127 0.000295641 0
0.0112315 0.000227712 0
0.0111819 0.000149631 0
0.0122756 0.000277363 0
0.0112067 0.000188671 0
0.0117287 0.000213497 0
0.0117535 0.000252538 0
0.0100091 0.000101933 0
0.0100807 0.000145995 0
0.00875513 3.03426e-05 0
0.0100449 0.000123964 0
0.00941791 8.81689e-05 0
0.00938212 6.6138e-05 0
0.0100091 0.000101933 0
0.0111864 0.000166908 0
0.0100741 0.000145995 0
0.0105977 0.000134421 0
0.0106302 0.000156452 0
0.0100416 0.000123964 0
0.0100091 0.000101964 0
0.00875513 5.45298e-05 0
0.00996167 9.03298e-05 0
0.00938212 7.82471e-05 0
0.0093584 7.24298e-05 0
0.00998539 9.61471e-05 0
0.0100091 0.000101964 0
0.00996806 9.03298e-05 0
0.0111864 0.000143031 0
0.00998859 9.61471e-05 0
0.0105772 0.00011668 0
0.0105977 0.000122498 0
8.90269e-08 0 0
3.42146e-06 0 0
0.00142199 -3.33244e-06 0
1.75525e-06 0 0
0.000712705 -1.66622e-06 0
0.000711039 -1.66622e-06 0
8.90269e-08 0 0
0.00142199 -2.20254e-05 0
-2.19364e-05 0 0
0.000711039 -1.10127e-05 0
0.000700026 -1.10127e-05 0
-1.09237e-05 0 0
0.00146519 -1.82297e-05 0
0.00143591 -1.72531e-05 0
-7.6264e-06 1.10479e-05 0
0.00145055 -1.77414e-05 0
0.000714141 -3.10262e-06 0
0.00072878 -3.59094e-06 0
0.00146509 -1.82297e-05 0
0.00296812 -4.93608e-05 0
0.00143396 -1.72531e-05 0
0.0022166 -3.37953e-05 0
0.00220104 -3.33069e-05 0
0.00144952 -1.77414e-05 0
0.00146519 -1.84233e-05 0
-7.6264e-06 2.12862e-06 0
0.00148574 -1.30656e-05 0
0.00072878 -8.14735e-06 0
0.000739056 -5.4685e-06 0
0.00147546 -1.57445e-05 0
0.00146509 -1.84233e-05 0
0.00148904 -1.30656e-05 0
0.00296812 -4.23772e-05 0
0.00147707 -1.57445e-05 0
0.00222858 -2.77214e-05 0
0.0022166 -3.04003e-05 0
0.002993 -3.55262e-05 0
0.00301052 -2.91556e-05 0
0.00449982 -5.30503e-05 0
0.00300176 -3.23409e-05 0
0.00375517 -4.1103e-05 0
0.00374641 -4.42883e-05 0
0.002993 -3.52257e-05 0
0.00449982 -5.3317e-05 0
0.00297491 -4.51393e-05 0
0.00374641 -4.42714e-05 0
0.00373736 -4.92282e-05 0
0.00298395 -4.01825e-05 0
0.00299315 -3.55262e-05 0
0.00148893 -1.62289e-05 0
0.00301244 -2.91556e-05 0
0.00224104 -2.58776e-05 0
0.00225069 -2.26922e-05 0
0.0030028 -3.23409e-05 0
0.00299315 -3.52257e-05 0
0.00297088 -4.51393e-05 0
0.00148893 -1.29572e-05 0
0.00298201 -4.01825e-05 0
0.00222991 -2.90482e-05 0
0.00224104 -2.40915e-05 0
0.00449987 -3.31386e-05 0
0.00449823 -5.14611e-05 0
0.00301287 -3.15e-05 0
0.00449905 -4.22998e-05 0
0.00375555 -4.14806e-05 0
0.00375637 -3.23193e-05 0
0.00449972 -3.31386e-05 0
0.00596892 -3.01468e-05 0
0.00450271 -5.14611e-05 0
0.00523432 -3.16427e-05 0
0.00523582 -4.08039e-05 0
0.00450122 -4.22998e-05 0
0.00449987 -3.34409e-05 0
0.00301287 -3.10238e-05 0
0.00450229 -1.76384e-05 0
0.00375637 -3.22323e-05 0
0.00375758 -2.43311e-05 0
0.00450108 -2.55396e-05 0
0.00449972 -3.34409e-05 0
0.00449993 -1.76384e-05 0
0.00596892 -3.36457e-05 0
0.00449982 -2.55396e-05 0
0.00523442 -2.5642e-05 0
0.00523432 -3.35432e-05 0
3.16701e-07 0 0
0.00148873 -1.00717e-05 0
-9.75501e-06 0 0
0.000744524 -5.03586e-06 0
0.000739489 -5.03586e-06 0
-4.71916e-06 0 0
3.16701e-07 0 0
6.72289e-06 0 0
0.00148873 -6.40619e-06 0
3.51979e-06 0 0
0.000747727 -3.20309e-06 0
0.000744524 -3.20309e-06 0
0.00151109 -1.11328e-05 0
0.00301173 -2.98731e-05 0
0.00149235 -1.28174e-05 0
0.00226141 -2.0503e-05 0
0.00225204 -2.13452e-05 0
0.00150172 -1.19751e-05 0
0.001511 -1.11328e-05 0
0.00149514 -1.28174e-05 0
2.0014e-06 4.72149e-06 0
0.00150307 -1.19751e-05 0
0.000748572 -4.04794e-06 0
0.000756499 -3.20567e-06 0
0.00151109 -1.09543e-05 0
0.00152654 -4.38995e-06 0
0.00301173 -2.64098e-05 0
0.00151881 -7.67213e-06 0
0.00226913 -1.53999e-05 0
0.00226141 -1.86821e-05 0
0.001511 -1.09543e-05 0
2.0014e-06 3.0433e-06 0
0.001525 -4.38995e-06 0
0.000756499 -3.95551e-06 0
0.000763498 -6.73324e-07 0
0.001518 -7.67213e-06 0
0.00241061 0.00247659 0
0.00482565 0.00225826 0
0.00237041 6.15528e-05 0
0.00361813 0.00236743 0
0.00359803 0.00115991 0
0.00239051 0.00126907 0
0.00240916 0.00247659 0
0.00250976 0.00490096 0
0.00483353 0.00225826 0
0.00245946 0.00368878 0
0.00367164 0.00357961 0
0.00362134 0.00236743 0
0.00474912 0 0
0.00243197 0 0
0.00476676 0.00231715 0
0.00359054 0 0
0.00359936 0.00115858 0
0.00475794 0.00115858 0
0.00474912 0 0
0.00476676 0.00218158 0
0.0069307 0 0
0.00475794 0.00109079 0
0.00584873 0.00109079 0
0.00583991 0 0
0.00474912 0 0
0.00476676 -0.00231715 0
0.00243197 0 0
0.00475794 -0.00115858 0
0.00359936 -0.00115858 0
0.00359054 0 0
0.00474912 0 0
0.0069307 0 0
0.00476676 -0.00218158 0
0.00583991 0 0
0.00584873 -0.00109079 0
0.00475794 -0.00109079 0
0.00691607 0.00199785 0
0.00484039 0.00225859 0
0.00701576 0.00407353 0
0.00587823 0.00212822 0
0.00592808 0.00316606 0
0.00696592 0.00303569 0
0.00691586 0.00199785 0
0.00685646 -7.42413e-05 0
0.00484377 0.00225859 0
0.00688616 0.000961804 0
0.00585011 0.00109218 0
0.00587981 0.00212822 0
0.00691607 0.00199742 0
0.00701576 0.00391586 0
0.00883452 0.00172487 0
0.00696592 0.00295664 0
0.00792514 0.00282036 0
0.0078753 0.00186114 0
0.00691586 0.00199742 0
0.00883417 0.00172487 0
0.00685646 7.91048e-05 0
0.00787501 0.00186114 0
0.00784532 0.000901988 0
0.00688616 0.00103826 0
0.00873923 0 0
0.00875538 0.00164677 0
0.010386 0 0
0.0087473 0.000823387 0
0.00957069 0.000823387 0
0.00956261 0 0
0.00873923 0 0
0.00693557 0 0
0.00875538 0.00180366 0
0.0078374 0 0
0.00784547 0.000901829 0
0.0087473 0.000901829 0
0.00873923 0 0
0.010386 0 0
0.00875538 -0.00164677 0
0.00956261 0 0
0.00957069 -0.000823387 0
0.0087473 -0.000823387 0
0.00873923 0 0
0.00875538 -0.00180366 0
0.00693557 0 0
0.0087473 -0.00090183 0
0.00784547 -0.00090183 0
0.0078374 0 0
0.0103543 0.00144453 0
0.01031 -7.60027e-05 0
0.00883371 0.00172511 0
0.0103321 0.000684266 0
0.00957186 0.000824553 0
0.00959398 0.00158482 0
0.0103544 0.00144453 0
0.00883984 0.00172511 0
0.0104194 0.00295907 0
0.00959711 0.00158482 0
0.00962963 0.00234209 0
0.0103869 0.0022018 0
0.0103543 0.00144427 0
0.0117223 0.00118264 0
0.01031 7.62028e-05 0
0.0110383 0.00131346 0
0.0110162 0.000629421 0
0.0103321 0.000760238 0
0.0103544 0.00144427 0
0.0104194 0.00280426 0
0.0117144 0.00118264 0
0.0103869 0.00212427 0
0.0110669 0.00199345 0
0.0110344 0.00131346 0
0.00691607 -0.00199785 0
0.00701576 -0.00407353 0
0.00484039 -0.00225859 0
0.00696592 -0.00303569 0
0.00592808 -0.00316606 0
0.00587823 -0.00212822 0
0.00691586 -0.00199785 0
0.00484377 -0.00225859 0
0.00685646 7.42413e-05 0
0.00587981 -0.00212822 0
0.00585011 -0.00109218 0
0.00688616 -0.000961804 0
0.00691607 -0.00199742 0
0.00883452 -0.00172487 0
0.00701576 -0.00391586 0
0.0078753 -0.00186114 0
0.00792514 -0.00282036 0
0.00696592 -0.00295664 0
0.00691586 -0.00199742 0
0.00685646 -7.91049e-05 0
0.00883417 -0.00172487 0
0.00688616 -0.00103826 0
0.00784532 -0.000901988 0
0.00787501 -0.00186114 0
0.00241061 -0.00247659 0
0.00237041 -6.15528e-05 0
0.00482565 -0.00225826 0
0.00239051 -0.00126907 0
0.00359803 -0.00115991 0
0.00361813 -0.00236743 0
0.00240916 -0.00247659 0
0.00483353 -0.00225826 0
0.00250976 -0.00490096 0
0.00362134 -0.00236743 0
0.00367164 -0.00357961 0
0.00245946 -0.00368878 0
0.00490599 -0.00451724 0
0.00476679 -0.0023322 0
0.00709104 -0.00399826 0
0.00483639 -0.00342472 0
0.00592891 -0.00316523 0
0.00599852 -0.00425775 0
0.00490599 -0.00451872 0
0.0025788 -0.00497001 0
0.00476679 -0.00219152 0
0.0037424 -0.00474436 0
0.00367279 -0.00358076 0
0.00483639 -0.00335512 0
0.00490673 -0.00451724 0
0.00710211 -0.00399826 0
0.00508424 -0.00671262 0
0.00600442 -0.00425775 0
0.00609318 -0.00535544 0
0.00499549 -0.00561493 0
0.00490673 -0.00451872 0
0.00508424 -0.00686806 0
0.00255739 -0.00497001 0
0.00499549 -0.00569339 0
0.00382081 -0.00591903 0
0.00373206 -0.00474436 0
0.0103543 -0.00144453 0
0.00883371 -0.00172511 0
0.01031 7.60027e-05 0
0.00959398 -0.00158482 0
0.00957186 -0.000824553 0
0.0103321 -0.000684266 0
0.0103544 -0.00144453 0
0.0104194 -0.00295907 0
0.00883984 -0.00172511 0
0.0103869 -0.0022018 0
0.00962963 -0.00234209 0
0.00959711 -0.00158482 0
0.0103543 -0.00144427 0
0.01031 -7.62029e-05 0
0.0117223 -0.00118264 0
0.0103321 -0.000760238 0
0.0110162 -0.000629421 0
0.0110383 -0.00131346 0
0.0103544 -0.00144427 0
0.0117144 -0.00118264 0
0.0104194 -0.00280426 0
0.0110344 -0.00131346 0
0.0110669 -0.00199345 0
0.0103869 -0.00212427 0
0.00888353 -0.00343071 0
0.007099 -0.00399909 0
0.00875582 -0.00164617 0
0.00799126 -0.0037149 0
0.00792741 -0.00282263 0
0.00881968 -0.00253844 0
0.00888353 -0.00342997 0
0.00875582 -0.00180913 0
0.0105044 -0.00287412 0
0.00881968 -0.00261955 0
0.0096301 -0.00234163 0
0.00969395 -0.00315205 0
0.0088839 -0.00343071 0
0.00904478 -0.00521131 0
0.00710329 -0.00399909 0
0.00896434 -0.00432101 0
0.00807404 -0.0046052 0
0.0079936 -0.0037149 0
0.0088839 -0.00342997 0
0.010495 -0.00287412 0
0.00904478 -0.00504103 0
0.00968943 -0.00315205 0
0.00976987 -0.00395758 0
0.00896434 -0.0042355 0
0.0116441 0 0
0.0103862 0 0
0.0116471 0.0012579 0
0.0110152 0 0
0.0110166 0.000628951 0
0.0116456 0.000628951 0
0.0116441 0 0
0.0116471 0.0011186 0
0.0127627 0 0
0.0116456 0.000559298 0
0.0122049 0.000559298 0
0.0122034 0 0
0.0116441 0 0
0.0116471 -0.0012579 0
0.0103862 0 0
0.0116456 -0.000628951 0
0.0110166 -0.000628951 0
0.0110152 0 0
0.0116441 0 0
0.0127627 0 0
0.0116471 -0.0011186 0
0.0122034 0 0
0.0122049 -0.000559298 0
0.0116456 -0.000559298 0
0.012712 0.00093881 0
0.0117221 0.00118249 0
0.0127112 0.00192869 0
0.012217 0.00106065 0
0.0122166 0.00155559 0
0.0127116 0.00143375 0
0.012712 0.00093881 0
0.0127005 -6.21921e-05 0
0.011711 0.00118249 0
0.0127062 0.000438309 0
0.0122057 0.000560148 0
0.0122115 0.00106065 0
0.012712 0.000938765 0
0.0127112 0.00180674 0
0.01358 0.00072976 0
0.0127116 0.00137275 0
0.0131456 0.00126825 0
0.013146 0.000834263 0
0.012712 0.000938765 0
0.0135914 0.00072976 0
0.0127005 5.93039e-05 0
0.0131517 0.000834263 0
0.013146 0.000394532 0
0.0127062 0.000499035 0
0.0135477 0 0
0.0135333 0.000686585 0
0.0142343 0 0
0.0135405 0.000343293 0
0.0138838 0.000343293 0
0.013891 0 0
0.0135477 0 0
0.0127598 0 0
0.0135333 0.000787856 0
0.0131537 0 0
0.0131466 0.000393928 0
0.0135405 0.000393928 0
0.0135477 0 0
0.0142343 0 0
0.0135333 -0.000686585 0
0.013891 0 0
0.0138838 -0.000343293 0
0.0135405 -0.000343293 0
0.0135477 0 0
0.0135333 -0.000787856 0
0.0127598 0 0
0.0135405 -0.000393928 0
0.0131466 -0.000393928 0
0.0131537 0 0
0.0141677 0.000549754 0
0.0141924 -4.18433e-05 0
0.0135761 0.00072935 0
0.01418 0.000253955 0
0.0138842 0.000343753 0
0.0138719 0.000639552 0
0.0141676 0.000549754 0
0.0135876 0.00072935 0
0.0140961 0.00112976 0
0.0138776 0.000639552 0
0.0138419 0.000929553 0
0.0141319 0.000839755 0
0.0141677 0.000549854 0
0.0146797 0.000406132 0
0.0141924 3.78544e-05 0
0.0144237 0.000477993 0
0.014436 0.000221993 0
0.01418 0.000293854 0
0.0141676 0.000549854 0
0.0140961 0.00105106 0
0.0146688 0.000406132 0
0.0141319 0.000800458 0
0.0143825 0.000728596 0
0.0144182 0.000477993 0
0.012712 -0.000938765 0
0.01358 -0.00072976 0
0.0127112 -0.00180674 0
0.013146 -0.000834263 0
0.0131456 -0.00126825 0
0.0127116 -0.00137275 0
0.012712 -0.000938765 0
0.0127005 -5.9304e-05 0
0.0135914 -0.00072976 0
0.0127062 -0.000499035 0
0.013146 -0.000394532 0
0.0131517 -0.000834263 0
0.012712 -0.00093881 0
0.0127112 -0.00192869 0
0.0117221 -0.00118249 0
0.0127116 -0.00143375 0
0.0122166 -0.00155559 0
0.012217 -0.00106065 0
0.012712 -0.00093881 0
0.011711 -0.00118249 0
0.0127005 6.21921e-05 0
0.0122115 -0.00106065 0
0.0122057 -0.000560148 0
0.0127062 -0.000438309 0
0.0141677 -0.000549754 0
0.0135761 -0.00072935 0
0.0141924 4.18433e-05 0
0.0138719 -0.000639552 0
0.0138842 -0.000343753 0
0.01418 -0.000253955 0
0.0141676 -0.000549754 0
0.0140961 -0.00112976 0
0.0135876 -0.00072935 0
0.0141319 -0.000839755 0
0.0138419 -0.000929553 0
0.0138776 -0.000639552 0
0.0141677 -0.000549854 0
0.0141924 -3.78544e-05 0
0.0146797 -0.000406132 0
0.01418 -0.000293854 0
0.014436 -0.000221993 0
0.0144237 -0.000477993 0
0.0141676 -0.000549854 0
0.0146688 -0.000406132 0
0.0140961 -0.00105106 0
0.0144182 -0.000477993 0
0.0143825 -0.000728596 0
0.0141319 -0.000800458 0
0.0135031 -0.00142825 0
0.0127586 -0.00185414 0
0.0135339 -0.000683691 0
0.0131308 -0.0016412 0
0.0131462 -0.00126892 0
0.0135185 -0.00105597 0
0.0135031 -0.00142836 0
0.0135339 -0.000783092 0
0.0141484 -0.00107748 0
0.0135185 -0.00110572 0
0.0138411 -0.000930284 0
0.0138258 -0.00125292 0
0.0135031 -0.00142825 0
0.0134382 -0.00214865 0
0.0127827 -0.00185414 0
0.0134706 -0.00178845 0
0.0131104 -0.00200139 0
0.0131429 -0.0016412 0
0.0135031 -0.00142836 0
0.014125 -0.00107748 0
0.0134382 -0.00205028 0
0.013814 -0.00125292 0
0.0137816 -0.00156388 0
0.0134706 -0.00173932 0
0.0117079 -0.00233414 0
0.0116476 -0.00125695 0
0.012785 -0.00185482 0
0.0116777 -0.00179554 0
0.0122163 -0.00155588 0
0.0122464 -0.00209448 0
0.0117079 -0.00233442 0
0.0104893 -0.00287418 0
0.0116476 -0.00111591 0
0.0110986 -0.0026043 0
0.0110685 -0.00199504 0
0.0116777 -0.00172517 0
0.011708 -0.00233414 0
0.0127637 -0.00185482 0
0.0117711 -0.00338979 0
0.0122358 -0.00209448 0
0.0122674 -0.00262231 0
0.0117395 -0.00286197 0
0.011708 -0.00233442 0
0.0117711 -0.00353371 0
0.0105087 -0.00287418 0
0.0117395 -0.00293407 0
0.0111399 -0.00320394 0
0.0111084 -0.0026043 0
0.0145288 0.000788125 0
0.0148798 0.000565437 0
0.0146433 0.000437195 0
0.0147043 0.000676781 0
0.0147615 0.000501316 0
0.0145861 0.00061266 0
0.0145288 0.000787844 0
0.0146433 0.000380618 0
0.0141216 0.00107655 0
0.0145861 0.000584231 0
0.0143825 0.000728582 0
0.0143252 0.000932195 0
0.0145287 0.000788125 0
0.0143486 0.00111998 0
0.0148605 0.000565437 0
0.0144386 0.00095405 0
0.0146045 0.000842706 0
0.0146946 0.000676781 0
0.0145287 0.000787844 0
0.0141428 0.00107655 0
0.0143486 0.00117374 0
0.0143357 0.000932195 0
0.0142457 0.00112514 0
0.0144386 0.000980793 0
0.0146732 0 0
0.0142303 0 0
0.0146429 0.000442893 0
0.0144517 0 0
0.0144366 0.000221447 0
0.014658 0.000221447 0
0.0146732 0 0
0.0146429 0.000383048 0
0.0150562 0 0
0.014658 0.000191524 0
0.0148496 0.000191524 0
0.0148647 0 0
0.0146732 0 0
0.0146429 -0.000442893 0
0.0142303 0 0
0.014658 -0.000221447 0
0.0144366 -0.000221447 0
0.0144517 0 0
0.0146732 0 0
0.0150562 0 0
0.0146429 -0.000383048 0
0.0148647 0 0
0.0148496 -0.000191524 0
0.014658 -0.000191524 0
0.014979 0.00029119 0
0.0146748 0.0004057 0
0.0148498 0.000595399 0
0.0148269 0.000348445 0
0.0147623 0.00050055 0
0.0149144 0.000443295 0
0.0149791 0.00029119 0
0.0150339 -2.23367e-05 0
0.0146656 0.0004057 0
0.0150065 0.000134427 0
0.0148497 0.000191682 0
0.0148223 0.000348445 0
0.014979 0.000291334 0
0.0148498 0.000555885 0
0.0152436 0.000205668 0
0.0149144 0.00042361 0
0.0150467 0.000380777 0
0.0151113 0.000248501 0
0.0149791 0.000291334 0
0.0152518 0.000205668 0
0.0150339 1.86171e-05 0
0.0151155 0.000248501 0
0.0151428 0.000112143 0
0.0150065 0.000154976 0
0.0146026 0.000800479 0
0.0148504 0.000555265 0
0.0143574 0.00112885 0
0.0147265 0.000677872 0
0.0146039 0.000842056 0
0.01448 0.000964663 0
0.0146024 0.000800479 0
0.0143845 0.00112885 0
0.0142716 0.00101837 0
0.0144935 0.000964663 0
0.0143281 0.00107361 0
0.014437 0.000909426 0
0.0146026 0.000800943 0
0.0148154 0.000557563 0
0.0148504 0.000588178 0
0.014709 0.000679253 0
0.0148329 0.000572871 0
0.0147265 0.000694561 0
0.0146024 0.000800943 0
0.0142716 0.000990102 0
0.0147916 0.000557563 0
0.014437 0.000895523 0
0.0145316 0.000773833 0
0.014697 0.000679253 0
0.0105749 -0.0042491 0
0.0107469 -0.0056771 0
0.00914686 -0.00512132 0
0.0106609 -0.0049631 0
0.00994687 -0.00539921 0
0.00986086 -0.00468521 0
0.0105745 -0.0042491 0
0.00912506 -0.00512132 0
0.0104205 -0.00279969 0
0.00984977 -0.00468521 0
0.00977279 -0.0039605 0
0.0104975 -0.00352439 0
0.0105749 -0.00424832 0
0.0118332 -0.00344436 0
0.0107469 -0.00550662 0
0.011204 -0.00384634 0
0.01129 -0.00447549 0
0.0106609 -0.00487747 0
0.0105745 -0.00424832 0
0.0104205 -0.00296237 0
0.0118604 -0.00344436 0
0.0104975 -0.00360535 0
0.0111405 -0.00320337 0
0.0112174 -0.00384634 0
0.00932864 -0.00674494 0
0.0090463 -0.00522188 0
0.0108517 -0.00557228 0
0.00918747 -0.00598341 0
0.009949 -0.00539708 0
0.0100902 -0.00615861 0
0.00932864 -0.00674652 0
0.00761476 -0.00796504 0
0.0090463 -0.00503265 0
0.0084717 -0.00735578 0
0.00833053 -0.00649884 0
0.00918747 -0.00588959 0
0.00932943 -0.00674494 0
0.0108261 -0.00557228 0
0.0096465 -0.00824159 0
0.0100778 -0.00615861 0
0.0102363 -0.00690693 0
0.00948797 -0.00749326 0
0.00932943 -0.00674652 0
0.0096465 -0.00844666 0
0.0076293 -0.00796504 0
0.00948797 -0.00759659 0
0.0086379 -0.00820585 0
0.00847937 -0.00735578 0
0.00724375 -0.0059775 0
0.00701659 -0.0040858 0
0.00913544 -0.00512064 0
0.00713017 -0.00503165 0
0.00807601 -0.00460322 0
0.00818959 -0.00554907 0
0.00724445 -0.0059775 0
0.0091343 -0.00512064 0
0.00751707 -0.00786735 0
0.00818937 -0.00554907 0
0.00832569 -0.006494 0
0.00738076 -0.00692242 0
0.00724375 -0.00597891 0
0.00517757 -0.00680595 0
0.00701659 -0.00391273 0
0.00621066 -0.00639243 0
0.00609708 -0.00535934 0
0.00713017 -0.00494582 0
0.00724445 -0.00597891 0
0.00751707 -0.00805449 0
0.00516887 -0.00680595 0
0.00738076 -0.0070167 0
0.00634297 -0.00743022 0
0.00620666 -0.00639243 0
0.0118836 -0.00445557 0
0.0108123 -0.00557204 0
0.011773 -0.00338424 0
0.011348 -0.0050138 0
0.0112927 -0.00447814 0
0.0118283 -0.00391991 0
0.0118836 -0.00445513 0
0.011773 -0.00353182 0
0.0128069 -0.00348248 0
0.0118283 -0.00399347 0
0.01229 -0.00350715 0
0.0123453 -0.0039688 0
0.0118839 -0.00445557 0
0.0119855 -0.00548132 0
0.0108581 -0.00557204 0
0.0119347 -0.00496845 0
0.0114218 -0.00552668 0
0.011371 -0.0050138 0
0.0118839 -0.00445513 0
0.012758 -0.00348248 0
0.0119855 -0.00532928 0
0.0123209 -0.0039688 0
0.0123718 -0.00440588 0
0.0119347 -0.0048922 0
0.0127266 -0.00270518 0
0.011825 -0.00344369 0
0.0127124 -0.00180357 0
0.0122758 -0.00307443 0
0.0122687 -0.00262363 0
0.0127195 -0.00225437 0
0.0127266 -0.00270518 0
0.0127188 -0.00357062 0
0.0118612 -0.00344369 0
0.0127227 -0.0031379 0
0.01229 -0.00350716 0
0.0122939 -0.00307443 0
0.0127266 -0.00270513 0
0.0127124 -0.00192442 0
0.0135073 -0.00207956 0
0.0127195 -0.00231477 0
0.0131099 -0.00200199 0
0.0131169 -0.00239235 0
0.0127266 -0.00270513 0
0.0134708 -0.00207956 0
0.0127188 -0.00344928 0
0.0130987 -0.00239235 0
0.0130948 -0.00276442 0
0.0127227 -0.00307721 0
0.00267603 -0.00750354 0
0.0051717 -0.00680485 0
0.00293746 -0.0099992 0
0.00392386 -0.0071542 0
0.00405458 -0.00840203 0
0.00280675 -0.00875137 0
0.00268055 -0.00750354 0
0.00249075 -0.00503664 0
0.00514745 -0.00680485 0
0.00258565 -0.00627009 0
0.0038191 -0.00592075 0
0.003914 -0.0071542 0
0.00540619 -0.00909585 0
0.00302792 -0.0100897 0
0.00508442 -0.00671758 0
0.00421706 -0.00959275 0
0.00405617 -0.00840362 0
0.00524531 -0.00790672 0
0.00540619 -0.00909255 0
0.00508442 -0.00689039 0
0.00760835 -0.00796321 0
0.00524531 -0.00799147 0
0.00634639 -0.0074268 0
0.00650727 -0.00852788 0
0.00540784 -0.00909585 0
0.00577759 -0.0115194 0
0.00298425 -0.0100897 0
0.00559272 -0.0103076 0
0.00438092 -0.0108045 0
0.00419605 -0.00959275 0
0.00540784 -0.00909255 0
0.00762894 -0.00796321 0
0.00577759 -0.0113137 0
0.00651839 -0.00852788 0
0.00670327 -0.00963843 0
0.00559272 -0.0102031 0
0.00794807 -0.0098946 0
0.00975502 -0.00832715 0
0.00843148 -0.0117015 0
0.00885155 -0.00911088 0
0.00909325 -0.0100144 0
0.00818978 -0.0107981 0
0.00794669 -0.0098946 0
0.00751905 -0.00807529 0
0.009766 -0.00832715 0
0.00773287 -0.00898495 0
0.00864252 -0.00820122 0
0.00885634 -0.00911088 0
0.00794807 -0.00989738 0
0.00843148 -0.0119513 0
0.0058942 -0.0114387 0
0.00818978 -0.0109243 0
0.00716284 -0.011695 0
0.00692114 -0.010668 0
0.00794669 -0.00989738 0
0.00590263 -0.0114387 0
0.00751905 -0.00785332 0
0.00692466 -0.010668 0
0.00671084 -0.00964601 0
0.00773287 -0.00887535 0
0.0110078 -0.00677069 0
0.00973291 -0.008328 0
0.0107496 -0.00549579 0
0.0103704 -0.00754934 0
0.0102412 -0.00691189 0
0.0108787 -0.00613324 0
0.0110084 -0.00677069 0
0.0112746 -0.00799654 0
0.00978257 -0.008328 0
0.0111415 -0.00738361 0
0.0105286 -0.00816227 0
0.0103955 -0.00754934 0
0.0110078 -0.00676945 0
0.0107496 -0.00568057 0
0.0120967 -0.00537014 0
0.0108787 -0.00622501 0
0.0114231 -0.00552535 0
0.0115523 -0.0060698 0
0.0110084 -0.00676945 0
0.0120384 -0.00537014 0
0.0112746 -0.00779944 0
0.0115234 -0.0060698 0
0.0116565 -0.00658479 0
0.0111415 -0.00728445 0
0.010105 -0.00977324 0
0.00855376 -0.0118238 0
0.0096499 -0.00822204 0
0.00932937 -0.0107985 0
0.00910183 -0.0100229 0
0.00987744 -0.00899764 0
0.010105 -0.00977059 0
0.0096499 -0.00846066 0
0.0114149 -0.00785624 0
0.00987744 -0.00911563 0
0.0105324 -0.00815845 0
0.0107599 -0.00881341 0
0.0101063 -0.00977324 0
0.0105934 -0.0112844 0
0.00859512 -0.0118238 0
0.0103499 -0.0105288 0
0.00959427 -0.0115541 0
0.00935071 -0.0107985 0
0.0101063 -0.00977059 0
0.011355 -0.00785624 0
0.0105934 -0.0110192 0
0.0107306 -0.00881341 0
0.0109742 -0.00943774 0
0.0103499 -0.0103949 0
0.00327698 -0.0127601 0
0.00289747 -0.0101764 0
0.00586061 -0.0114364 0
0.00308723 -0.0114683 0
0.00437904 -0.0108064 0
0.00456879 -0.0120982 0
0.00326887 -0.0127601 0
0.00590342 -0.0114364 0
0.00374627 -0.0153946 0
0.00458614 -0.0120982 0
0.00482484 -0.0134155 0
0.00350757 -0.0140773 0
0.00634486 -0.0137717 0
0.00577833 -0.0115546 0
0.008562 -0.0118207 0
0.00606159 -0.0126631 0
0.00717017 -0.0116876 0
0.00745343 -0.0127962 0
0.00634486 -0.0137778 0
0.0038784 -0.0155267 0
0.00577833 -0.0113113 0
0.00511163 -0.0146523 0
0.00482836 -0.013419 0
0.00606159 -0.0125446 0
0.0063479 -0.0137717 0
0.00858722 -0.0118207 0
0.00698089 -0.016011 0
0.00746756 -0.0127962 0
0.00778406 -0.0139159 0
0.00666439 -0.0148914 0
0.0063479 -0.0137778 0
0.00698089 -0.0163151 0
0.00381057 -0.0155267 0
0.00666439 -0.0150465 0
0.00539573 -0.0159209 0
0.00507923 -0.0146523 0
0.013965 -0.00154873 0
0.0137748 -0.0020122 0
0.0135015 -0.00207813 0
0.0138699 -0.00178047 0
0.0136382 -0.00204517 0
0.0137333 -0.00181343 0
0.0139652 -0.00154873 0
0.0134661 -0.00207813 0
0.0140971 -0.0010496 0
0.0137156 -0.00181343 0
0.0137816 -0.00156386 0
0.0140312 -0.00129916 0
0.013965 -0.00154911 0
0.0143593 -0.0011302 0
0.0137748 -0.00194339 0
0.0141621 -0.00133965 0
0.014067 -0.0015368 0
0.0138699 -0.00174625 0
0.0139652 -0.00154911 0
0.0140971 -0.00112221 0
0.0143921 -0.0011302 0
0.0140312 -0.00133566 0
0.0142446 -0.0011262 0
0.0141786 -0.00133965 0
0.0133372 -0.00263631 0
0.01344 -0.00213963 0
0.0138339 -0.00195311 0
0.0133886 -0.00238797 0
0.013637 -0.00204637 0
0.0135856 -0.00229471 0
0.0133372 -0.00263591 0
0.0127501 -0.00348062 0
0.01344 -0.00204883 0
0.0130437 -0.00305827 0
0.0130951 -0.00276473 0
0.0133886 -0.00234237 0
0.013337 -0.00263631 0
0.013785 -0.00195311 0
0.0131818 -0.00308426 0
0.013561 -0.00229471 0
0.0134834 -0.00251868 0
0.0132594 -0.00286028 0
0.013337 -0.00263591 0
0.0131818 -0.00317104 0
0.0128019 -0.00348062 0
0.0132594 -0.00290347 0
0.0129918 -0.00332583 0
0.0130694 -0.00305827 0
0.0145288 -0.000788125 0
0.0146433 -0.000437195 0
0.0148798 -0.000565437 0
0.0145861 -0.00061266 0
0.0147615 -0.000501316 0
0.0147043 -0.000676781 0
0.0145288 -0.000787844 0
0.0141216 -0.00107655 0
0.0146433 -0.000380618 0
0.0143252 -0.000932195 0
0.0143825 -0.000728582 0
0.0145861 -0.000584231 0
0.0145287 -0.000788125 0
0.0148605 -0.000565437 0
0.0143486 -0.00111998 0
0.0146946 -0.000676781 0
0.0146045 -0.000842706 0
0.0144386 -0.00095405 0
0.0145287 -0.000787844 0
0.0143486 -0.00117374 0
0.0141428 -0.00107655 0
0.0144386 -0.000980793 0
0.0142457 -0.00112514 0
0.0143357 -0.000932195 0
0.014979 -0.00029119 0
0.0148498 -0.000595399 0
0.0146748 -0.0004057 0
0.0149144 -0.000443295 0
0.0147623 -0.00050055 0
0.0148269 -0.000348445 0
0.0149791 -0.00029119 0
0.0146656 -0.0004057 0
0.0150339 2.23367e-05 0
0.0148223 -0.000348445 0
0.0148497 -0.000191682 0
0.0150065 -0.000134427 0
0.014979 -0.000291334 0
0.0152436 -0.000205668 0
0.0148498 -0.000555885 0
0.0151113 -0.000248501 0
0.0150467 -0.000380777 0
0.0149144 -0.00042361 0
0.0149791 -0.000291334 0
0.0150339 -1.86172e-05 0
0.0152518 -0.000205668 0
0.0150065 -0.000154976 0
0.0151428 -0.000112143 0
0.0151155 -0.000248501 0
0.0140642 -0.00140241 0
0.0137824 -0.001951 0
0.0143497 -0.00112064 0
0.0139233 -0.0016767 0
0.0140661 -0.00153582 0
0.014207 -0.00126152 0
0.0140642 -0.00140308 0
0.0143497 -0.00116362 0
0.0143036 -0.000986355 0
0.014207 -0.00128335 0
0.0143267 -0.00107499 0
0.0141839 -0.00119472 0
0.0140638 -0.00140241 0
0.0136967 -0.00164178 0
0.0138245 -0.001951 0
0.0138803 -0.00152209 0
0.0137606 -0.00179639 0
0.0139441 -0.0016767 0
0.0140638 -0.00140308 0
0.0142663 -0.000986355 0
0.0136967 -0.00160553 0
0.0141651 -0.00119472 0
0.0139815 -0.00129594 0
0.0138803 -0.0015043 0
0.0146026 -0.000800479 0
0.0143574 -0.00112885 0
0.0148504 -0.000555265 0
0.01448 -0.000964663 0
0.0146039 -0.000842056 0
0.0147265 -0.000677872 0
0.0146024 -0.000800479 0
0.0142716 -0.00101837 0
0.0143845 -0.00112885 0
0.014437 -0.000909426 0
0.0143281 -0.00107361 0
0.0144935 -0.000964663 0
0.0146026 -0.000800943 0
0.0148504 -0.000588179 0
0.0148154 -0.000557563 0
0.0147265 -0.000694561 0
0.0148329 -0.000572871 0
0.014709 -0.000679253 0
0.0146024 -0.000800943 0
0.0147916 -0.000557563 0
0.0142716 -0.000990102 0
0.014697 -0.000679253 0
0.0145316 -0.000773833 0
0.014437 -0.000895523 0
0.0126992 -0.00412113 0
0.0126299 -0.00472628 0
0.012094 -0.00536806 0
0.0126645 -0.00442371 0
0.012362 -0.00504717 0
0.0123966 -0.00474459 0
0.0126993 -0.00412113 0
0.0120243 -0.00536806 0
0.0127216 -0.00344609 0
0.0123618 -0.00474459 0
0.012373 -0.00440707 0
0.0127105 -0.00378361 0
0.0126992 -0.0041214 0
0.013192 -0.00309295 0
0.0126299 -0.00461426 0
0.0129456 -0.00360718 0
0.012911 -0.0038536 0
0.0126645 -0.00436783 0
0.0126993 -0.0041214 0
0.0127216 -0.00356087 0
0.0132599 -0.00309295 0
0.0127105 -0.00384114 0
0.0129907 -0.00332691 0
0.0129796 -0.00360718 0
0.012107 -0.00609866 0
0.0119896 -0.00547246 0
0.0127332 -0.00462291 0
0.0120483 -0.00578556 0
0.0123614 -0.00504769 0
0.0124201 -0.00536079 0
0.012107 -0.00609881 0
0.0113296 -0.00785444 0
0.0119896 -0.00532137 0
0.0117183 -0.00697663 0
0.0116596 -0.00658791 0
0.0120483 -0.00571009 0
0.0121071 -0.00609866 0
0.0126435 -0.00462291 0
0.012185 -0.00663509 0
0.0123753 -0.00536079 0
0.0124143 -0.005629 0
0.012146 -0.00636688 0
0.0121071 -0.00609881 0
0.012185 -0.00678766 0
0.0114183 -0.00785444 0
0.012146 -0.00644324 0
0.0118016 -0.00732105 0
0.0117627 -0.00697663 0
0.0134904 -0.002248 0
0.0131874 -0.0030899 0
0.0137769 -0.00194502 0
0.0133389 -0.00266895 0
0.0134821 -0.00251746 0
0.0136336 -0.00209651 0
0.0134899 -0.002248 0
0.0131199 -0.00248968 0
0.0132483 -0.0030899 0
0.0133049 -0.00236884 0
0.0131841 -0.00278979 0
0.0133691 -0.00266895 0
0.0134904 -0.0022489 0
0.0137769 -0.00199859 0
0.0137407 -0.00159778 0
0.0136336 -0.00212374 0
0.0137588 -0.00179818 0
0.0136156 -0.00192334 0
0.0134899 -0.0022489 0
0.0136862 -0.00159778 0
0.0131199 -0.00244516 0
0.0135881 -0.00192334 0
0.013403 -0.00202147 0
0.0133049 -0.00234703 0
0.0129394 -0.0033911 0
0.0126343 -0.00461867 0
0.0131851 -0.00308601 0
0.0127868 -0.00400489 0
0.0129097 -0.00385234 0
0.0130622 -0.00323855 0
0.0129394 -0.00339226 0
0.0131851 -0.00315306 0
0.0131786 -0.00243098 0
0.0130622 -0.00327266 0
0.0131818 -0.00279202 0
0.013059 -0.00291162 0
0.0129388 -0.0033911 0
0.0126033 -0.00361075 0
0.0127191 -0.00461867 0
0.012771 -0.00350093 0
0.0126612 -0.00411471 0
0.012829 -0.00400489 0
0.0129388 -0.00339226 0
0.0131018 -0.00243098 0
0.0126033 -0.00355532 0
0.0130203 -0.00291162 0
0.0128526 -0.00299315 0
0.012771 -0.00347379 0
0.0143822 0.000676991 0
0.0138741 0.000758689 0
0.0144639 0.000458639 0
0.0141282 0.00071784 0
0.014169 0.000608664 0
0.0144231 0.000567815 0
0.0143822 0.000676416 0
0.0142947 0.000984894 0
0.0138741 0.000763917 0
0.0143385 0.000830655 0
0.0140844 0.000874406 0
0.0141282 0.000720167 0
0.0143825 0.000676991 0
0.0144882 0.000458639 0
0.0147943 0.000571267 0
0.0144354 0.000567815 0
0.0146413 0.000514953 0
0.0145884 0.000624129 0
0.0143825 0.000676416 0
0.0147943 0.000560297 0
0.0142664 0.000984894 0
0.0145884 0.000618357 0
0.0145303 0.000772596 0
0.0143245 0.000830655 0
0.0138854 0.000496881 0
0.0144758 0.000470541 0
0.013859 0.00074362 0
0.0141806 0.000483711 0
0.0141674 0.00060708 0
0.0138722 0.00062025 0
0.0138851 0.000496881 0
0.0138843 0.00074362 0
0.0131915 0.000497679 0
0.0138847 0.00062025 0
0.0135379 0.000620649 0
0.0135383 0.00049728 0
0.0138854 0.000497445 0
0.0139189 0.000333067 0
0.0144758 0.000463903 0
0.0139021 0.000415256 0
0.0141974 0.000398485 0
0.0141806 0.000480674 0
0.0138851 0.000497445 0
0.0131915 0.000509962 0
0.0138976 0.000333067 0
0.0135383 0.000503704 0
0.0135446 0.000421515 0
0.0138913 0.000415256 0
0.0148977 0.000382223 0
0.0148088 0.000556728 0
0.0144758 0.000471069 0
0.0148533 0.000469475 0
0.0146423 0.000513898 0
0.0146867 0.000426646 0
0.0148979 0.000382223 0
0.0152226 0.000275513 0
0.0147912 0.000556728 0
0.0150602 0.000328868 0
0.0150069 0.00041612 0
0.0148445 0.000469475 0
0.0148977 0.000382585 0
0.0144758 0.000468965 0
0.0149841 0.000264228 0
0.0146867 0.000425775 0
0.0147299 0.000366597 0
0.0149409 0.000323407 0
0.0148979 0.000382585 0
0.0149992 0.000264228 0
0.0152226 0.000281244 0
0.0149485 0.000323407 0
0.0151109 0.000272736 0
0.0150602 0.000331915 0
0.0150576 0.000395378 0
0.0148739 0.000564687 0
0.0147939 0.000579109 0
0.0149657 0.000480032 0
0.0148339 0.000571898 0
0.0149257 0.000487244 0
0.0150576 0.000395658 0
0.0147939 0.00055943 0
0.0152214 0.000274267 0
0.0149257 0.000477544 0
0.0150076 0.000416848 0
0.0151395 0.000334962 0
0.0150577 0.000395378 0
0.0152342 0.000196246 0
0.0148586 0.000564687 0
0.0151459 0.000295812 0
0.0150464 0.000380467 0
0.0149582 0.000480032 0
0.0150577 0.000395658 0
0.0152347 0.000274267 0
0.0152342 0.000218723 0
0.0151462 0.000334962 0
0.0152344 0.000246495 0
0.0151459 0.00030719 0
0.013147 0.000325603 0
0.0131408 0.000226519 0
0.0139143 0.000331776 0
0.0131439 0.000276061 0
0.0135276 0.000279147 0
0.0135307 0.000328689 0
0.013147 0.000325165 0
0.0139143 0.000349788 0
0.0131716 0.000490058 0
0.0135307 0.000337476 0
0.013543 0.000419923 0
0.0131593 0.000407612 0
0.0131468 0.000325603 0
0.0122771 0.00030336 0
0.0131245 0.000226519 0
0.012712 0.000314481 0
0.0127008 0.000264939 0
0.0131356 0.000276061 0
0.0131468 0.000325165 0
0.013191 0.000490058 0
0.0122771 0.000280964 0
0.0131689 0.000407612 0
0.0127341 0.000385511 0
0.012712 0.000303064 0
0.0145051 0.00031365 0
0.0144817 0.000458008 0
0.0139149 0.000337034 0
0.0144934 0.000385829 0
0.0141983 0.000397521 0
0.01421 0.000325342 0
0.0145051 0.000314018 0
0.0139149 0.000348456 0
0.0145395 0.000224167 0
0.01421 0.000331237 0
0.0142272 0.000286311 0
0.0145223 0.000269093 0
0.0145053 0.00031365 0
0.014993 0.000273213 0
0.0144649 0.000458008 0
0.0147492 0.000293432 0
0.014729 0.000365611 0
0.0144851 0.000385829 0
0.0145053 0.000314018 0
0.0145538 0.000224167 0
0.014993 0.000265471 0
0.0145296 0.000269093 0
0.0147734 0.000244819 0
0.0147492 0.000289745 0
0.0138994 0.000237787 0
0.0139132 0.000332897 0
0.0131434 0.00022394 0
0.0139063 0.000285342 0
0.0135283 0.000278419 0
0.0135214 0.000230864 0
0.0138995 0.000237787 0
0.014553 0.000237667 0
0.0138994 0.000332897 0
0.0142263 0.000237727 0
0.0142262 0.000285282 0
0.0138994 0.000285342 0
0.0138994 0.000238085 0
0.0131434 0.000243746 0
0.013905 0.000188727 0
0.0135214 0.000240916 0
0.0135242 0.000216236 0
0.0139022 0.000213406 0
0.0138995 0.000238085 0
0.0139167 0.000188727 0
0.014553 0.000220843 0
0.0139081 0.000213406 0
0.0142349 0.000204785 0
0.0142263 0.000229464 0
0.0122128 0.00019981 0
0.0131421 0.000244053 0
0.012257 0.000283242 0
0.0126774 0.000221932 0
0.0126995 0.000263648 0
0.0122349 0.000241526 0
0.0122127 0.00019981 0
0.0122697 0.000283242 0
0.0111887 0.000142791 0
0.0122412 0.000241526 0
0.0117292 0.000213017 0
0.0117007 0.0001713 0
0.0122128 0.000200053 0
0.0121915 0.000162709 0
0.0131421 0.000221321 0
0.0122021 0.000181381 0
0.0126668 0.000192015 0
0.0126774 0.000210687 0
0.0122127 0.000200053 0
0.0111887 0.000167948 0
0.0121806 0.000162709 0
0.0117007 0.000184 0
0.0116846 0.000165329 0
0.0121966 0.000181381 0
0.015276 0 0
0.015234 0.000198124 0
0.0154741 0 0
0.015255 9.90618e-05 0
0.015354 9.90618e-05 0
0.0153751 0 0
0.015276 0 0
0.0150525 0 0
0.015234 0.000223508 0
0.0151642 0 0
0.0151432 0.000111754 0
0.015255 0.000111754 0
0.015276 0 0
0.0154741 0 0
0.015234 -0.000198124 0
0.0153751 0 0
0.015354 -9.90618e-05 0
0.015255 -9.90618e-05 0
0.015276 0 0
0.015234 -0.000223508 0
0.0150525 0 0
0.015255 -0.000111754 0
0.0151432 -0.000111754 0
0.0151642 0 0
0.0153912 0.000142765 0
0.0154669 -7.25193e-06 0
0.0152412 0.000205373 0
0.0154291 6.77565e-05 0
0.015354 9.90608e-05 0
0.0153162 0.000174069 0
0.0153912 0.000142765 0
0.0152475 0.000205373 0
0.0152225 0.000286441 0
0.0153193 0.000174069 0
0.015235 0.000245907 0
0.0153068 0.000214603 0
0.0153912 0.000142888 0
0.0155297 0.000100012 0
0.0154669 4.44914e-06 0
0.0154605 0.00012145 0
0.0154983 5.22306e-05 0
0.0154291 7.36684e-05 0
0.0153912 0.000142888 0
0.0152225 0.000275967 0
0.0155243 0.000100012 0
0.0153068 0.000209427 0
0.0153734 0.000187989 0
0.0154577 0.00012145 0
0.0153912 -0.000142765 0
0.0152412 -0.000205373 0
0.0154669 7.25191e-06 0
0.0153162 -0.000174069 0
0.015354 -9.90608e-05 0
0.0154291 -6.77565e-05 0
0.0153912 -0.000142765 0
0.0152225 -0.000286442 0
0.0152475 -0.000205373 0
0.0153068 -0.000214603 0
0.015235 -0.000245908 0
0.0153193 -0.000174069 0
0.0153912 -0.000142888 0
0.0154669 -4.44918e-06 0
0.0155297 -0.000100012 0
0.0154291 -7.36684e-05 0
0.0154983 -5.22307e-05 0
0.0154605 -0.00012145 0
0.0153912 -0.000142888 0
0.0155243 -0.000100012 0
0.0152225 -0.000275967 0
0.0154577 -0.00012145 0
0.0153734 -0.00018799 0
0.0153068 -0.000209427 0
0.0150577 -0.000395378 0
0.0148586 -0.000564687 0
0.0152342 -0.000196246 0
0.0149582 -0.000480032 0
0.0150464 -0.000380467 0
0.0151459 -0.000295812 0
0.0150577 -0.000395658 0
0.0152342 -0.000218723 0
0.0152347 -0.000274267 0
0.0151459 -0.00030719 0
0.0152344 -0.000246495 0
0.0151462 -0.000334962 0
0.0150576 -0.000395378 0
0.0147939 -0.000579109 0
0.0148739 -0.000564687 0
0.0149257 -0.000487244 0
0.0148339 -0.000571898 0
0.0149657 -0.000480032 0
0.0150576 -0.000395658 0
0.0152214 -0.000274267 0
0.0147939 -0.00055943 0
0.0151395 -0.000334962 0
0.0150076 -0.000416848 0
0.0149257 -0.000477544 0
0.0153095 0.000190876 0
0.0149932 0.000272879 0
0.0153915 0.000137992 0
0.0151514 0.000231877 0
0.0151924 0.000205436 0
0.0153505 0.000164434 0
0.0153095 0.000190674 0
0.01523 0.000273871 0
0.0149932 0.000270218 0
0.0152697 0.000232273 0
0.0151116 0.000272044 0
0.0151514 0.000230446 0
0.0153096 0.000190876 0
0.0153997 0.000137992 0
0.0155257 0.000100796 0
0.0153547 0.000164434 0
0.0154627 0.000119394 0
0.0154177 0.000145836 0
0.0153096 0.000190674 0
0.0155257 0.000101443 0
0.0152204 0.000273871 0
0.0154177 0.000146058 0
0.015373 0.000187657 0
0.015265 0.000232273 0
0.0150287 0.000190282 0
0.0153994 0.000145826 0
0.0149843 0.000263946 0
0.015214 0.000168054 0
0.0151918 0.000204886 0
0.0150065 0.000227114 0
0.0150286 0.000190282 0
0.0149946 0.000263946 0
0.0145537 0.000224335 0
0.0150116 0.000227114 0
0.0147741 0.000244141 0
0.0147911 0.000207309 0
0.0150287 0.000190508 0
0.0150841 0.000149576 0
0.0153994 0.000135172 0
0.0150564 0.000170042 0
0.0152417 0.000142374 0
0.015214 0.00016284 0
0.0150286 0.000190508 0
0.0145537 0.000237244 0
0.0150754 0.000149576 0
0.0147911 0.000213876 0
0.0148145 0.00019341 0
0.015052 0.000170042 0
0.0155753 0 0
0.0154713 0 0
0.0155257 0.000103979 0
0.0155233 0 0
0.0154985 5.19895e-05 0
0.0155505 5.19895e-05 0
0.0155753 0 0
0.0155257 0.000102772 0
0.0156781 0 0
0.0155505 5.13859e-05 0
0.0156019 5.13859e-05 0
0.0156267 0 0
0.0155753 0 0
0.0155257 -0.000103979 0
0.0154713 0 0
0.0155505 -5.19896e-05 0
0.0154985 -5.19896e-05 0
0.0155233 0 0
0.0155753 0 0
0.0156781 0 0
0.0155257 -0.000102772 0
0.0156267 0 0
0.0156019 -5.13859e-05 0
0.0155505 -5.13859e-05 0
0.0155923 7.23571e-05 0
0.0155266 9.98908e-05 0
0.0153996 0.000138109 0
0.0155595 8.61239e-05 0
0.0154631 0.000119 0
0.015496 0.000105233 0
0.0155924 7.23571e-05 0
0.0156809 2.80116e-06 0
0.0155228 9.98908e-05 0
0.0156366 3.75791e-05 0
0.0156018 5.1346e-05 0
0.0155576 8.61239e-05 0
0.0155923 7.24393e-05 0
0.0153996 0.000146237 0
0.0156661 5.66874e-05 0
0.015496 0.000109338 0
0.0155329 0.000101462 0
0.0156292 6.45634e-05 0
0.0155924 7.24393e-05 0
0.0156693 5.66874e-05 0
0.0156809 -4.50421e-06 0
0.0156309 6.45634e-05 0
0.0156751 2.60916e-05 0
0.0156366 3.39676e-05 0
0.0157282 0 0
0.0156742 6.52311e-05 0
0.0157935 0 0
0.0157012 3.26155e-05 0
0.0157338 3.26155e-05 0
0.0157608 0 0
0.0157282 0 0
0.0156764 0 0
0.0156742 5.18606e-05 0
0.0157023 0 0
0.0156753 2.59303e-05 0
0.0157012 2.59303e-05 0
0.0157282 0 0
0.0157935 0 0
0.0156742 -6.52311e-05 0
0.0157608 0 0
0.0157338 -3.26156e-05 0
0.0157012 -3.26156e-05 0
0.0157282 0 0
0.0156742 -5.18606e-05 0
0.0156764 0 0
0.0157012 -2.59303e-05 0
0.0156753 -2.59303e-05 0
0.0157023 0 0
0.0157061 4.90008e-05 0
0.015802 8.51107e-06 0
0.0156656 5.67028e-05 0
0.015754 2.87559e-05 0
0.0157338 3.2607e-05 0
0.0156859 5.28518e-05 0
0.0157061 4.90008e-05 0
0.0156676 5.67028e-05 0
0.0154994 8.75337e-05 0
0.0156868 5.28518e-05 0
0.0155835 7.21183e-05 0
0.0156028 6.82672e-05 0
0.0157061 4.90528e-05 0
0.0157643 4.6945e-05 0
0.015802 -9.10731e-06 0
0.0157352 4.79989e-05 0
0.0157831 1.89188e-05 0
0.015754 1.99727e-05 0
0.0157061 4.90528e-05 0
0.0154994 0.000105672 0
0.0157627 4.6945e-05 0
0.0156028 7.73623e-05 0
0.0156311 7.63085e-05 0
0.0157344 4.79989e-05 0
0.0154347 0.000107925 0
0.015674 6.45356e-05 0
0.0153913 0.000137921 0
0.0155543 8.62302e-05 0
0.0155326 0.000101228 0
0.015413 0.000122923 0
0.0154347 0.000108048 0
0.0154924 9.45435e-05 0
0.015674 5.02711e-05 0
0.0154635 0.000101296 0
0.0155832 7.24073e-05 0
0.0155543 7.91598e-05 0
0.0154346 0.000107925 0
0.0153966 0.000137921 0
0.0150877 0.000145912 0
0.0154156 0.000122923 0
0.0152422 0.000141916 0
0.0152612 0.000126918 0
0.0154346 0.000108048 0
0.0150877 0.000161412 0
0.015488 9.45435e-05 0
0.0152612 0.00013473 0
0.0152878 0.000127978 0
0.0154613 0.000101296 0
0.0155923 -7.24394e-05 0
0.0156661 -5.66874e-05 0
0.0153996 -0.000146237 0
0.0156292 -6.45634e-05 0
0.0155329 -0.000101462 0
0.015496 -0.000109338 0
0.0155924 -7.24394e-05 0
0.0156809 4.50418e-06 0
0.0156693 -5.66874e-05 0
0.0156366 -3.39676e-05 0
0.0156751 -2.60916e-05 0
0.0156309 -6.45634e-05 0
0.0155923 -7.23571e-05 0
0.0153996 -0.000138109 0
0.0155266 -9.98908e-05 0
0.015496 -0.000105233 0
0.0154631 -0.000119 0
0.0155595 -8.6124e-05 0
0.0155924 -7.23571e-05 0
0.0155228 -9.98908e-05 0
0.0156809 -2.80118e-06 0
0.0155576 -8.6124e-05 0
0.0156018 -5.1346e-05 0
0.0156366 -3.75791e-05 0
0.0157061 -4.90008e-05 0
0.0156656 -5.67029e-05 0
0.015802 -8.5111e-06 0
0.0156859 -5.28519e-05 0
0.0157338 -3.2607e-05 0
0.015754 -2.8756e-05 0
0.0157061 -4.90008e-05 0
0.0154994 -8.75337e-05 0
0.0156676 -5.67029e-05 0
0.0156028 -6.82673e-05 0
0.0155835 -7.21183e-05 0
0.0156868 -5.28519e-05 0
0.0157061 -4.90528e-05 0
0.015802 9.10728e-06 0
0.0157643 -4.6945e-05 0
0.015754 -1.99728e-05 0
0.0157831 -1.89189e-05 0
0.0157352 -4.79989e-05 0
0.0157061 -4.90528e-05 0
0.0157627 -4.6945e-05 0
0.0154994 -0.000105672 0
0.0157344 -4.79989e-05 0
0.0156311 -7.63085e-05 0
0.0156028 -7.73624e-05 0
0.0154347 -0.000107925 0
0.0153913 -0.000137921 0
0.015674 -6.45356e-05 0
0.015413 -0.000122923 0
0.0155326 -0.000101228 0
0.0155543 -8.62303e-05 0
0.0154347 -0.000108049 0
0.015674 -5.02711e-05 0
0.0154924 -9.45435e-05 0
0.0155543 -7.91598e-05 0
0.0155832 -7.24073e-05 0
0.0154635 -0.000101296 0
0.0154346 -0.000107925 0
0.0150877 -0.000145912 0
0.0153966 -0.000137921 0
0.0152612 -0.000126918 0
0.0152422 -0.000141916 0
0.0154156 -0.000122923 0
0.0154346 -0.000108049 0
0.015488 -9.45435e-05 0
0.0150877 -0.000161412 0
0.0154613 -0.000101296 0
0.0152878 -0.000127978 0
0.0152612 -0.00013473 0
0.0153096 -0.000190876 0
0.0155257 -0.000100796 0
0.0153997 -0.000137992 0
0.0154177 -0.000145836 0
0.0154627 -0.000119394 0
0.0153547 -0.000164434 0
0.0153096 -0.000190674 0
0.0152204 -0.000273871 0
0.0155257 -0.000101443 0
0.015265 -0.000232273 0
0.015373 -0.000187657 0
0.0154177 -0.000146058 0
0.0153095 -0.000190876 0
0.0153915 -0.000137992 0
0.0149932 -0.000272879 0
0.0153505 -0.000164434 0
0.0151924 -0.000205436 0
0.0151514 -0.000231877 0
0.0153095 -0.000190674 0
0.0149932 -0.000270218 0
0.01523 -0.000273871 0
0.0151514 -0.000230446 0
0.0151116 -0.000272044 0
0.0152697 -0.000232273 0
0.0151023 0.000131891 0
0.0150812 0.000149698 0
0.0145973 0.00015291 0
0.0150918 0.000140794 0
0.0148393 0.000151304 0
0.0148498 0.0001424 0
0.0151023 0.000131891 0
0.015499 0.000105587 0
0.015076 0.000149698 0
0.0153007 0.000118739 0
0.0152875 0.000127643 0
0.0150892 0.000140794 0
0.0151023 0.000132022 0
0.0145973 0.000173367 0
0.0151436 0.000129633 0
0.0148498 0.000152694 0
0.0148705 0.0001515 0
0.0151229 0.000130828 0
0.0151023 0.000132022 0
0.0151479 0.000129633 0
0.015499 8.6443e-05 0
0.0151251 0.000130828 0
0.0153235 0.000108038 0
0.0153007 0.000109232 0
0.0145566 0.000177608 0
0.0145905 0.000159747 0
0.0150872 0.000143772 0
0.0145736 0.000168678 0
0.0148388 0.000151759 0
0.0148219 0.00016069 0
0.0145566 0.000177409 0
0.0150872 0.000161384 0
0.0145406 0.000224187 0
0.0148219 0.000169396 0
0.0148139 0.000192785 0
0.0145486 0.000200798 0
0.0145565 0.000177608 0
0.0139212 0.000203848 0
0.0145828 0.000159747 0
0.0142389 0.000190728 0
0.014252 0.000181798 0
0.0145697 0.000168678 0
0.0145565 0.000177409 0
0.0145497 0.000224187 0
0.0139212 0.000184246 0
0.0145531 0.000200798 0
0.0142355 0.000204216 0
0.0142389 0.000180828 0
0.0155211 9.04284e-05 0
0.0155743 9.17652e-05 0
0.0157735 3.72856e-05 0
0.0155477 9.10968e-05 0
0.0156739 6.45254e-05 0
0.0156473 6.3857e-05 0
0.0155211 9.03448e-05 0
0.0157735 5.76881e-05 0
0.0154885 9.46823e-05 0
0.0156473 7.40165e-05 0
0.015631 7.61852e-05 0
0.0155048 9.25136e-05 0
0.0155211 9.04284e-05 0
0.0151569 0.000141889 0
0.0155725 9.17652e-05 0
0.015339 0.000116159 0
0.0153647 0.000116827 0
0.0155468 9.10968e-05 0
0.0155211 9.03448e-05 0
0.0154908 9.46823e-05 0
0.0151569 0.000120651 0
0.0155059 9.25136e-05 0
0.0153238 0.000107667 0
0.015339 0.000105498 0
0.0158304 0 0
0.0157929 0 0
0.0157737 3.75238e-05 0
0.0158116 0 0
0.0157833 1.87619e-05 0
0.015802 1.87619e-05 0
0.0158304 0 0
0.0157737 5.75389e-05 0
0.0158879 0 0
0.015802 2.87695e-05 0
0.0158308 2.87695e-05 0
0.0158591 0 0
0.0158304 0 0
0.0157737 -3.75239e-05 0
0.0157929 0 0
0.015802 -1.87619e-05 0
0.0157833 -1.87619e-05 0
0.0158116 0 0
0.0158304 0 0
0.0158879 0 0
0.0157737 -5.7539e-05 0
0.0158591 0 0
0.0158308 -2.87695e-05 0
0.015802 -2.87695e-05 0
0.0157989 4.62769e-05 0
0.0157637 4.70342e-05 0
0.0155846 8.14242e-05 0
0.0157813 4.66555e-05 0
0.0156742 6.42292e-05 0
0.0156917 6.38506e-05 0
0.0157989 4.62769e-05 0
0.0158985 1.05963e-05 0
0.0157632 4.70342e-05 0
0.0158487 2.84366e-05 0
0.0158309 2.88152e-05 0
0.015781 4.66555e-05 0
0.0157989 4.63209e-05 0
0.0155846 0.000102528 0
0.0158551 4.58635e-05 0
0.0156917 7.44243e-05 0
0.0157198 7.41957e-05 0
0.015827 4.60922e-05 0
0.0157989 4.63209e-05 0
0.0158553 4.58635e-05 0
0.0158985 -1.00675e-05 0
0.0158271 4.60922e-05 0
0.0158769 1.7898e-05 0
0.0158487 1.81267e-05 0
0.0146013 0.00015936 0
0.0151561 0.000142127 0
0.0145841 0.000160156 0
0.0148787 0.000150743 0
0.0148701 0.000151141 0
0.0145927 0.000159758 0
0.0146013 0.000159479 0
0.0146405 0.000168763 0
0.0151561 0.000120269 0
0.0146209 0.000164121 0
0.0148983 0.000144516 0
0.0148787 0.000139874 0
0.0146013 0.00015936 0
0.0145881 0.000160156 0
0.01394 0.000172571 0
0.0145947 0.000159758 0
0.014264 0.000166363 0
0.0142706 0.000165965 0
0.0146013 0.000159479 0
0.01394 0.000195619 0
0.0146374 0.000168763 0
0.0142706 0.000177549 0
0.0142887 0.000182191 0
0.0146193 0.000164121 0
0.0151732 0.00013148 0
0.0155841 0.00010329 0
0.015145 0.000129965 0
0.0153786 0.000117385 0
0.0153645 0.000116627 0
0.0151591 0.000130723 0
0.0151731 0.00013148 0
0.0151464 0.000129965 0
0.0146511 0.000158177 0
0.0151598 0.000130723 0
0.0148988 0.000144071 0
0.0149121 0.000144829 0
0.0151732 0.000131588 0
0.0152231 0.000134079 0
0.0155841 8.16398e-05 0
0.0151981 0.000132834 0
0.0154036 0.00010786 0
0.0153786 0.000106614 0
0.0151731 0.000131588 0
0.0146511 0.000180906 0
0.0152224 0.000134079 0
0.0149121 0.000156247 0
0.0149368 0.000157493 0
0.0151978 0.000132834 0
0.013908 0.000174707 0
0.0145963 0.000173283 0
0.0139065 0.000189164 0
0.0142521 0.000173995 0
0.0142514 0.000181223 0
0.0139073 0.000181935 0
0.0139079 0.000174707 0
0.0139134 0.000189164 0
0.0131179 0.000169201 0
0.0139106 0.000181935 0
0.0135156 0.000179183 0
0.0135129 0.000171954 0
0.013908 0.000174846 0
0.0139309 0.000181669 0
0.0145963 0.000151905 0
0.0139194 0.000178258 0
0.0142636 0.000166787 0
0.0142521 0.000163375 0
0.0139079 0.000174846 0
0.0131179 0.000191972 0
0.013925 0.000181669 0
0.0135129 0.000183409 0
0.0135215 0.000186821 0
0.0139165 0.000178258 0
0.0131078 0.000184961 0
0.0139201 0.000203771 0
0.0131266 0.000226948 0
0.0135139 0.000194366 0
0.0135233 0.00021536 0
0.0131172 0.000205955 0
0.0131078 0.000185141 0
0.0131104 0.00017668 0
0.0139201 0.000182507 0
0.0131091 0.00018091 0
0.0135152 0.000179593 0
0.0135139 0.000183824 0
0.0131077 0.000184961 0
0.0131364 0.000226948 0
0.012198 0.000156226 0
0.0131221 0.000205955 0
0.0126672 0.000191587 0
0.0126528 0.000170594 0
0.0131077 0.000185141 0
0.012198 0.000179284 0
0.0131018 0.00017668 0
0.0126528 0.000182212 0
0.0126499 0.000177982 0
0.0131048 0.00018091 0
0.0148977 -0.000382585 0
0.0149841 -0.000264228 0
0.0144758 -0.000468965 0
0.0149409 -0.000323407 0
0.0147299 -0.000366597 0
0.0146867 -0.000425775 0
0.0148979 -0.000382585 0
0.0152226 -0.000281244 0
0.0149992 -0.000264228 0
0.0150602 -0.000331915 0
0.0151109 -0.000272736 0
0.0149485 -0.000323407 0
0.0148977 -0.000382223 0
0.0144758 -0.000471069 0
0.0148088 -0.000556728 0
0.0146867 -0.000426646 0
0.0146423 -0.000513898 0
0.0148533 -0.000469475 0
0.0148979 -0.000382223 0
0.0147912 -0.000556728 0
0.0152226 -0.000275513 0
0.0148445 -0.000469475 0
0.0150069 -0.00041612 0
0.0150602 -0.000328868 0
0.0145053 -0.00031365 0
0.0144649 -0.000458008 0
0.014993 -0.000273213 0
0.0144851 -0.000385829 0
0.014729 -0.000365611 0
0.0147492 -0.000293432 0
0.0145053 -0.000314018 0
0.014993 -0.000265471 0
0.0145538 -0.000224167 0
0.0147492 -0.000289745 0
0.0147734 -0.000244819 0
0.0145296 -0.000269093 0
0.0145051 -0.00031365 0
0.0139149 -0.000337034 0
0.0144817 -0.000458008 0
0.01421 -0.000325342 0
0.0141983 -0.000397521 0
0.0144934 -0.000385829 0
0.0145051 -0.000314018 0
0.0145395 -0.000224167 0
0.0139149 -0.000348456 0
0.0145223 -0.000269093 0
0.0142272 -0.000286311 0
0.01421 -0.000331237 0
0.0150287 -0.000190282 0
0.0149843 -0.000263946 0
0.0153994 -0.000145826 0
0.0150065 -0.000227114 0
0.0151918 -0.000204886 0
0.015214 -0.000168054 0
0.0150286 -0.000190282 0
0.0145537 -0.000224336 0
0.0149946 -0.000263946 0
0.0147911 -0.000207309 0
0.0147741 -0.000244141 0
0.0150116 -0.000227114 0
0.0150287 -0.000190508 0
0.0153994 -0.000135172 0
0.0150841 -0.000149576 0
0.015214 -0.00016284 0
0.0152417 -0.000142374 0
0.0150564 -0.000170042 0
0.0150286 -0.000190508 0
0.0150754 -0.000149576 0
0.0145537 -0.000237244 0
0.015052 -0.000170042 0
0.0148145 -0.00019341 0
0.0147911 -0.000213876 0
0.0143825 -0.000676991 0
0.0147943 -0.000571267 0
0.0144882 -0.000458639 0
0.0145884 -0.000624129 0
0.0146413 -0.000514953 0
0.0144354 -0.000567815 0
0.0143825 -0.000676416 0
0.0142664 -0.000984894 0
0.0147943 -0.000560297 0
0.0143245 -0.000830655 0
0.0145303 -0.000772596 0
0.0145884 -0.000618357 0
0.0143822 -0.000676991 0
0.0144639 -0.000458639 0
0.0138741 -0.000758689 0
0.0144231 -0.000567815 0
0.014169 -0.000608664 0
0.0141282 -0.00071784 0
0.0143822 -0.000676416 0
0.0138741 -0.000763917 0
0.0142947 -0.000984894 0
0.0141282 -0.000720167 0
0.0140844 -0.000874406 0
0.0143385 -0.000830655 0
0.0151023 -0.000131891 0
0.0145973 -0.00015291 0
0.0150812 -0.000149698 0
0.0148498 -0.0001424 0
0.0148393 -0.000151304 0
0.0150918 -0.000140794 0
0.0151023 -0.000131891 0
0.015076 -0.000149698 0
0.015499 -0.000105587 0
0.0150892 -0.000140794 0
0.0152875 -0.000127643 0
0.0153007 -0.000118739 0
0.0151023 -0.000132022 0
0.0151436 -0.000129633 0
0.0145973 -0.000173367 0
0.0151229 -0.000130828 0
0.0148705 -0.0001515 0
0.0148498 -0.000152694 0
0.0151023 -0.000132022 0
0.015499 -8.6443e-05 0
0.0151479 -0.000129633 0
0.0153007 -0.000109233 0
0.0153235 -0.000108038 0
0.0151251 -0.000130828 0
0.0145566 -0.000177608 0
0.0150872 -0.000143772 0
0.0145905 -0.000159747 0
0.0148219 -0.00016069 0
0.0148388 -0.000151759 0
0.0145736 -0.000168678 0
0.0145566 -0.000177409 0
0.0145406 -0.000224187 0
0.0150872 -0.000161384 0
0.0145486 -0.000200798 0
0.0148139 -0.000192785 0
0.0148219 -0.000169396 0
0.0145565 -0.000177608 0
0.0145828 -0.000159747 0
0.0139212 -0.000203848 0
0.0145697 -0.000168678 0
0.014252 -0.000181798 0
0.0142389 -0.000190728 0
0.0145565 -0.000177409 0
0.0139212 -0.000184246 0
0.0145497 -0.000224187 0
0.0142389 -0.000180828 0
0.0142355 -0.000204216 0
0.0145531 -0.000200798 0
0.0155211 -9.04284e-05 0
0.0157735 -3.72856e-05 0
0.0155743 -9.17652e-05 0
0.0156473 -6.3857e-05 0
0.0156739 -6.45254e-05 0
0.0155477 -9.10968e-05 0
0.0155211 -9.03448e-05 0
0.0154885 -9.46824e-05 0
0.0157735 -5.76882e-05 0
0.0155048 -9.25136e-05 0
0.015631 -7.61853e-05 0
0.0156473 -7.40165e-05 0
0.0155211 -9.04284e-05 0
0.0155725 -9.17652e-05 0
0.0151569 -0.000141889 0
0.0155468 -9.10968e-05 0
0.0153647 -0.000116827 0
0.015339 -0.000116159 0
0.0155211 -9.03448e-05 0
0.0151569 -0.000120651 0
0.0154908 -9.46824e-05 0
0.015339 -0.000105498 0
0.0153238 -0.000107667 0
0.0155059 -9.25136e-05 0
0.0157989 -4.62769e-05 0
0.0155846 -8.14243e-05 0
0.0157637 -4.70342e-05 0
0.0156917 -6.38506e-05 0
0.0156742 -6.42292e-05 0
0.0157813 -4.66555e-05 0
0.0157989 -4.62769e-05 0
0.0157632 -4.70342e-05 0
0.0158985 -1.05964e-05 0
0.015781 -4.66555e-05 0
0.0158309 -2.88153e-05 0
0.0158487 -2.84366e-05 0
0.0157989 -4.63209e-05 0
0.0158551 -4.58635e-05 0
0.0155846 -0.000102528 0
0.015827 -4.60922e-05 0
0.0157198 -7.41957e-05 0
0.0156917 -7.44244e-05 0
0.0157989 -4.63209e-05 0
0.0158985 1.00675e-05 0
0.0158553 -4.58635e-05 0
0.0158487 -1.81267e-05 0
0.0158769 -1.7898e-05 0
0.0158271 -4.60922e-05 0
0.0146013 -0.00015936 0
0.0145841 -0.000160156 0
0.0151561 -0.000142127 0
0.0145927 -0.000159758 0
0.0148701 -0.000151141 0
0.0148787 -0.000150743 0
0.0146013 -0.000159479 0
0.0151561 -0.000120269 0
0.0146405 -0.000168763 0
0.0148787 -0.000139874 0
0.0148983 -0.000144516 0
0.0146209 -0.000164121 0
0.0146013 -0.00015936 0
0.01394 -0.000172571 0
0.0145881 -0.000160156 0
0.0142706 -0.000165965 0
0.014264 -0.000166363 0
0.0145947 -0.000159758 0
0.0146013 -0.000159479 0
0.0146374 -0.000168763 0
0.01394 -0.000195619 0
0.0146193 -0.000164121 0
0.0142887 -0.000182191 0
0.0142706 -0.000177549 0
0.0151732 -0.000131481 0
0.015145 -0.000129965 0
0.0155841 -0.00010329 0
0.0151591 -0.000130723 0
0.0153645 -0.000116628 0
0.0153786 -0.000117385 0
0.0151731 -0.000131481 0
0.0146511 -0.000158177 0
0.0151464 -0.000129965 0
0.0149121 -0.000144829 0
0.0148988 -0.000144071 0
0.0151598 -0.000130723 0
0.0151732 -0.000131588 0
0.0155841 -8.16398e-05 0
0.0152231 -0.000134079 0
0.0153786 -0.000106614 0
0.0154036 -0.00010786 0
0.0151981 -0.000132834 0
0.0151731 -0.000131588 0
0.0152224 -0.000134079 0
0.0146511 -0.000180906 0
0.0151978 -0.000132834 0
0.0149368 -0.000157493 0
0.0149121 -0.000156247 0
0.0138994 -0.000237787 0
0.0131434 -0.00022394 0
0.0139132 -0.000332897 0
0.0135214 -0.000230864 0
0.0135283 -0.000278419 0
0.0139063 -0.000285342 0
0.0138995 -0.000237787 0
0.0138994 -0.000332897 0
0.014553 -0.000237667 0
0.0138994 -0.000285342 0
0.0142262 -0.000285282 0
0.0142263 -0.000237727 0
0.0138994 -0.000238085 0
0.013905 -0.000188727 0
0.0131434 -0.000243746 0
0.0139022 -0.000213406 0
0.0135242 -0.000216236 0
0.0135214 -0.000240916 0
0.0138995 -0.000238085 0
0.014553 -0.000220843 0
0.0139167 -0.000188727 0
0.0142263 -0.000229464 0
0.0142349 -0.000204785 0
0.0139081 -0.000213406 0
0.0138854 -0.000497445 0
0.0144758 -0.000463903 0
0.0139189 -0.000333067 0
0.0141806 -0.000480674 0
0.0141974 -0.000398485 0
0.0139021 -0.000415256 0
0.0138851 -0.000497445 0
0.0138976 -0.000333067 0
0.0131915 -0.000509962 0
0.0138913 -0.000415256 0
0.0135446 -0.000421515 0
0.0135383 -0.000503704 0
0.0138854 -0.000496881 0
0.013859 -0.00074362 0
0.0144758 -0.000470541 0
0.0138722 -0.00062025 0
0.0141674 -0.00060708 0
0.0141806 -0.000483711 0
0.0138851 -0.000496881 0
0.0131915 -0.000497679 0
0.0138843 -0.00074362 0
0.0135383 -0.00049728 0
0.0135379 -0.000620649 0
0.0138847 -0.00062025 0
0.013147 -0.000325603 0
0.0139143 -0.000331776 0
0.0131408 -0.000226519 0
0.0135307 -0.000328689 0
0.0135276 -0.000279147 0
0.0131439 -0.000276061 0
0.013147 -0.000325165 0
0.0131716 -0.000490058 0
0.0139143 -0.000349788 0
0.0131593 -0.000407612 0
0.013543 -0.000419923 0
0.0135307 -0.000337476 0
0.0131468 -0.000325603 0
0.0131245 -0.000226519 0
0.0122771 -0.00030336 0
0.0131356 -0.000276061 0
0.0127008 -0.000264939 0
0.012712 -0.000314481 0
0.0131468 -0.000325165 0
0.0122771 -0.000280964 0
0.013191 -0.000490058 0
0.012712 -0.000303064 0
0.0127341 -0.000385511 0
0.0131689 -0.000407612 0
0.013908 -0.000174707 0
0.0139065 -0.000189164 0
0.0145963 -0.000173283 0
0.0139073 -0.000181935 0
0.0142514 -0.000181223 0
0.0142521 -0.000173995 0
0.0139079 -0.000174707 0
0.0131179 -0.000169201 0
0.0139134 -0.000189164 0
0.0135129 -0.000171954 0
0.0135156 -0.000179183 0
0.0139106 -0.000181935 0
0.013908 -0.000174846 0
0.0145963 -0.000151905 0
0.0139309 -0.000181669 0
0.0142521 -0.000163375 0
0.0142636 -0.000166787 0
0.0139194 -0.000178258 0
0.0139079 -0.000174846 0
0.013925 -0.000181669 0
0.0131179 -0.000191972 0
0.0139165 -0.000178258 0
0.0135215 -0.000186821 0
0.0135129 -0.000183409 0
0.0131078 -0.000184961 0
0.0131266 -0.000226948 0
0.0139201 -0.000203771 0
0.0131172 -0.000205955 0
0.0135233 -0.00021536 0
0.0135139 -0.000194366 0
0.0131078 -0.000185141 0
0.0139201 -0.000182507 0
0.0131104 -0.00017668 0
0.0135139 -0.000183824 0
0.0135152 -0.000179593 0
0.0131091 -0.00018091 0
0.0131077 -0.000184961 0
0.012198 -0.000156226 0
0.0131364 -0.000226948 0
0.0126528 -0.000170594 0
0.0126672 -0.000191587 0
0.0131221 -0.000205955 0
0.0131077 -0.000185141 0
0.0131018 -0.00017668 0
0.012198 -0.000179284 0
0.0131048 -0.00018091 0
0.0126499 -0.000177982 0
0.0126528 -0.000182212 0
0.0137963 -0.00110358 0
0.0138572 -0.000744759 0
0.013221 -0.00116443 0
0.0138267 -0.000924168 0
0.0135391 -0.000954597 0
0.0135087 -0.00113401 0
0.0137967 -0.00110358 0
0.0142726 -0.00100705 0
0.0138933 -0.000744759 0
0.0140347 -0.00105531 0
0.0140829 -0.000875903 0
0.013845 -0.000924168 0
0.0137963 -0.00110272 0
0.013221 -0.0011703 0
0.0137287 -0.00159546 0
0.0135087 -0.00113651 0
0.0134749 -0.00138288 0
0.0137625 -0.00134909 0
0.0137967 -0.00110272 0
0.0136866 -0.00159546 0
0.0142726 -0.000992652 0
0.0137417 -0.00134909 0
0.0139796 -0.00129405 0
0.0140347 -0.00104769 0
0.0131941 -0.000757229 0
0.0131989 -0.00114233 0
0.0138744 -0.000762035 0
0.0131965 -0.000949781 0
0.0135367 -0.000952183 0
0.0135343 -0.000759632 0
0.0131941 -0.000758066 0
0.0138744 -0.000753477 0
0.0131987 -0.000490497 0
0.0135343 -0.000755771 0
0.0135366 -0.000621987 0
0.0131964 -0.000624281 0
0.0131937 -0.000757229 0
0.0124054 -0.000716176 0
0.0132347 -0.00114233 0
0.0127996 -0.000736703 0
0.0128201 -0.000929254 0
0.0132142 -0.000949781 0
0.0131937 -0.000758066 0
0.0131687 -0.000490497 0
0.0124054 -0.0007331 0
0.0131812 -0.000624281 0
0.0127871 -0.000611799 0
0.0127996 -0.000745583 0
0.0131818 -0.00169099 0
0.0136985 -0.0016257 0
0.0132471 -0.00114418 0
0.0134402 -0.00165834 0
0.0134728 -0.00138494 0
0.0132145 -0.00141758 0
0.0131818 -0.00168975 0
0.0131021 -0.00242743 0
0.0136985 -0.00161005 0
0.013142 -0.00205859 0
0.0134003 -0.00201874 0
0.0134402 -0.0016499 0
0.0131812 -0.00169099 0
0.0131958 -0.00114418 0
0.0125565 -0.00170558 0
0.0131885 -0.00141758 0
0.0128762 -0.00142488 0
0.0128689 -0.00169828 0
0.0131812 -0.00168975 0
0.0125565 -0.00170888 0
0.0131621 -0.00242743 0
0.0128689 -0.00169931 0
0.0128593 -0.00206815 0
0.0131717 -0.00205859 0
0.0121586 0.000167184 0
0.0121886 0.000163728 0
0.0111124 0.000137187 0
0.0121736 0.000165456 0
0.0116505 0.000150458 0
0.0116355 0.000152186 0
0.0121586 0.000167184 0
0.0131162 0.000191028 0
0.0121824 0.000163728 0
0.0126374 0.000179106 0
0.0126493 0.000177378 0
0.0121705 0.000165456 0
0.0121586 0.000167232 0
0.0111124 0.000159397 0
0.0121507 0.000191935 0
0.0116355 0.000163314 0
0.0116316 0.000175666 0
0.0121547 0.000179583 0
0.0121586 0.000167232 0
0.0121565 0.000191935 0
0.0131162 0.000169298 0
0.0121576 0.000179583 0
0.0126364 0.000180616 0
0.0126374 0.000168265 0
0.0111272 0.000133792 0
0.0111047 0.000144922 0
0.012196 0.000156281 0
0.0111159 0.000139357 0
0.0116504 0.000150601 0
0.0116616 0.000145037 0
0.0111272 0.000133751 0
0.012196 0.000178172 0
0.0111716 0.00015084 0
0.0116616 0.000155962 0
0.0116838 0.000164506 0
0.0111494 0.000142296 0
0.0111272 0.000133792 0
0.00997601 0.000104673 0
0.0110981 0.000144922 0
0.0105516 0.000119233 0
0.010537 0.000124798 0
0.0111126 0.000139357 0
0.0111272 0.000133751 0
0.0111785 0.00015084 0
0.00997601 8.23763e-05 0
0.0111529 0.000142296 0
0.0105773 0.000116608 0
0.0105516 0.000108064 0
0.0130997 0.000191473 0
0.0121653 0.000206273 0
0.0131145 0.000217462 0
0.0126325 0.000198873 0
0.0126399 0.000211867 0
0.0131071 0.000204467 0
0.0130997 0.000191404 0
0.0131079 0.000177565 0
0.0121653 0.000183154 0
0.0131038 0.000184484 0
0.0126366 0.000180359 0
0.0126325 0.000187279 0
0.0130997 0.000191473 0
0.0131184 0.000217462 0
0.0139385 0.000172763 0
0.0131091 0.000204467 0
0.0135285 0.000195112 0
0.0135191 0.000182118 0
0.0130997 0.000191404 0
0.0139385 0.000195192 0
0.0131035 0.000177565 0
0.0135191 0.000193298 0
0.013521 0.000186378 0
0.0131016 0.000184484 0
0.0110763 0.00018112 0
0.0121631 0.000204302 0
0.0110995 0.000146409 0
0.0116197 0.000192711 0
0.0116313 0.000175356 0
0.0110879 0.000163765 0
0.0110763 0.000181053 0
0.0110725 0.000227036 0
0.0121631 0.000184799 0
0.0110744 0.000204044 0
0.0116178 0.000205917 0
0.0116197 0.000182926 0
0.0110763 0.00018112 0
0.0111029 0.000146409 0
0.00991229 0.000154489 0
0.0110896 0.000163765 0
0.0105076 0.000150449 0
0.0104943 0.000167805 0
0.0110763 0.000181053 0
0.00991229 0.000173326 0
0.0110686 0.000227036 0
0.0104943 0.00017719 0
0.0104904 0.000200181 0
0.0110724 0.000204044 0
0.0121477 0.00022533 0
0.0131269 0.000229924 0
0.0121523 0.000193231 0
0.0126373 0.000227627 0
0.0126396 0.000211578 0
0.01215 0.000209281 0
0.0121477 0.00022533 0
0.0121547 0.000193231 0
0.0110812 0.00021833 0
0.0121512 0.000209281 0
0.011618 0.000205781 0
0.0116145 0.00022183 0
0.0121477 0.000225337 0
0.0121648 0.000260731 0
0.0131269 0.000208217 0
0.0121562 0.000243034 0
0.0126459 0.000234474 0
0.0126373 0.000216777 0
0.0121477 0.000225337 0
0.0110812 0.000240107 0
0.0121624 0.000260731 0
0.0116145 0.000232722 0
0.0116218 0.000250419 0
0.0121551 0.000243034 0
0.0139407 0.000195241 0
0.0139289 0.000182405 0
0.0131289 0.000207013 0
0.0139348 0.000188823 0
0.0135289 0.000194709 0
0.0135348 0.000201127 0
0.0139407 0.000195241 0
0.01465 0.000181304 0
0.0139268 0.000182405 0
0.0142953 0.000188272 0
0.0142884 0.000181855 0
0.0139338 0.000188823 0
0.0139407 0.000195344 0
0.0131289 0.000230849 0
0.0139762 0.000210104 0
0.0135348 0.000213097 0
0.0135525 0.000220476 0
0.0139584 0.000202724 0
0.0139407 0.000195344 0
0.0139776 0.000210104 0
0.01465 0.000158506 0
0.0139591 0.000202724 0
0.0143138 0.000184305 0
0.0142953 0.000176925 0
0.00992571 0.00011918 0
0.01111 0.00015685 0
0.00996337 9.20396e-05 0
0.0105178 0.000138015 0
0.0105367 0.000124445 0
0.00994454 0.00010561 0
0.00992576 0.00011918 0
0.00996655 9.20396e-05 0
0.00867374 7.83938e-05 0
0.00994616 0.00010561 0
0.00932015 8.52167e-05 0
0.00929975 9.87871e-05 0
0.00992571 0.000119062 0
0.00990541 0.000161376 0
0.01111 0.00013936 0
0.00991556 0.000140219 0
0.0105077 0.000150368 0
0.0105178 0.000129211 0
0.00992576 0.000119062 0
0.00867374 9.47029e-05 0
0.00990141 0.000161376 0
0.00929975 0.000106883 0
0.00928757 0.000128039 0
0.00991358 0.000140219 0
0.00869698 5.60204e-05 0
0.00997323 0.000101887 0
0.00874285 4.22479e-05 0
0.00933511 7.89536e-05 0
0.00935804 7.20673e-05 0
0.00871992 4.91342e-05 0
0.00869698 5.58555e-05 0
0.00866748 8.4657e-05 0
0.00997323 8.53623e-05 0
0.00868223 7.02562e-05 0
0.00932035 8.50097e-05 0
0.00933511 7.06089e-05 0
0.00869707 5.60204e-05 0
0.0087444 4.22479e-05 0
0.00736223 8.68945e-06 0
0.00872073 4.91342e-05 0
0.00805332 2.54687e-05 0
0.00802965 3.23549e-05 0
0.00869707 5.58555e-05 0
0.00736223 2.35649e-05 0
0.00866478 8.4657e-05 0
0.00802965 3.97102e-05 0
0.0080135 5.41109e-05 0
0.00868092 7.02562e-05 0
0.0146659 0.000171648 0
0.0147141 0.000165995 0
0.0152335 0.000123436 0
0.01469 0.000168822 0
0.0149738 0.000144716 0
0.0149497 0.000147542 0
0.0146659 0.000171509 0
0.0152335 0.000145142 0
0.0146395 0.000169316 0
0.0149497 0.000158325 0
0.0149365 0.000157229 0
0.0146527 0.000170412 0
0.0146658 0.000171648 0
0.0139895 0.000221299 0
0.0147155 0.000165995 0
0.0143277 0.000196474 0
0.0143525 0.000193647 0
0.0146907 0.000168822 0
0.0146658 0.000171509 0
0.0146391 0.000169316 0
0.0139895 0.0001982 0
0.0146525 0.000170412 0
0.0143143 0.000183758 0
0.0143277 0.000184854 0
0.015255 0.000121249 0
0.0152225 0.000134431 0
0.0147264 0.000153716 0
0.0152387 0.00012784 0
0.0149744 0.000144073 0
0.0149907 0.000137483 0
0.015255 0.000121249 0
0.0156704 9.12095e-05 0
0.015225 0.000134431 0
0.0154627 0.000106229 0
0.0154477 0.00011282 0
0.01524 0.00012784 0
0.015255 0.000121407 0
0.0147264 0.000173641 0
0.0153072 9.31643e-05 0
0.0149907 0.000147524 0
0.0150168 0.000133402 0
0.0152811 0.000107286 0
0.015255 0.000121407 0
0.0153036 9.31643e-05 0
0.0156704 7.28659e-05 0
0.0152793 0.000107286 0
0.015487 8.30151e-05 0
0.0154627 9.71367e-05 0
0.0156071 8.94178e-05 0
0.0155737 9.19828e-05 0
0.0152343 0.000122845 0
0.0155904 9.07003e-05 0
0.015404 0.000107414 0
0.0154207 0.000106132 0
0.0156071 8.95103e-05 0
0.0152343 0.000143775 0
0.0156614 8.22482e-05 0
0.0154207 0.000116643 0
0.0154479 0.000113012 0
0.0156343 8.58792e-05 0
0.0156072 8.94178e-05 0
0.0158655 5.62818e-05 0
0.015574 9.19828e-05 0
0.0157363 7.28498e-05 0
0.0157198 7.41323e-05 0
0.0155906 9.07003e-05 0
0.0156072 8.95103e-05 0
0.0156604 8.22482e-05 0
0.0158655 3.62758e-05 0
0.0156338 8.58792e-05 0
0.015763 5.9262e-05 0
0.0157363 6.2893e-05 0
0.0140057 0.000202386 0
0.0147252 0.000175725 0
0.013979 0.000210877 0
0.0143655 0.000189055 0
0.0143521 0.000193301 0
0.0139924 0.000206632 0
0.0140056 0.000202386 0
0.0139761 0.000210877 0
0.0131805 0.000231937 0
0.0139908 0.000206632 0
0.0135783 0.000221407 0
0.0135931 0.000217162 0
0.0140057 0.000202579 0
0.0140538 0.000173716 0
0.0147252 0.000154447 0
0.0140298 0.000188147 0
0.0143895 0.000164082 0
0.0143655 0.000178513 0
0.0140056 0.000202579 0
0.0131805 0.000255137 0
0.0140582 0.000173716 0
0.0135931 0.000228858 0
0.0136194 0.000214427 0
0.0140319 0.000188147 0
0.0131305 0.000235764 0
0.0139879 0.000221812 0
0.0131165 0.000218525 0
0.0135592 0.000228788 0
0.0135522 0.000220168 0
0.0131235 0.000227145 0
0.0131305 0.000235865 0
0.0131673 0.000245184 0
0.0139879 0.000199053 0
0.0131489 0.000240524 0
0.0135776 0.000222118 0
0.0135592 0.000217459 0
0.0131304 0.000235764 0
0.0131166 0.000218525 0
0.0121759 0.00024958 0
0.0131235 0.000227145 0
0.0126463 0.000234052 0
0.0126532 0.000242672 0
0.0131304 0.000235865 0
0.0121759 0.000273342 0
0.0131679 0.000245184 0
0.0126532 0.000254603 0
0.0126719 0.000259263 0
0.0131492 0.000240524 0
0.0159238 0 0
0.0158657 5.49569e-05 0
0.0159788 0 0
0.0158948 2.74784e-05 0
0.0159223 2.74784e-05 0
0.0159513 0 0
0.0159238 0 0
0.0158884 0 0
0.0158657 3.53812e-05 0
0.0159061 0 0
0.0158771 1.76906e-05 0
0.0158948 1.76906e-05 0
0.0159238 0 0
0.0159788 0 0
0.0158657 -5.49569e-05 0
0.0159513 0 0
0.0159223 -2.74785e-05 0
0.0158948 -2.74785e-05 0
0.0159238 0 0
0.0158657 -3.53813e-05 0
0.0158884 0 0
0.0158948 -1.76906e-05 0
0.0158771 -1.76906e-05 0
0.0159061 0 0
0.0158876 4.00078e-05 0
0.015988 9.16914e-06 0
0.0158568 4.59597e-05 0
0.0159378 2.45885e-05 0
0.0159224 2.75644e-05 0
0.0158722 4.29838e-05 0
0.0158876 4.00078e-05 0
0.0158558 4.59597e-05 0
0.0156709 7.17709e-05 0
0.0158717 4.29838e-05 0
0.0157633 5.88653e-05 0
0.0157792 5.58894e-05 0
0.0158876 4.00674e-05 0
0.0159351 2.86346e-05 0
0.015988 -7.40991e-06 0
0.0159113 3.4351e-05 0
0.0159615 1.06123e-05 0
0.0159378 1.63287e-05 0
0.0158876 4.00674e-05 0
0.0156709 8.89453e-05 0
0.0159364 2.86346e-05 0
0.0157792 6.45063e-05 0
0.0158037 5.87899e-05 0
0.015912 3.4351e-05 0
0.0158876 -4.00078e-05 0
0.0158568 -4.59598e-05 0
0.015988 -9.16917e-06 0
0.0158722 -4.29838e-05 0
0.0159224 -2.75645e-05 0
0.0159378 -2.45885e-05 0
0.0158876 -4.00078e-05 0
0.0156709 -7.1771e-05 0
0.0158558 -4.59598e-05 0
0.0157792 -5.58894e-05 0
0.0157633 -5.88654e-05 0
0.0158717 -4.29838e-05 0
0.0158876 -4.00674e-05 0
0.015988 7.40988e-06 0
0.0159351 -2.86346e-05 0
0.0159378 -1.63288e-05 0
0.0159615 -1.06124e-05 0
0.0159113 -3.4351e-05 0
0.0158876 -4.00674e-05 0
0.0159364 -2.86346e-05 0
0.0156709 -8.89453e-05 0
0.015912 -3.4351e-05 0
0.0158037 -5.879e-05 0
0.0157792 -6.45064e-05 0
0.0156072 -8.94179e-05 0
0.015574 -9.19829e-05 0
0.0158655 -5.62818e-05 0
0.0155906 -9.07004e-05 0
0.0157198 -7.41323e-05 0
0.0157363 -7.28498e-05 0
0.0156072 -8.95103e-05 0
0.0158655 -3.62758e-05 0
0.0156604 -8.22482e-05 0
0.0157363 -6.2893e-05 0
0.015763 -5.9262e-05 0
0.0156338 -8.58792e-05 0
0.0156071 -8.94179e-05 0
0.0152343 -0.000122845 0
0.0155737 -9.19829e-05 0
0.0154207 -0.000106132 0
0.015404 -0.000107414 0
0.0155904 -9.07004e-05 0
0.0156071 -8.95103e-05 0
0.0156614 -8.22482e-05 0
0.0152343 -0.000143775 0
0.0156343 -8.58792e-05 0
0.0154479 -0.000113012 0
0.0154207 -0.000116643 0
0.0156862 5.70619e-05 0
0.0153144 9.61577e-05 0
0.0157253 1.41267e-05 0
0.0155003 7.66098e-05 0
0.0155199 5.51422e-05 0
0.0157058 3.55943e-05 0
0.0156862 5.69176e-05 0
0.0156608 8.24164e-05 0
0.0153144 8.23195e-05 0
0.0156735 6.9667e-05 0
0.0154876 8.2368e-05 0
0.0155003 6.96186e-05 0
0.0156863 5.70619e-05 0
0.0157207 1.41267e-05 0
0.0159428 2.26016e-05 0
0.0157035 3.55943e-05 0
0.0158318 1.83642e-05 0
0.0158145 3.98318e-05 0
0.0156863 5.69176e-05 0
0.0159428 3.49968e-05 0
0.0156644 8.24164e-05 0
0.0158145 4.59572e-05 0
0.0158036 5.87066e-05 0
0.0156753 6.9667e-05 0
0.0147464 0.0001268 0
0.0153136 9.96229e-05 0
0.0147192 0.000166458 0
0.01503 0.000113211 0
0.0150164 0.00013304 0
0.0147328 0.000146629 0
0.0147464 0.000127054 0
0.0147901 5.63366e-05 0
0.0153136 8.33253e-05 0
0.0147683 9.16952e-05 0
0.0150519 6.9831e-05 0
0.01503 0.00010519 0
0.0147463 0.0001268 0
0.0147132 0.000166458 0
0.0140677 0.000159857 0
0.0147297 0.000146629 0
0.0143905 0.000163158 0
0.014407 0.000143329 0
0.0147463 0.000127054 0
0.0140677 0.000178695 0
0.0147979 5.63366e-05 0
0.014407 0.000152874 0
0.0144328 0.000117516 0
0.0147721 9.16952e-05 0
0.0153217 2.63801e-05 0
0.0157275 1.63038e-05 0
0.0153116 9.33539e-05 0
0.0155246 2.1342e-05 0
0.0155196 5.48288e-05 0
0.0153167 5.9867e-05 0
0.0153216 2.63801e-05 0
0.0153036 9.33539e-05 0
0.0148021 4.43232e-05 0
0.0153126 5.9867e-05 0
0.0150529 6.88385e-05 0
0.0150618 3.53517e-05 0
0.0153217 2.66432e-05 0
0.0153396 -7.69717e-05 0
0.0157275 8.74638e-06 0
0.0153306 -2.51642e-05 0
0.0155335 -3.41126e-05 0
0.0155246 1.76948e-05 0
0.0153216 2.66432e-05 0
0.0148021 5.45118e-05 0
0.0153494 -7.69717e-05 0
0.0150618 4.05775e-05 0
0.0150758 -1.12299e-05 0
0.0153355 -2.51642e-05 0
0.0160012 0 0
0.0159805 0 0
0.015943 2.06657e-05 0
0.0159909 0 0
0.0159618 1.03329e-05 0
0.0159721 1.03329e-05 0
0.0160012 0 0
0.015943 3.20975e-05 0
0.0160333 0 0
0.0159721 1.60488e-05 0
0.0159882 1.60488e-05 0
0.0160173 0 0
0.0160012 0 0
0.015943 -2.06658e-05 0
0.0159805 0 0
0.0159721 -1.03329e-05 0
0.0159618 -1.03329e-05 0
0.0159909 0 0
0.0160012 0 0
0.0160333 0 0
0.015943 -3.20976e-05 0
0.0160173 0 0
0.0159882 -1.60488e-05 0
0.0159721 -1.60488e-05 0
0.0159398 3.85945e-06 0
0.0159367 2.86767e-05 0
0.0157279 6.96768e-06 0
0.0159383 1.62681e-05 0
0.0158323 1.78222e-05 0
0.0158339 5.41356e-06 0
0.0159399 3.85945e-06 0
0.0160369 3.59582e-06 0
0.0159396 2.86767e-05 0
0.0159884 3.72764e-06 0
0.0159883 1.61363e-05 0
0.0159397 1.62681e-05 0
0.0159398 3.9503e-06 0
0.0157279 1.19072e-05 0
0.0159478 -3.37861e-05 0
0.0158339 7.92875e-06 0
0.0158378 -1.09394e-05 0
0.0159438 -1.49179e-05 0
0.0159399 3.9503e-06 0
0.0159443 -3.37861e-05 0
0.0160369 -4.35216e-07 0
0.0159421 -1.49179e-05 0
0.0159906 -1.71106e-05 0
0.0159884 1.75754e-06 0
0.0110646 0.000266557 0
0.0110797 0.000300252 0
0.0121735 0.000251464 0
0.0110721 0.000283405 0
0.0116266 0.000275858 0
0.0116191 0.00025901 0
0.0110646 0.000266597 0
0.0121735 0.000271812 0
0.0110698 0.000228691 0
0.0116191 0.000269204 0
0.0116217 0.000250251 0
0.0110672 0.000247644 0
0.0110646 0.000266557 0
0.00987838 0.000280251 0
0.0110783 0.000300252 0
0.0104715 0.000273404 0
0.0104783 0.000290252 0
0.0110715 0.000283405 0
0.0110646 0.000266597 0
0.0110709 0.000228691 0
0.00987838 0.000260298 0
0.0110678 0.000247644 0
0.0104747 0.000244494 0
0.0104715 0.000263447 0
0.0121802 0.000271314 0
0.0121629 0.000262116 0
0.0110913 0.000288626 0
0.0121715 0.000266715 0
0.0116271 0.000275371 0
0.0116358 0.00027997 0
0.0121802 0.000271314 0
0.0131785 0.000255791 0
0.0121647 0.000262116 0
0.0126794 0.000263552 0
0.0126716 0.000258953 0
0.0121725 0.000266715 0
0.0121802 0.000271432 0
0.0110913 0.000312598 0
0.0122214 0.000261886 0
0.0116358 0.000292015 0
0.0116563 0.000287242 0
0.0122008 0.000266659 0
0.0121802 0.000271432 0
0.0122187 0.000261886 0
0.0131785 0.000232997 0
0.0121995 0.000266659 0
0.0126986 0.000247441 0
0.0126794 0.000252214 0
0.00987854 0.000213361 0
0.00990429 0.000163172 0
0.00861418 0.000187616 0
0.00989142 0.000188267 0
0.00925924 0.000175394 0
0.00924636 0.000200488 0
0.00987847 0.000213361 0
0.0110786 0.000237035 0
0.00990214 0.000163172 0
0.0104785 0.000225198 0
0.0104904 0.000200103 0
0.0098903 0.000188267 0
0.00987854 0.000213208 0
0.00861418 0.000202081 0
0.00986742 0.000268041 0
0.00924636 0.000207644 0
0.0092408 0.000235061 0
0.00987298 0.000240624 0
0.00987847 0.000213208 0
0.00987064 0.000268041 0
0.0110786 0.000221033 0
0.00987455 0.000240624 0
0.0104746 0.000244537 0
0.0104785 0.000217121 0
0.00863182 0.000135548 0
0.00860945 0.000192348 0
0.00990954 0.00015792 0
0.00862064 0.000163948 0
0.0092595 0.000175134 0
0.00927068 0.000146734 0
0.00863182 0.000135764 0
0.00990954 0.000169512 0
0.00866557 8.65351e-05 0
0.00927068 0.000152638 0
0.00928756 0.000128024 0
0.0086487 0.000111149 0
0.00863193 0.000135548 0
0.00730154 0.000110121 0
0.0086065 0.000192348 0
0.00796674 0.000122835 0
0.00795402 0.000151235 0
0.00861922 0.000163948 0
0.00863193 0.000135764 0
0.00866701 8.65351e-05 0
0.00730154 0.000100683 0
0.00864947 0.000111149 0
0.00798428 9.36088e-05 0
0.00796674 0.000118223 0
0.00985992 0.000301997 0
0.0110883 0.00031025 0
0.00986817 0.000270042 0
0.0104741 0.000306123 0
0.0104782 0.000290146 0
0.00986405 0.000286019 0
0.00985996 0.000301997 0
0.0098688 0.000270042 0
0.00856576 0.00029316 0
0.00986438 0.000286019 0
0.00921728 0.000281601 0
0.00921286 0.000297578 0
0.00985992 0.000301918 0
0.00987098 0.000324033 0
0.0110883 0.000290857 0
0.00986545 0.000312975 0
0.0104796 0.000307445 0
0.0104741 0.000296388 0
0.00985996 0.000301918 0
0.00856576 0.000311765 0
0.00986981 0.000324033 0
0.00921286 0.000306841 0
0.00921778 0.000317899 0
0.00986488 0.000312975 0
0.00857689 0.000246345 0
0.00987526 0.000275887 0
0.00860643 0.000194326 0
0.00922608 0.000261116 0
0.00924085 0.000235106 0
0.00859166 0.000220336 0
0.00857689 0.000246123 0
0.00855943 0.000299484 0
0.00987526 0.000263576 0
0.00856816 0.000272804 0
0.00921735 0.00028153 0
0.00922608 0.00025485 0
0.008577 0.000246345 0
0.00860838 0.000194326 0
0.00722876 0.000214965 0
0.00859269 0.000220336 0
0.00791857 0.000204646 0
0.00790288 0.000230655 0
0.008577 0.000246123 0
0.00722876 0.000225056 0
0.00855593 0.000299484 0
0.00790288 0.00023559 0
0.00789235 0.00026227 0
0.00856647 0.000272804 0
0.0132011 0.000211488 0
0.0132522 0.000139974 0
0.0140662 0.000160368 0
0.0132266 0.000175731 0
0.0136592 0.000150171 0
0.0136336 0.000185928 0
0.0132011 0.000211208 0
0.0140662 0.00018173 0
0.0131716 0.000246172 0
0.0136336 0.000196469 0
0.0136189 0.000213951 0
0.0131863 0.00022869 0
0.0132009 0.000211488 0
0.0122338 0.000270941 0
0.0132604 0.000139974 0
0.0127174 0.000241214 0
0.0127471 0.000205457 0
0.0132306 0.000175731 0
0.0132009 0.000211208 0
0.0131653 0.000246172 0
0.0122338 0.00024678 0
0.0131831 0.00022869 0
0.0126996 0.000246476 0
0.0127174 0.000228994 0
0.0140896 8.61244e-05 0
0.0140523 0.000174252 0
0.0132687 0.000123425 0
0.014071 0.000130188 0
0.0136605 0.000148839 0
0.0136792 0.000104775 0
0.0140898 8.61244e-05 0
0.0148012 5.95807e-05 0
0.0140633 0.000174252 0
0.0144455 7.28526e-05 0
0.0144322 0.000116917 0
0.0140765 0.000130188 0
0.0140896 8.65192e-05 0
0.0132687 0.000142097 0
0.0141452 -5.49454e-05 0
0.0136792 0.000114308 0
0.013707 4.35758e-05 0
0.0141174 1.57869e-05 0
0.0140898 8.65192e-05 0
0.0141315 -5.49454e-05 0
0.0148012 4.48564e-05 0
0.0141106 1.57869e-05 0
0.0144663 -5.04448e-06 0
0.0144455 6.56878e-05 0
0.011099 0.000290009 0
0.0122312 0.000271758 0
0.0110807 0.000301996 0
0.0116651 0.000280884 0
0.011656 0.000286877 0
0.0110898 0.000296003 0
0.011099 0.000290166 0
0.0111414 0.000247997 0
0.0122312 0.000247684 0
0.0111202 0.000269081 0
0.0116863 0.000247841 0
0.0116651 0.000268925 0
0.0110989 0.000290009 0
0.0110772 0.000301996 0
0.00988329 0.000311728 0
0.011088 0.000296003 0
0.0104802 0.000306862 0
0.0104911 0.000300869 0
0.0110989 0.000290166 0
0.00988329 0.000337368 0
0.0111461 0.000247997 0
0.0104911 0.000313767 0
0.0105147 0.000292683 0
0.0111225 0.000269081 0
0.0122627 0.000183206 0
0.0132668 0.000146448 0
0.012226 0.000263107 0
0.0127648 0.000164827 0
0.0127464 0.000204777 0
0.0122443 0.000223156 0
0.0122625 0.000183206 0
0.0122158 0.000263107 0
0.0111595 0.000229905 0
0.0122392 0.000223156 0
0.0116877 0.000246506 0
0.011711 0.000206556 0
0.0122627 0.000183621 0
0.0123231 4.69282e-05 0
0.0132668 0.000123265 0
0.0122929 0.000115275 0
0.012795 8.50967e-05 0
0.0127648 0.000153443 0
0.0122625 0.000183621 0
0.0111595 0.00025724 0
0.0123361 4.69282e-05 0
0.011711 0.00022043 0
0.0117478 0.000152084 0
0.0122993 0.000115275 0
0.00732347 5.78957e-05 0
0.0073558 1.75929e-05 0
0.00593351 2.5563e-05 0
0.00733964 3.77443e-05 0
0.00664466 2.1578e-05 0
0.00662849 4.17294e-05 0
0.00732335 5.78957e-05 0
0.00867093 9.08082e-05 0
0.00735626 1.75929e-05 0
0.00799714 7.4352e-05 0
0.00801359 5.42005e-05 0
0.0073398 3.77443e-05 0
0.00732347 5.76523e-05 0
0.00593351 3.13162e-05 0
0.00729713 0.000103843 0
0.00662849 4.44842e-05 0
0.00661532 6.75796e-05 0
0.0073103 8.07477e-05 0
0.00732335 5.76523e-05 0
0.00729838 0.000103843 0
0.00867093 8.26207e-05 0
0.00731086 8.07477e-05 0
0.00798465 9.32319e-05 0
0.00799714 7.01365e-05 0
0.00594685 -2.04518e-06 0
0.00593068 2.83974e-05 0
0.00735926 1.41312e-05 0
0.00593877 1.31761e-05 0
0.00664497 2.12643e-05 0
0.00665306 6.04303e-06 0
0.00594685 -1.77906e-06 0
0.00735926 1.99359e-05 0
0.00596857 -3.05314e-05 0
0.00665306 9.07842e-06 0
0.00666392 -5.29775e-06 0
0.00595771 -1.61552e-05 0
0.00594699 -2.04518e-06 0
0.00450289 -1.74561e-05 0
0.00593158 2.83974e-05 0
0.00522494 -9.75065e-06 0
0.00521723 5.47065e-06 0
0.00593928 1.31761e-05 0
0.00594699 -1.77906e-06 0
0.00596581 -3.05314e-05 0
0.00450289 -2.05995e-05 0
0.0059564 -1.61552e-05 0
0.00523435 -2.55655e-05 0
0.00522494 -1.11893e-05 0
0.00590056 7.41845e-05 0
0.00729899 0.000105702 0
0.00593207 2.9879e-05 0
0.00659977 8.99431e-05 0
0.00661553 6.77903e-05 0
0.00591632 5.20318e-05 0
0.00590056 7.39601e-05 0
0.00586979 0.000120367 0
0.00729899 0.000104729 0
0.00588517 9.71635e-05 0
0.00658439 0.000112548 0
0.00659977 8.93443e-05 0
0.00590067 7.41845e-05 0
0.00593133 2.9879e-05 0
0.00447307 4.35264e-05 0
0.005916 5.20318e-05 0
0.0052022 3.67027e-05 0
0.00518687 5.88555e-05 0
0.00590067 7.39601e-05 0
0.00447307 4.22547e-05 0
0.00586896 0.000120367 0
0.00518687 5.81074e-05 0
0.00517101 8.13108e-05 0
0.00588482 9.71635e-05 0
0.00725921 0.000159282 0
0.00861126 0.000197104 0
0.00729703 0.000105609 0
0.00793523 0.000178193 0
0.00795414 0.000151357 0
0.00727812 0.000132446 0
0.00725934 0.000159282 0
0.00729811 0.000105609 0
0.00586965 0.000120508 0
0.00727872 0.000132446 0
0.00658388 0.000113059 0
0.00656449 0.000139895 0
0.00725921 0.000159022 0
0.00722678 0.000216945 0
0.00861126 0.000191445 0
0.007243 0.000187983 0
0.00791902 0.000204195 0
0.00793523 0.000175234 0
0.00725934 0.000159022 0
0.00586965 0.000123561 0
0.00722388 0.000216945 0
0.00656449 0.000141291 0
0.00654676 0.000170253 0
0.00724161 0.000187983 0
0.00448962 1.39448e-05 0
0.00593138 2.82068e-05 0
0.00450388 -1.64613e-05 0
0.0052105 2.10758e-05 0
0.00521763 5.87272e-06 0
0.00449675 -1.25828e-06 0
0.0044897 1.39448e-05 0
0.00450172 -1.64613e-05 0
0.00302512 1.91719e-06 0
0.00449571 -1.25828e-06 0
0.00376342 -7.27206e-06 0
0.00375741 7.93097e-06 0
0.00448962 1.37917e-05 0
0.00447359 4.30006e-05 0
0.00593138 2.98216e-05 0
0.00448161 2.83962e-05 0
0.00520249 3.64111e-05 0
0.0052105 2.18067e-05 0
0.0044897 1.37917e-05 0
0.00302512 -1.22798e-06 0
0.00447468 4.30006e-05 0
0.00375741 6.28187e-06 0
0.0037499 2.08863e-05 0
0.00448219 2.83962e-05 0
0.00302186 -1.23677e-05 0
0.00450117 -1.8754e-05 0
0.00301547 -2.84154e-05 0
0.00376152 -1.55608e-05 0
0.00375832 -2.35847e-05 0
0.00301867 -2.03915e-05 0
0.00302186 -1.24244e-05 0
0.00302535 1.68994e-06 0
0.00450117 -1.59112e-05 0
0.0030236 -5.36721e-06 0
0.00376326 -7.11061e-06 0
0.00376152 -1.41678e-05 0
0.00302189 -1.23677e-05 0
0.00301373 -2.84154e-05 0
0.00152636 -4.21178e-06 0
0.00301781 -2.03915e-05 0
0.00227005 -1.63136e-05 0
0.00227413 -8.28973e-06 0
0.00302189 -1.24244e-05 0
0.00152636 -7.62126e-06 0
0.00302669 1.68994e-06 0
0.00227413 -1.00228e-05 0
0.00227653 -2.96566e-06 0
0.00302429 -5.36721e-06 0
0.0125879 -0.00246803 0
0.0125186 -0.00167523 0
0.0119293 -0.00239869 0
0.0125533 -0.00207163 0
0.0122239 -0.00203696 0
0.0122586 -0.00243336 0
0.0125888 -0.00246803 0
0.0131228 -0.00246672 0
0.0125902 -0.00167523 0
0.0128558 -0.00246738 0
0.0128565 -0.00207098 0
0.0125895 -0.00207163 0
0.0125879 -0.00246624 0
0.0119293 -0.00239554 0
0.0126586 -0.00352659 0
0.0122586 -0.00243089 0
0.012294 -0.00296106 0
0.0126233 -0.00299642 0
0.0125888 -0.00246624 0
0.0125745 -0.00352659 0
0.0131228 -0.00245195 0
0.0125817 -0.00299642 0
0.0128487 -0.00298927 0
0.0128558 -0.0024591 0
0.01172 -0.00155543 0
0.0118791 -0.0023485 0
0.0125579 -0.00171457 0
0.0117995 -0.00195196 0
0.0122185 -0.00203153 0
0.012139 -0.001635 0
0.01172 -0.00155724 0
0.0125579 -0.00168704 0
0.0115902 -0.000985919 0
0.012139 -0.00162214 0
0.0120741 -0.00133648 0
0.0116551 -0.00127158 0
0.0117191 -0.00155543 0
0.0107426 -0.00132839 0
0.0119461 -0.0023485 0
0.0112308 -0.00144191 0
0.0113444 -0.00183844 0
0.0118326 -0.00195196 0
0.0117191 -0.00155724 0
0.0115358 -0.000985919 0
0.0107426 -0.00137401 0
0.0116275 -0.00127158 0
0.0111392 -0.00117997 0
0.0112308 -0.00146563 0
0.0124609 -0.00110779 0
0.0125233 -0.00167237 0
0.0132218 -0.00117017 0
0.0124921 -0.00139008 0
0.0128726 -0.00142127 0
0.0128414 -0.00113898 0
0.0124603 -0.00110779 0
0.0115806 -0.000995507 0
0.0125726 -0.00167237 0
0.0120205 -0.00105165 0
0.0120766 -0.00133394 0
0.0125165 -0.00139008 0
0.0124609 -0.00110902 0
0.0132218 -0.00115527 0
0.0124147 -0.000706915 0
0.0128414 -0.00113214 0
0.0128182 -0.000931092 0
0.0124378 -0.000907966 0
0.0124603 -0.00110902 0
0.012374 -0.000706915 0
0.0115806 -0.00102265 0
0.0124171 -0.000907966 0
0.0119773 -0.000864784 0
0.0120205 -0.00106584 0
0.0120815 -0.00346767 0
0.012608 -0.00357719 0
0.011972 -0.00235287 0
0.0123448 -0.00352243 0
0.01229 -0.00296503 0
0.0120267 -0.00291027 0
0.0120815 -0.003465 0
0.0121812 -0.00495629 0
0.012608 -0.00356471 0
0.0121313 -0.00421064 0
0.0123946 -0.0042605 0
0.0123448 -0.00351485 0
0.0120802 -0.00346767 0
0.0118721 -0.00235287 0
0.0114008 -0.00325961 0
0.0119761 -0.00291027 0
0.0116365 -0.00280624 0
0.0117405 -0.00336364 0
0.0120802 -0.003465 0
0.0114008 -0.00324537 0
0.0122998 -0.00495629 0
0.0117405 -0.00335518 0
0.0118503 -0.00410083 0
0.01219 -0.00421064 0
0.0124804 -0.00490439 0
0.012635 -0.00470279 0
0.012682 -0.003532 0
0.0125577 -0.00480359 0
0.0126585 -0.0041174 0
0.0125812 -0.0042182 0
0.0124797 -0.00490439 0
0.0125753 -0.003532 0
0.0122249 -0.00500002 0
0.0125275 -0.0042182 0
0.0124001 -0.00426601 0
0.0123523 -0.00495221 0
0.0124804 -0.00490297 0
0.0121919 -0.00664197 0
0.012635 -0.0046144 0
0.0123361 -0.00577247 0
0.0124134 -0.00562818 0
0.0125577 -0.00475868 0
0.0124797 -0.00490297 0
0.0122249 -0.00507418 0
0.0123085 -0.00664197 0
0.0123523 -0.00498858 0
0.0122667 -0.00585808 0
0.0123941 -0.00577247 0
0.0114202 -0.000616072 0
0.0124048 -0.000705562 0
0.0113307 -0.000363349 0
0.0119125 -0.000660817 0
0.0118677 -0.000534455 0
0.0113755 -0.000489711 0
0.0114202 -0.000615185 0
0.0115428 -0.000984826 0
0.0124048 -0.00073774 0
0.0114815 -0.000800006 0
0.0119738 -0.000861283 0
0.0119125 -0.000676463 0
0.0114198 -0.000616072 0
0.011304 -0.000363349 0
0.0103219 -0.000500305 0
0.0113619 -0.000489711 0
0.010813 -0.000431827 0
0.0108708 -0.000558189 0
0.0114198 -0.000615185 0
0.0103219 -0.000459256 0
0.0115757 -0.000984826 0
0.0108708 -0.000537221 0
0.0109488 -0.000722041 0
0.0114977 -0.000800006 0
0.012315 -0.0004495 0
0.0113338 -0.000360275 0
0.0124042 -0.000706153 0
0.0118244 -0.000404888 0
0.011869 -0.000533214 0
0.0123596 -0.000577827 0
0.0123153 -0.0004495 0
0.0123785 -0.000706153 0
0.0131909 -0.00051269 0
0.0123469 -0.000577827 0
0.0127847 -0.000609422 0
0.0127531 -0.000481095 0
0.012315 -0.00045013 0
0.012254 -0.000282811 0
0.0113338 -0.000389154 0
0.0122845 -0.000366471 0
0.0117939 -0.000335983 0
0.0118244 -0.000419642 0
0.0123153 -0.00045013 0
0.0131909 -0.000490112 0
0.0122753 -0.000282811 0
0.0127531 -0.000470121 0
0.0127331 -0.000386461 0
0.0122953 -0.000366471 0
0.0104758 -0.000817837 0
0.00924601 -0.000564338 0
0.0107293 -0.00131978 0
0.00986091 -0.000691088 0
0.00998766 -0.000942061 0
0.0106026 -0.00106881 0
0.0104764 -0.000817837 0
0.0106884 -0.00131978 0
0.0115797 -0.00102979 0
0.0105824 -0.00106881 0
0.011134 -0.00117479 0
0.0110281 -0.000923816 0
0.0104758 -0.000819067 0
0.0102824 -0.000466501 0
0.00924601 -0.000625631 0
0.0103791 -0.000642784 0
0.00976419 -0.000546066 0
0.00986091 -0.000722349 0
0.0104764 -0.000819067 0
0.0115797 -0.000980794 0
0.0103147 -0.000466501 0
0.0110281 -0.000899931 0
0.0109472 -0.000723648 0
0.0103956 -0.000642784 0
0.0110111 -0.00210177 0
0.0119316 -0.00236296 0
0.0107499 -0.00132112 0
0.0114714 -0.00223237 0
0.0113408 -0.00184204 0
0.0108805 -0.00171144 0
0.0110097 -0.00210177 0
0.0106778 -0.00132112 0
0.00991772 -0.00176985 0
0.0108437 -0.00171144 0
0.0102977 -0.00154548 0
0.0104637 -0.00193581 0
0.0110111 -0.00209901 0
0.0113245 -0.00318325 0
0.0119316 -0.00241242 0
0.0111678 -0.00264113 0
0.0116281 -0.00279784 0
0.0114714 -0.00225572 0
0.0110097 -0.00209901 0
0.00991772 -0.00169283 0
0.0114159 -0.00318325 0
0.0104637 -0.00189592 0
0.0106668 -0.00243804 0
0.0112128 -0.00264113 0
0.00949549 -0.00104274 0
0.0107411 -0.00130803 0
0.00923019 -0.00058016 0
0.0101183 -0.00117539 0
0.00998562 -0.000944096 0
0.00936284 -0.00081145 0
0.00949549 -0.00104106 0
0.00983882 -0.00169096 0
0.0107411 -0.0013844 0
0.00966715 -0.00136601 0
0.0102899 -0.00153768 0
0.0101183 -0.00121273 0
0.00949464 -0.00104274 0
0.0091927 -0.00058016 0
0.00810294 -0.0007408 0
0.00934367 -0.00081145 0
0.00864782 -0.00066048 0
0.00879879 -0.00089177 0
0.00949464 -0.00104106 0
0.00810294 -0.000647623 0
0.00988808 -0.00169096 0
0.00879879 -0.000844341 0
0.00899551 -0.00116929 0
0.00969136 -0.00136601 0
0.0101688 -0.000270822 0
0.0102891 -0.000467455 0
0.0113317 -0.000391076 0
0.010229 -0.000369138 0
0.0108104 -0.000429266 0
0.0107503 -0.000330949 0
0.0101686 -0.000270822 0
0.00891109 -0.00013374 0
0.0103057 -0.000467455 0
0.00953986 -0.000202281 0
0.0096084 -0.000300598 0
0.0102372 -0.000369138 0
0.0101688 -0.000271222 0
0.0113317 -0.000355762 0
0.0100843 -0.000144403 0
0.0107503 -0.000313492 0
0.010708 -0.000250082 0
0.0101266 -0.000207813 0
0.0101686 -0.000271222 0
0.0100705 -0.000144403 0
0.00891109 -0.000173063 0
0.0101195 -0.000207813 0
0.00949078 -0.000158733 0
0.00953986 -0.000222143 0
0.0090251 -0.000325526 0
0.00920258 -0.000582192 0
0.0103189 -0.000502998 0
0.00911384 -0.000453859 0
0.00976072 -0.000542595 0
0.00967198 -0.000414262 0
0.0090251 -0.000325958 0
0.0103189 -0.000454303 0
0.00889676 -0.000148071 0
0.00967198 -0.00039013 0
0.00960781 -0.000301187 0
0.00896093 -0.000237015 0
0.00902489 -0.000325526 0
0.00763546 -0.000131363 0
0.00921905 -0.000582192 0
0.00833017 -0.000228444 0
0.00842726 -0.000356777 0
0.00912197 -0.000453859 0
0.00902489 -0.000325958 0
0.00888331 -0.000148071 0
0.00763546 -0.000184379 0
0.0089541 -0.000237015 0
0.00825938 -0.000166225 0
0.00833017 -0.000255168 0
0.0112315 -0.000227389 0
0.0113085 -0.000363893 0
0.0122756 -0.000304384 0
0.01127 -0.000295641 0
0.011792 -0.000334138 0
0.0117535 -0.000265887 0
0.0112315 -0.000227712 0
0.0122756 -0.000277363 0
0.0111819 -0.000149631 0
0.0117535 -0.000252538 0
0.0117287 -0.000213497 0
0.0112067 -0.000188671 0
0.0112314 -0.000227389 0
0.0100935 -0.000135171 0
0.0113236 -0.000363893 0
0.0106624 -0.00018128 0
0.0107086 -0.000249532 0
0.0112775 -0.000295641 0
0.0112314 -0.000227712 0
0.0111691 -0.000149631 0
0.0100935 -0.000165421 0
0.0112002 -0.000188671 0
0.0106313 -0.000157526 0
0.0106624 -0.000196566 0
0.0122128 -0.00019981 0
0.012257 -0.000283242 0
0.0131421 -0.000244053 0
0.0122349 -0.000241526 0
0.0126995 -0.000263648 0
0.0126774 -0.000221932 0
0.0122127 -0.00019981 0
0.0111887 -0.000142791 0
0.0122697 -0.000283242 0
0.0117007 -0.0001713 0
0.0117292 -0.000213017 0
0.0122412 -0.000241526 0
0.0122128 -0.000200053 0
0.0131421 -0.000221321 0
0.0121915 -0.00016271 0
0.0126774 -0.000210687 0
0.0126668 -0.000192015 0
0.0122021 -0.000181381 0
0.0122127 -0.000200053 0
0.0121806 -0.00016271 0
0.0111887 -0.000167948 0
0.0121966 -0.000181381 0
0.0116846 -0.000165329 0
0.0117007 -0.000184 0
0.0121974 -0.00689298 0
0.0119343 -0.00932819 0
0.0121929 -0.00662988 0
0.0120658 -0.00811058 0
0.0120636 -0.00797903 0
0.0121951 -0.00676143 0
0.0121974 -0.00689454 0
0.0121929 -0.00675756 0
0.0123344 -0.00496475 0
0.0121951 -0.00682605 0
0.0122636 -0.00586115 0
0.0122659 -0.00592965 0
0.0121966 -0.00689298 0
0.0120878 -0.00699511 0
0.0120945 -0.00932819 0
0.0121422 -0.00694404 0
0.0120911 -0.00816165 0
0.0121455 -0.00811058 0
0.0121966 -0.00689454 0
0.0121851 -0.00496475 0
0.0120878 -0.00688308 0
0.0121909 -0.00592965 0
0.0121365 -0.00592392 0
0.0121422 -0.00688881 0
0.0116101 -0.00870782 0
0.0122107 -0.00664772 0
0.0119146 -0.00930848 0
0.0119104 -0.00767777 0
0.0120627 -0.0079781 0
0.0117623 -0.00900815 0
0.0116095 -0.00870782 0
0.0112803 -0.00799238 0
0.0123249 -0.00664772 0
0.0114449 -0.0083501 0
0.0118026 -0.00732005 0
0.0119672 -0.00767777 0
0.0116101 -0.00870904 0
0.0119146 -0.00953149 0
0.0107876 -0.0111079 0
0.0117623 -0.00912027 0
0.0113511 -0.0103197 0
0.0111989 -0.00990845 0
0.0116095 -0.00870904 0
0.010682 -0.0111079 0
0.0112803 -0.00778161 0
0.0111458 -0.00990845 0
0.0109812 -0.00944474 0
0.0114449 -0.00824533 0
0.0117414 -0.0047358 0
0.0113138 -0.00319011 0
0.0110532 -0.00430817 0
0.0115276 -0.00396296 0
0.0111835 -0.00374914 0
0.0113973 -0.00452199 0
0.0117435 -0.0047358 0
0.0122328 -0.00502323 0
0.0114561 -0.00319011 0
0.0119882 -0.00487952 0
0.0118445 -0.00410667 0
0.0115998 -0.00396296 0
0.0117414 -0.00473164 0
0.0110532 -0.00427732 0
0.0121958 -0.00681963 0
0.0113973 -0.00450448 0
0.0116245 -0.00554847 0
0.0119686 -0.00577563 0
0.0117435 -0.00473164 0
0.0120243 -0.00681963 0
0.0122328 -0.00501245 0
0.0118839 -0.00577563 0
0.0121286 -0.00591604 0
0.0119882 -0.00487204 0
0.0103812 -0.00272718 0
0.010935 -0.00418998 0
0.0114046 -0.00328095 0
0.0106581 -0.00345858 0
0.0111698 -0.00373546 0
0.0108929 -0.00300407 0
0.0103812 -0.00273161 0
0.0114046 -0.00319448 0
0.00991836 -0.00169218 0
0.0108929 -0.00296305 0
0.0106615 -0.00244333 0
0.0101498 -0.0022119 0
0.010379 -0.00272718 0
0.00912985 -0.002044 0
0.0110622 -0.00418998 0
0.00975443 -0.00238559 0
0.010096 -0.00311699 0
0.0107206 -0.00345858 0
0.010379 -0.00273161 0
0.00982217 -0.00169218 0
0.00912985 -0.00217477 0
0.0101006 -0.0022119 0
0.00947601 -0.00193348 0
0.00975443 -0.00245319 0
0.0121938 -0.00955135 0
0.011927 -0.0094957 0
0.0122494 -0.00683348 0
0.0120604 -0.00952352 0
0.0120882 -0.00816459 0
0.0122216 -0.00819242 0
0.0121932 -0.00955135 0
0.0120366 -0.00683348 0
0.0123357 -0.00939469 0
0.0121149 -0.00819242 0
0.0121861 -0.00811409 0
0.0122645 -0.00947302 0
0.0121938 -0.00955033 0
0.0119326 -0.0129695 0
0.011927 -0.00928919 0
0.0120632 -0.0112599 0
0.0119298 -0.0111294 0
0.0120604 -0.00941976 0
0.0121932 -0.00955033 0
0.0123357 -0.00959099 0
0.0121526 -0.0129695 0
0.0122645 -0.00957066 0
0.0122441 -0.0112803 0
0.0121729 -0.0112599 0
0.0116932 -0.00634977 0
0.0121014 -0.00691394 0
0.0111291 -0.00420144 0
0.0118973 -0.00663185 0
0.0116153 -0.00555769 0
0.0114112 -0.0052756 0
0.0116932 -0.00634283 0
0.0122488 -0.00930776 0
0.0121014 -0.00689835 0
0.011971 -0.00782529 0
0.0121751 -0.00810305 0
0.0118973 -0.00662059 0
0.0116898 -0.00634977 0
0.0109176 -0.00420144 0
0.0110069 -0.00557761 0
0.0113037 -0.0052756 0
0.0109622 -0.00488953 0
0.0113483 -0.00596369 0
0.0116898 -0.00634283 0
0.0110069 -0.00552381 0
0.0125088 -0.00930776 0
0.0113483 -0.00593332 0
0.0117578 -0.00741578 0
0.0120993 -0.00782529 0
0.0112328 -0.0121721 0
0.0106011 -0.0112944 0
0.0121105 -0.00933561 0
0.010917 -0.0117332 0
0.0113558 -0.010315 0
0.0116716 -0.0107538 0
0.0112328 -0.0121758 0
0.0100398 -0.0153815 0
0.0106011 -0.0109828 0
0.0106363 -0.0137786 0
0.0103204 -0.0131821 0
0.010917 -0.0115793 0
0.0112347 -0.0121721 0
0.0119734 -0.00933561 0
0.0118738 -0.0129107 0
0.011604 -0.0107538 0
0.0119236 -0.0111232 0
0.0115543 -0.0125414 0
0.0112347 -0.0121758 0
0.0118738 -0.0132598 0
0.0101507 -0.0153815 0
0.0115543 -0.0127178 0
0.0110122 -0.0143207 0
0.0106927 -0.0137786 0
0.00912485 -0.0136281 0
0.00843567 -0.0119833 0
0.0107697 -0.0111082 0
0.00878026 -0.0128057 0
0.00960268 -0.0115457 0
0.00994727 -0.0123681 0
0.00912739 -0.0136281 0
0.0107265 -0.0111082 0
0.00988551 -0.0152272 0
0.00992693 -0.0123681 0
0.010306 -0.0131677 0
0.00950645 -0.0144276 0
0.00912485 -0.0136332 0
0.00716087 -0.016191 0
0.00843567 -0.0116692 0
0.00814286 -0.0149121 0
0.00779827 -0.0139301 0
0.00878026 -0.0126512 0
0.00912739 -0.0136332 0
0.00988551 -0.015592 0
0.0071686 -0.016191 0
0.00950645 -0.0146126 0
0.00852706 -0.0158915 0
0.008148 -0.0149121 0
0.0121586 -0.000167184 0
0.0111124 -0.000137187 0
0.0121886 -0.000163728 0
0.0116355 -0.000152186 0
0.0116505 -0.000150458 0
0.0121736 -0.000165456 0
0.0121586 -0.000167184 0
0.0121824 -0.000163728 0
0.0131162 -0.000191028 0
0.0121705 -0.000165456 0
0.0126493 -0.000177378 0
0.0126374 -0.000179106 0
0.0121586 -0.000167232 0
0.0121507 -0.000191935 0
0.0111124 -0.000159397 0
0.0121547 -0.000179583 0
0.0116316 -0.000175666 0
0.0116355 -0.000163314 0
0.0121586 -0.000167232 0
0.0131162 -0.000169298 0
0.0121565 -0.000191935 0
0.0126374 -0.000168265 0
0.0126364 -0.000180616 0
0.0121576 -0.000179583 0
0.0111272 -0.000133792 0
0.012196 -0.000156281 0
0.0111047 -0.000144922 0
0.0116616 -0.000145037 0
0.0116504 -0.000150602 0
0.0111159 -0.000139357 0
0.0111272 -0.000133751 0
0.0111716 -0.00015084 0
0.012196 -0.000178172 0
0.0111494 -0.000142296 0
0.0116838 -0.000164506 0
0.0116616 -0.000155962 0
0.0111272 -0.000133792 0
0.0110981 -0.000144922 0
0.00997601 -0.000104673 0
0.0111126 -0.000139357 0
0.010537 -0.000124798 0
0.0105516 -0.000119233 0
0.0111272 -0.000133751 0
0.00997601 -8.23763e-05 0
0.0111785 -0.00015084 0
0.0105516 -0.000108064 0
0.0105773 -0.000116608 0
0.0111529 -0.000142296 0
0.0130997 -0.000191473 0
0.0131145 -0.000217462 0
0.0121653 -0.000206273 0
0.0131071 -0.000204467 0
0.0126399 -0.000211867 0
0.0126325 -0.000198873 0
0.0130997 -0.000191404 0
0.0121653 -0.000183154 0
0.0131079 -0.000177565 0
0.0126325 -0.000187279 0
0.0126366 -0.000180359 0
0.0131038 -0.000184484 0
0.0130997 -0.000191473 0
0.0139385 -0.000172763 0
0.0131184 -0.000217462 0
0.0135191 -0.000182118 0
0.0135285 -0.000195112 0
0.0131091 -0.000204467 0
0.0130997 -0.000191404 0
0.0131035 -0.000177565 0
0.0139385 -0.000195192 0
0.0131016 -0.000184484 0
0.013521 -0.000186378 0
0.0135191 -0.000193298 0
0.0110763 -0.00018112 0
0.0110995 -0.00014641 0
0.0121631 -0.000204302 0
0.0110879 -0.000163765 0
0.0116313 -0.000175356 0
0.0116197 -0.000192711 0
0.0110763 -0.000181053 0
0.0121631 -0.000184799 0
0.0110725 -0.000227036 0
0.0116197 -0.000182926 0
0.0116178 -0.000205917 0
0.0110744 -0.000204044 0
0.0110763 -0.00018112 0
0.00991229 -0.000154489 0
0.0111029 -0.00014641 0
0.0104943 -0.000167805 0
0.0105076 -0.000150449 0
0.0110896 -0.000163765 0
0.0110763 -0.000181053 0
0.0110686 -0.000227036 0
0.00991229 -0.000173326 0
0.0110724 -0.000204044 0
0.0104904 -0.000200181 0
0.0104943 -0.00017719 0
0.0121477 -0.00022533 0
0.0121523 -0.000193231 0
0.0131269 -0.000229924 0
0.01215 -0.000209281 0
0.0126396 -0.000211578 0
0.0126373 -0.000227627 0
0.0121477 -0.00022533 0
0.0110812 -0.00021833 0
0.0121547 -0.000193231 0
0.0116145 -0.00022183 0
0.011618 -0.000205781 0
0.0121512 -0.000209281 0
0.0121477 -0.000225337 0
0.0131269 -0.000208217 0
0.0121648 -0.000260731 0
0.0126373 -0.000216777 0
0.0126459 -0.000234474 0
0.0121562 -0.000243034 0
0.0121477 -0.000225337 0
0.0121624 -0.000260731 0
0.0110812 -0.000240107 0
0.0121551 -0.000243034 0
0.0116218 -0.000250419 0
0.0116145 -0.000232722 0
0.0139407 -0.000195241 0
0.0131289 -0.000207013 0
0.0139289 -0.000182405 0
0.0135348 -0.000201127 0
0.0135289 -0.000194709 0
0.0139348 -0.000188823 0
0.0139407 -0.000195241 0
0.0139268 -0.000182405 0
0.01465 -0.000181304 0
0.0139338 -0.000188823 0
0.0142884 -0.000181855 0
0.0142953 -0.000188272 0
0.0139407 -0.000195344 0
0.0139762 -0.000210104 0
0.0131289 -0.000230849 0
0.0139584 -0.000202724 0
0.0135525 -0.000220476 0
0.0135348 -0.000213097 0
0.0139407 -0.000195344 0
0.01465 -0.000158506 0
0.0139776 -0.000210104 0
0.0142953 -0.000176925 0
0.0143138 -0.000184305 0
0.0139591 -0.000202724 0
0.0100091 -0.000101964 0
0.00996167 -9.03298e-05 0
0.00875513 -5.45299e-05 0
0.00998539 -9.61471e-05 0
0.0093584 -7.24298e-05 0
0.00938212 -7.82471e-05 0
0.0100091 -0.000101964 0
0.0111864 -0.000143031 0
0.00996806 -9.03298e-05 0
0.0105977 -0.000122498 0
0.0105772 -0.00011668 0
0.00998859 -9.61471e-05 0
0.0100091 -0.000101933 0
0.00875513 -3.03426e-05 0
0.0100807 -0.000145995 0
0.00938212 -6.6138e-05 0
0.00941791 -8.81689e-05 0
0.0100449 -0.000123964 0
0.0100091 -0.000101933 0
0.0100741 -0.000145995 0
0.0111864 -0.000166908 0
0.0100416 -0.000123964 0
0.0106302 -0.000156452 0
0.0105977 -0.000134421 0
0.00992571 -0.00011918 0
0.00996337 -9.20396e-05 0
0.01111 -0.00015685 0
0.00994454 -0.00010561 0
0.0105367 -0.000124445 0
0.0105178 -0.000138015 0
0.00992576 -0.00011918 0
0.00867374 -7.83938e-05 0
0.00996655 -9.20396e-05 0
0.00929975 -9.87871e-05 0
0.00932015 -8.52167e-05 0
0.00994616 -0.00010561 0
0.00992571 -0.000119062 0
0.01111 -0.00013936 0
0.00990541 -0.000161376 0
0.0105178 -0.000129211 0
0.0105077 -0.000150368 0
0.00991556 -0.000140219 0
0.00992576 -0.000119062 0
0.00990141 -0.000161376 0
0.00867374 -9.47029e-05 0
0.00991358 -0.000140219 0
0.00928757 -0.000128039 0
0.00929975 -0.000106883 0
0.00869698 -5.60204e-05 0
0.00874285 -4.22479e-05 0
0.00997323 -0.000101887 0
0.00871992 -4.91342e-05 0
0.00935804 -7.20673e-05 0
0.00933511 -7.89536e-05 0
0.00869698 -5.58555e-05 0
0.00997323 -8.53624e-05 0
0.00866748 -8.4657e-05 0
0.00933511 -7.06089e-05 0
0.00932035 -8.50097e-05 0
0.00868223 -7.02563e-05 0
0.00869707 -5.60204e-05 0
0.00736223 -8.68947e-06 0
0.0087444 -4.22479e-05 0
0.00802965 -3.23549e-05 0
0.00805332 -2.54687e-05 0
0.00872073 -4.91342e-05 0
0.00869707 -5.58555e-05 0
0.00866478 -8.4657e-05 0
0.00736223 -2.35649e-05 0
0.00868092 -7.02563e-05 0
0.0080135 -5.41109e-05 0
0.00802965 -3.97102e-05 0
0.00880283 -7.87152e-05 0
0.0100905 -0.000136224 0
0.00874532 -4.01578e-05 0
0.00944665 -0.000107469 0
0.00941789 -8.81907e-05 0
0.00877407 -5.94365e-05 0
0.00880283 -7.8732e-05 0
0.00888849 -0.000150467 0
0.0100905 -0.000164401 0
0.00884566 -0.000114599 0
0.00948948 -0.000157434 0
0.00944665 -0.000121567 0
0.00880283 -7.87152e-05 0
0.00874043 -4.01578e-05 0
0.00744478 -1.63072e-05 0
0.00877163 -5.94365e-05 0
0.0080926 -2.82325e-05 0
0.0081238 -4.75112e-05 0
0.00880283 -7.8732e-05 0
0.00744478 1.17025e-05 0
0.00889327 -0.000150467 0
0.0081238 -3.35148e-05 0
0.00816902 -6.93822e-05 0
0.00884805 -0.000114599 0
0.0146659 -0.000171648 0
0.0152335 -0.000123436 0
0.0147141 -0.000165995 0
0.0149497 -0.000147542 0
0.0149738 -0.000144716 0
0.01469 -0.000168822 0
0.0146659 -0.000171509 0
0.0146395 -0.000169316 0
0.0152335 -0.000145142 0
0.0146527 -0.000170412 0
0.0149365 -0.000157229 0
0.0149497 -0.000158325 0
0.0146658 -0.000171648 0
0.0147155 -0.000165995 0
0.0139895 -0.000221299 0
0.0146907 -0.000168822 0
0.0143525 -0.000193647 0
0.0143277 -0.000196474 0
0.0146658 -0.000171509 0
0.0139895 -0.0001982 0
0.0146391 -0.000169316 0
0.0143277 -0.000184854 0
0.0143143 -0.000183758 0
0.0146525 -0.000170412 0
0.015255 -0.000121249 0
0.0147264 -0.000153716 0
0.0152225 -0.000134431 0
0.0149907 -0.000137483 0
0.0149744 -0.000144074 0
0.0152387 -0.00012784 0
0.015255 -0.000121249 0
0.015225 -0.000134431 0
0.0156704 -9.12095e-05 0
0.01524 -0.00012784 0
0.0154477 -0.00011282 0
0.0154627 -0.000106229 0
0.015255 -0.000121407 0
0.0153072 -9.31644e-05 0
0.0147264 -0.000173641 0
0.0152811 -0.000107286 0
0.0150168 -0.000133402 0
0.0149907 -0.000147524 0
0.015255 -0.000121407 0
0.0156704 -7.2866e-05 0
0.0153036 -9.31644e-05 0
0.0154627 -9.71367e-05 0
0.015487 -8.30152e-05 0
0.0152793 -0.000107286 0
0.0140057 -0.000202386 0
0.013979 -0.000210877 0
0.0147252 -0.000175725 0
0.0139924 -0.000206632 0
0.0143521 -0.000193301 0
0.0143655 -0.000189055 0
0.0140056 -0.000202386 0
0.0131805 -0.000231937 0
0.0139761 -0.000210877 0
0.0135931 -0.000217162 0
0.0135783 -0.000221407 0
0.0139908 -0.000206632 0
0.0140057 -0.000202579 0
0.0147252 -0.000154447 0
0.0140538 -0.000173716 0
0.0143655 -0.000178513 0
0.0143895 -0.000164082 0
0.0140298 -0.000188147 0
0.0140056 -0.000202579 0
0.0140582 -0.000173716 0
0.0131805 -0.000255137 0
0.0140319 -0.000188147 0
0.0136194 -0.000214427 0
0.0135931 -0.000228858 0
0.0131305 -0.000235764 0
0.0131165 -0.000218525 0
0.0139879 -0.000221812 0
0.0131235 -0.000227145 0
0.0135522 -0.000220168 0
0.0135592 -0.000228788 0
0.0131305 -0.000235865 0
0.0139879 -0.000199053 0
0.0131673 -0.000245184 0
0.0135592 -0.000217459 0
0.0135776 -0.000222119 0
0.0131489 -0.000240524 0
0.0131304 -0.000235764 0
0.0121759 -0.00024958 0
0.0131166 -0.000218525 0
0.0126532 -0.000242672 0
0.0126463 -0.000234052 0
0.0131235 -0.000227145 0
0.0131304 -0.000235865 0
0.0131679 -0.000245184 0
0.0121759 -0.000273342 0
0.0131492 -0.000240524 0
0.0126719 -0.000259263 0
0.0126532 -0.000254603 0
0.0156862 -5.7062e-05 0
0.0157253 -1.41267e-05 0
0.0153144 -9.61578e-05 0
0.0157058 -3.55944e-05 0
0.0155199 -5.51422e-05 0
0.0155003 -7.66099e-05 0
0.0156862 -5.69177e-05 0
0.0153144 -8.23196e-05 0
0.0156608 -8.24164e-05 0
0.0155003 -6.96186e-05 0
0.0154876 -8.2368e-05 0
0.0156735 -6.96671e-05 0
0.0156863 -5.7062e-05 0
0.0159428 -2.26016e-05 0
0.0157207 -1.41267e-05 0
0.0158145 -3.98318e-05 0
0.0158318 -1.83642e-05 0
0.0157035 -3.55944e-05 0
0.0156863 -5.69177e-05 0
0.0156644 -8.24164e-05 0
0.0159428 -3.49968e-05 0
0.0156753 -6.96671e-05 0
0.0158036 -5.87066e-05 0
0.0158145 -4.59572e-05 0
0.0147464 -0.0001268 0
0.0147192 -0.000166458 0
0.0153136 -9.9623e-05 0
0.0147328 -0.000146629 0
0.0150164 -0.00013304 0
0.01503 -0.000113211 0
0.0147464 -0.000127054 0
0.0153136 -8.33253e-05 0
0.0147901 -5.63367e-05 0
0.01503 -0.00010519 0
0.0150519 -6.9831e-05 0
0.0147683 -9.16952e-05 0
0.0147463 -0.0001268 0
0.0140677 -0.000159857 0
0.0147132 -0.000166458 0
0.014407 -0.000143329 0
0.0143905 -0.000163158 0
0.0147297 -0.000146629 0
0.0147463 -0.000127054 0
0.0147979 -5.63367e-05 0
0.0140677 -0.000178695 0
0.0147721 -9.16952e-05 0
0.0144328 -0.000117516 0
0.014407 -0.000152874 0
0.0153217 -2.63802e-05 0
0.0153116 -9.33539e-05 0
0.0157275 -1.63038e-05 0
0.0153167 -5.9867e-05 0
0.0155196 -5.48289e-05 0
0.0155246 -2.1342e-05 0
0.0153216 -2.63802e-05 0
0.0148021 -4.43232e-05 0
0.0153036 -9.33539e-05 0
0.0150618 -3.53517e-05 0
0.0150529 -6.88386e-05 0
0.0153126 -5.9867e-05 0
0.0153217 -2.66433e-05 0
0.0157275 -8.7464e-06 0
0.0153396 7.69716e-05 0
0.0155246 -1.76948e-05 0
0.0155335 3.41126e-05 0
0.0153306 2.51642e-05 0
0.0153216 -2.66433e-05 0
0.0153494 7.69716e-05 0
0.0148021 -5.45118e-05 0
0.0153355 2.51642e-05 0
0.0150758 1.12299e-05 0
0.0150618 -4.05775e-05 0
0.0159398 -3.85948e-06 0
0.0157279 -6.9677e-06 0
0.0159367 -2.86768e-05 0
0.0158339 -5.41359e-06 0
0.0158323 -1.78222e-05 0
0.0159383 -1.62681e-05 0
0.0159399 -3.85948e-06 0
0.0159396 -2.86768e-05 0
0.0160369 -3.59585e-06 0
0.0159397 -1.62681e-05 0
0.0159883 -1.61363e-05 0
0.0159884 -3.72766e-06 0
0.0159398 -3.95033e-06 0
0.0159478 3.37861e-05 0
0.0157279 -1.19072e-05 0
0.0159438 1.49179e-05 0
0.0158378 1.09394e-05 0
0.0158339 -7.92878e-06 0
0.0159399 -3.95033e-06 0
0.0160369 4.3519e-07 0
0.0159443 3.37861e-05 0
0.0159884 -1.75757e-06 0
0.0159906 1.71106e-05 0
0.0159421 1.49179e-05 0
0.0110646 -0.000266557 0
0.0121735 -0.000251464 0
0.0110797 -0.000300252 0
0.0116191 -0.000259011 0
0.0116266 -0.000275858 0
0.0110721 -0.000283405 0
0.0110646 -0.000266597 0
0.0110698 -0.000228691 0
0.0121735 -0.000271812 0
0.0110672 -0.000247644 0
0.0116217 -0.000250251 0
0.0116191 -0.000269204 0
0.0110646 -0.000266557 0
0.0110783 -0.000300252 0
0.00987838 -0.000280251 0
0.0110715 -0.000283405 0
0.0104783 -0.000290252 0
0.0104715 -0.000273404 0
0.0110646 -0.000266597 0
0.00987838 -0.000260298 0
0.0110709 -0.000228691 0
0.0104715 -0.000263448 0
0.0104747 -0.000244495 0
0.0110678 -0.000247644 0
0.0121802 -0.000271314 0
0.0110913 -0.000288626 0
0.0121629 -0.000262116 0
0.0116358 -0.00027997 0
0.0116271 -0.000275371 0
0.0121715 -0.000266715 0
0.0121802 -0.000271314 0
0.0121647 -0.000262116 0
0.0131785 -0.000255791 0
0.0121725 -0.000266715 0
0.0126716 -0.000258953 0
0.0126794 -0.000263552 0
0.0121802 -0.000271432 0
0.0122214 -0.000261886 0
0.0110913 -0.000312598 0
0.0122008 -0.000266659 0
0.0116563 -0.000287242 0
0.0116358 -0.000292015 0
0.0121802 -0.000271432 0
0.0131785 -0.000232997 0
0.0122187 -0.000261886 0
0.0126794 -0.000252214 0
0.0126986 -0.000247441 0
0.0121995 -0.000266659 0
0.00987854 -0.000213361 0
0.00861418 -0.000187616 0
0.00990429 -0.000163172 0
0.00924636 -0.000200488 0
0.00925924 -0.000175394 0
0.00989142 -0.000188267 0
0.00987847 -0.000213361 0
0.00990214 -0.000163172 0
0.0110786 -0.000237035 0
0.0098903 -0.000188267 0
0.0104904 -0.000200103 0
0.0104785 -0.000225198 0
0.00987854 -0.000213208 0
0.00986742 -0.000268041 0
0.00861418 -0.000202081 0
0.00987298 -0.000240624 0
0.0092408 -0.000235061 0
0.00924636 -0.000207644 0
0.00987847 -0.000213208 0
0.0110786 -0.000221033 0
0.00987064 -0.000268041 0
0.0104785 -0.000217121 0
0.0104746 -0.000244537 0
0.00987455 -0.000240624 0
0.00863182 -0.000135548 0
0.00990954 -0.00015792 0
0.00860945 -0.000192348 0
0.00927068 -0.000146734 0
0.0092595 -0.000175134 0
0.00862064 -0.000163948 0
0.00863182 -0.000135764 0
0.00866557 -8.65351e-05 0
0.00990954 -0.000169512 0
0.0086487 -0.000111149 0
0.00928756 -0.000128024 0
0.00927068 -0.000152638 0
0.00863193 -0.000135548 0
0.0086065 -0.000192348 0
0.00730154 -0.000110121 0
0.00861922 -0.000163948 0
0.00795402 -0.000151235 0
0.00796674 -0.000122835 0
0.00863193 -0.000135764 0
0.00730154 -0.000100683 0
0.00866701 -8.65351e-05 0
0.00796674 -0.000118223 0
0.00798428 -9.36088e-05 0
0.00864947 -0.000111149 0
0.00985992 -0.000301997 0
0.00986817 -0.000270042 0
0.0110883 -0.00031025 0
0.00986405 -0.000286019 0
0.0104782 -0.000290146 0
0.0104741 -0.000306123 0
0.00985996 -0.000301997 0
0.00856576 -0.00029316 0
0.0098688 -0.000270042 0
0.00921286 -0.000297578 0
0.00921728 -0.000281601 0
0.00986438 -0.000286019 0
0.00985992 -0.000301918 0
0.0110883 -0.000290857 0
0.00987098 -0.000324033 0
0.0104741 -0.000296388 0
0.0104796 -0.000307445 0
0.00986545 -0.000312975 0
0.00985996 -0.000301918 0
0.00986981 -0.000324033 0
0.00856576 -0.000311765 0
0.00986488 -0.000312975 0
0.00921778 -0.000317899 0
0.00921286 -0.000306841 0
0.00857689 -0.000246345 0
0.00860643 -0.000194326 0
0.00987526 -0.000275887 0
0.00859166 -0.000220336 0
0.00924085 -0.000235106 0
0.00922608 -0.000261116 0
0.00857689 -0.000246123 0
0.00987526 -0.000263576 0
0.00855943 -0.000299484 0
0.00922608 -0.00025485 0
0.00921735 -0.00028153 0
0.00856816 -0.000272804 0
0.008577 -0.000246345 0
0.00722876 -0.000214965 0
0.00860838 -0.000194326 0
0.00790288 -0.000230655 0
0.00791857 -0.000204646 0
0.00859269 -0.000220336 0
0.008577 -0.000246123 0
0.00855593 -0.000299484 0
0.00722876 -0.000225056 0
0.00856647 -0.000272804 0
0.00789235 -0.00026227 0
0.00790288 -0.00023559 0
0.0132011 -0.000211488 0
0.0140662 -0.000160368 0
0.0132522 -0.000139974 0
0.0136336 -0.000185928 0
0.0136592 -0.000150171 0
0.0132266 -0.000175731 0
0.0132011 -0.000211208 0
0.0131716 -0.000246172 0
0.0140662 -0.000181731 0
0.0131863 -0.00022869 0
0.0136189 -0.000213951 0
0.0136336 -0.000196469 0
0.0132009 -0.000211488 0
0.0132604 -0.000139974 0
0.0122338 -0.000270941 0
0.0132306 -0.000175731 0
0.0127471 -0.000205457 0
0.0127174 -0.000241214 0
0.0132009 -0.000211208 0
0.0122338 -0.00024678 0
0.0131653 -0.000246172 0
0.0127174 -0.000228994 0
0.0126996 -0.000246476 0
0.0131831 -0.00022869 0
0.0140896 -8.61244e-05 0
0.0132687 -0.000123425 0
0.0140523 -0.000174252 0
0.0136792 -0.000104775 0
0.0136605 -0.000148839 0
0.014071 -0.000130188 0
0.0140898 -8.61244e-05 0
0.0140633 -0.000174252 0
0.0148012 -5.95808e-05 0
0.0140765 -0.000130188 0
0.0144322 -0.000116917 0
0.0144455 -7.28526e-05 0
0.0140896 -8.65192e-05 0
0.0141452 5.49454e-05 0
0.0132687 -0.000142097 0
0.0141174 -1.57869e-05 0
0.013707 -4.35759e-05 0
0.0136792 -0.000114308 0
0.0140898 -8.65192e-05 0
0.0148012 -4.48564e-05 0
0.0141315 5.49454e-05 0
0.0144455 -6.56878e-05 0
0.0144663 5.04445e-06 0
0.0141106 -1.57869e-05 0
0.011099 -0.000290009 0
0.0110807 -0.000301996 0
0.0122312 -0.000271758 0
0.0110898 -0.000296003 0
0.011656 -0.000286877 0
0.0116651 -0.000280884 0
0.011099 -0.000290166 0
0.0122312 -0.000247684 0
0.0111414 -0.000247997 0
0.0116651 -0.000268925 0
0.0116863 -0.000247841 0
0.0111202 -0.000269081 0
0.0110989 -0.000290009 0
0.00988329 -0.000311728 0
0.0110772 -0.000301996 0
0.0104911 -0.000300869 0
0.0104802 -0.000306862 0
0.011088 -0.000296003 0
0.0110989 -0.000290166 0
0.0111461 -0.000247997 0
0.00988329 -0.000337368 0
0.0111225 -0.000269081 0
0.0105147 -0.000292683 0
0.0104911 -0.000313767 0
0.0122627 -0.000183206 0
0.012226 -0.000263107 0
0.0132668 -0.000146448 0
0.0122443 -0.000223156 0
0.0127464 -0.000204778 0
0.0127648 -0.000164827 0
0.0122625 -0.000183206 0
0.0111595 -0.000229905 0
0.0122158 -0.000263107 0
0.011711 -0.000206556 0
0.0116877 -0.000246506 0
0.0122392 -0.000223156 0
0.0122627 -0.000183621 0
0.0132668 -0.000123265 0
0.0123231 -4.69282e-05 0
0.0127648 -0.000153443 0
0.012795 -8.50967e-05 0
0.0122929 -0.000115275 0
0.0122625 -0.000183621 0
0.0123361 -4.69282e-05 0
0.0111595 -0.00025724 0
0.0122993 -0.000115275 0
0.0117478 -0.000152084 0
0.011711 -0.00022043 0
0.00750325 -6.53934e-05 0
0.00603948 4.14575e-05 0
0.0076101 -0.0001582 0
0.00677136 -1.19679e-05 0
0.00682479 -5.83711e-05 0
0.00755667 -0.000111797 0
0.00750317 -6.53934e-05 0
0.00760928 -0.0001582 0
0.00890675 -0.000171508 0
0.00755622 -0.000111797 0
0.00825801 -0.000164854 0
0.00820496 -0.000118451 0
0.00750325 -6.5228e-05 0
0.00742943 -1.66987e-06 0
0.00603948 8.5932e-06 0
0.00746634 -3.34489e-05 0
0.00673445 3.46166e-06 0
0.00677136 -2.83174e-05 0
0.00750317 -6.5228e-05 0
0.00890675 -0.00013699 0
0.0074314 -1.66987e-06 0
0.00820496 -0.000101109 0
0.00816907 -6.933e-05 0
0.00746728 -3.34489e-05 0
0.00610379 -5.70471e-05 0
0.00762872 -0.000139577 0
0.00602126 2.32394e-05 0
0.00686625 -9.83121e-05 0
0.00682499 -5.81689e-05 0
0.00606252 -1.69039e-05 0
0.00610379 -5.75624e-05 0
0.00622713 -0.000156488 0
0.00762872 -0.000180902 0
0.00616546 -0.000107025 0
0.00692792 -0.000168695 0
0.00686625 -0.000119232 0
0.00610405 -5.70471e-05 0
0.00602389 2.32394e-05 0
0.00453936 2.31133e-05 0
0.00606397 -1.69039e-05 0
0.00528162 2.31764e-05 0
0.0053217 -1.69669e-05 0
0.00610405 -5.75624e-05 0
0.00453936 5.92852e-05 0
0.00622089 -0.000156488 0
0.0053217 8.61371e-07 0
0.00538013 -4.86014e-05 0
0.00616247 -0.000107025 0
0.00779496 -0.000378005 0
0.00924089 -0.000560349 0
0.00761262 -0.000154203 0
0.00851793 -0.000469177 0
0.00842676 -0.000357276 0
0.00770379 -0.000266104 0
0.00779481 -0.000378005 0
0.00760202 -0.000154203 0
0.00625586 -0.000185221 0
0.00769841 -0.000266104 0
0.00692894 -0.000169712 0
0.00702533 -0.000281613 0
0.00779496 -0.000377692 0
0.00804562 -0.000683478 0
0.00924089 -0.000628351 0
0.00792029 -0.000530585 0
0.00864326 -0.000655914 0
0.00851793 -0.000503021 0
0.00779481 -0.000377692 0
0.00625586 -0.000114084 0
0.00805841 -0.000683478 0
0.00702533 -0.000245888 0
0.00715714 -0.000398781 0
0.00792661 -0.000530585 0
0.00598811 2.808e-05 0
0.00602885 1.92176e-05 0
0.00744042 -1.26648e-05 0
0.00600848 2.36488e-05 0
0.00673464 3.27643e-06 0
0.00671426 7.70764e-06 0
0.00598811 2.84676e-05 0
0.00744042 4.28427e-06 0
0.00596392 3.28004e-05 0
0.00671426 1.63759e-05 0
0.00670217 1.85423e-05 0
0.00597601 3.0634e-05 0
0.0059883 2.808e-05 0
0.00450367 6.35741e-05 0
0.00602379 1.92176e-05 0
0.00524599 4.58271e-05 0
0.00526373 4.13959e-05 0
0.00600605 2.36488e-05 0
0.0059883 2.84676e-05 0
0.00596627 3.28004e-05 0
0.00450367 5.05004e-05 0
0.00597728 3.0634e-05 0
0.00523497 4.16504e-05 0
0.00524599 3.9484e-05 0
0.00738592 -4.50879e-06 0
0.00743294 -4.46858e-06 0
0.00875179 -5.15223e-05 0
0.00740943 -4.48868e-06 0
0.00809236 -2.79954e-05 0
0.00806886 -2.80156e-05 0
0.00738604 -4.50879e-06 0
0.00597224 4.11161e-05 0
0.00743167 -4.46858e-06 0
0.00667914 1.83036e-05 0
0.00670195 1.83237e-05 0
0.00740886 -4.48868e-06 0
0.00738592 -4.26758e-06 0
0.00875179 -3.48551e-05 0
0.00735534 -1.55868e-05 0
0.00806886 -1.95613e-05 0
0.00805356 -2.52209e-05 0
0.00737063 -9.92717e-06 0
0.00738604 -4.26758e-06 0
0.00735492 -1.55868e-05 0
0.00597224 2.68608e-05 0
0.00737048 -9.92717e-06 0
0.00666358 5.63704e-06 0
0.00667914 1.12966e-05 0
0.00848025 -0.00125488 0
0.00803117 -0.000678906 0
0.00687474 -0.0008058 0
0.00825571 -0.000966891 0
0.00745295 -0.000742353 0
0.00767749 -0.00103034 0
0.00848137 -0.00125488 0
0.00991446 -0.00166458 0
0.00807166 -0.000678906 0
0.00919791 -0.00145973 0
0.00899306 -0.00117174 0
0.00827651 -0.000966891 0
0.00848025 -0.00125264 0
0.00687474 -0.000663552 0
0.00906934 -0.00205811 0
0.00767749 -0.000958096 0
0.00797204 -0.00136083 0
0.00877479 -0.00165538 0
0.00848137 -0.00125264 0
0.00901319 -0.00205811 0
0.00991446 -0.00178447 0
0.00874728 -0.00165538 0
0.00946383 -0.00192129 0
0.00919791 -0.00151856 0
0.00646429 -0.000404645 0
0.006801 -0.000732066 0
0.00809362 -0.000741355 0
0.00663265 -0.000568356 0
0.00744731 -0.00073671 0
0.00727896 -0.000573 0
0.00646429 -0.000404447 0
0.00809362 -0.000648271 0
0.00622047 -0.000149476 0
0.00727896 -0.000526359 0
0.00715704 -0.000398873 0
0.00634238 -0.000276962 0
0.00646439 -0.000404645 0
0.00475803 -6.60992e-05 0
0.00680294 -0.000732066 0
0.00561121 -0.000235372 0
0.00578048 -0.000399083 0
0.00663366 -0.000568356 0
0.00646439 -0.000404447 0
0.00621715 -0.000149476 0
0.00475803 -0.000157206 0
0.00634077 -0.000276962 0
0.00548759 -0.000153341 0
0.00561121 -0.000280827 0
0.00741937 -0.00140231 0
0.00912235 -0.0020051 0
0.00681658 -0.000721706 0
0.00827086 -0.0017037 0
0.00796947 -0.0013634 0
0.00711798 -0.00106201 0
0.00741937 -0.00139958 0
0.00821413 -0.00234845 0
0.00912235 -0.00219434 0
0.00781675 -0.00187401 0
0.00866824 -0.00227139 0
0.00827086 -0.00179696 0
0.007418 -0.00140231 0
0.00677975 -0.000721706 0
0.00551472 -0.000764053 0
0.00709888 -0.00106201 0
0.00614724 -0.00074288 0
0.00646636 -0.00108318 0
0.007418 -0.00139958 0
0.00551472 -0.000547518 0
0.00827007 -0.00234845 0
0.00646636 -0.000973549 0
0.0068924 -0.00144798 0
0.00784404 -0.00187401 0
0.00988687 -0.00342141 0
0.0110597 -0.00419244 0
0.00911584 -0.00205802 0
0.0104733 -0.00380693 0
0.0100878 -0.00312523 0
0.00950135 -0.00273971 0
0.00988303 -0.00342141 0
0.00898602 -0.00205802 0
0.00839009 -0.0025244 0
0.00943453 -0.00273971 0
0.00868805 -0.00229121 0
0.00913656 -0.00297291 0
0.00988687 -0.00341375 0
0.0108167 -0.00538742 0
0.0110597 -0.00434356 0
0.0103518 -0.00440058 0
0.0109382 -0.00486549 0
0.0104733 -0.00387865 0
0.00988303 -0.00341375 0
0.00839009 -0.00229662 0
0.0110002 -0.00538742 0
0.00913656 -0.00285518 0
0.00969512 -0.00384202 0
0.0104416 -0.00440058 0
0.00460262 -4.68551e-05 0
0.00452515 3.62251e-05 0
0.00296188 3.06174e-05 0
0.00456388 -5.31496e-06 0
0.00374351 3.34213e-05 0
0.00378225 -8.11883e-06 0
0.00460201 -4.68551e-05 0
0.00624482 -0.000132562 0
0.0045163 3.62251e-05 0
0.00542341 -8.97086e-05 0
0.00538056 -4.81685e-05 0
0.00455915 -5.31496e-06 0
0.00460262 -4.80756e-05 0
0.00296188 6.29956e-05 0
0.00471369 -0.00013025 0
0.00378225 7.45997e-06 0
0.00383779 -3.36272e-05 0
0.00465815 -8.91628e-05 0
0.00460201 -4.80756e-05 0
0.00473108 -0.00013025 0
0.00624482 -0.000177146 0
0.00466654 -8.91628e-05 0
0.00548795 -0.000153698 0
0.00542341 -0.000112611 0
0.00450591 3.99045e-05 0
0.00453212 3.0353e-05 0
0.00603343 1.36948e-05 0
0.00451902 3.51288e-05 0
0.00528278 2.20239e-05 0
0.00526967 2.67997e-05 0
0.00450623 3.99045e-05 0
0.00297229 5.65454e-05 0
0.00452287 3.0353e-05 0
0.00373926 4.8225e-05 0
0.00374758 4.34492e-05 0
0.00451455 3.51288e-05 0
0.00450591 4.05409e-05 0
0.00603343 2.88528e-05 0
0.00449422 5.4122e-05 0
0.00526967 3.46968e-05 0
0.00526383 4.14874e-05 0
0.00450007 4.73315e-05 0
0.00450623 4.05409e-05 0
0.00449902 5.4122e-05 0
0.00297229 4.77509e-05 0
0.00450262 4.73315e-05 0
0.00373566 5.09365e-05 0
0.00373926 4.41459e-05 0
0.0029597 3.32477e-05 0
0.00296234 3.01609e-05 0
0.00453077 3.06038e-05 0
0.00296102 3.17043e-05 0
0.00374655 3.03823e-05 0
0.00374523 3.19258e-05 0
0.0029597 3.41177e-05 0
0.00453077 3.82496e-05 0
0.00296383 4.80786e-05 0
0.00374523 3.61837e-05 0
0.0037473 4.31641e-05 0
0.00296176 4.10981e-05 0
0.00296013 3.32477e-05 0
0.00142636 2.37952e-05 0
0.00295068 3.01609e-05 0
0.00219325 2.85215e-05 0
0.00218852 2.6978e-05 0
0.0029554 3.17043e-05 0
0.00296013 3.41177e-05 0
0.0029694 4.80786e-05 0
0.00142636 2.48492e-05 0
0.00296476 4.10981e-05 0
0.00219788 3.64639e-05 0
0.00219325 2.94834e-05 0
0.00500696 -0.000377651 0
0.00685664 -0.000678362 0
0.00470625 -0.000117886 0
0.0059318 -0.000528007 0
0.00578144 -0.000398124 0
0.0048566 -0.000247768 0
0.00500782 -0.000377651 0
0.00471743 -0.000117886 0
0.00313248 -8.72594e-05 0
0.00486262 -0.000247768 0
0.00392496 -0.000102573 0
0.00407015 -0.000232455 0
0.00500696 -0.000379371 0
0.00542618 -0.000675515 0
0.00685664 -0.000798597 0
0.00521657 -0.000527443 0
0.00614141 -0.000737056 0
0.0059318 -0.000588984 0
0.00500782 -0.000379371 0
0.00313248 1.57758e-05 0
0.00540297 -0.000675515 0
0.00407015 -0.000181797 0
0.00426772 -0.00032987 0
0.00520539 -0.000527443 0
0.00301135 -3.03163e-05 0
0.00473943 -0.000104509 0
0.00293716 3.82699e-05 0
0.00387539 -6.74124e-05 0
0.00383829 -3.31193e-05 0
0.00297425 3.97679e-06 0
0.00301135 -3.25152e-05 0
0.00311872 -7.34973e-05 0
0.00473943 -0.000139889 0
0.00306504 -5.30063e-05 0
0.00392908 -0.000106693 0
0.00387539 -8.62021e-05 0
0.00301245 -3.03163e-05 0
0.00295253 3.82699e-05 0
0.00137026 2.95984e-05 0
0.00298249 3.97679e-06 0
0.0021614 3.39342e-05 0
0.00219135 -3.58929e-07 0
0.00301245 -3.25152e-05 0
0.00137026 4.29893e-05 0
0.00308795 -7.34973e-05 0
0.00219135 5.23705e-06 0
0.00222911 -1.5254e-05 0
0.0030502 -5.30063e-05 0
0.00732347 -5.78957e-05 0
0.00593351 -2.55631e-05 0
0.0073558 -1.75929e-05 0
0.00662849 -4.17294e-05 0
0.00664466 -2.1578e-05 0
0.00733964 -3.77443e-05 0
0.00732335 -5.78957e-05 0
0.00735626 -1.75929e-05 0
0.00867093 -9.08082e-05 0
0.0073398 -3.77443e-05 0
0.00801359 -5.42005e-05 0
0.00799714 -7.4352e-05 0
0.00732347 -5.76523e-05 0
0.00729713 -0.000103843 0
0.00593351 -3.13162e-05 0
0.0073103 -8.07477e-05 0
0.00661532 -6.75796e-05 0
0.00662849 -4.44842e-05 0
0.00732335 -5.76523e-05 0
0.00867093 -8.26207e-05 0
0.00729838 -0.000103843 0
0.00799714 -7.01365e-05 0
0.00798465 -9.32319e-05 0
0.00731086 -8.07477e-05 0
0.00594685 2.04517e-06 0
0.00735926 -1.41312e-05 0
0.00593068 -2.83974e-05 0
0.00665306 -6.04304e-06 0
0.00664497 -2.12643e-05 0
0.00593877 -1.31761e-05 0
0.00594685 1.77904e-06 0
0.00596857 3.05314e-05 0
0.00735926 -1.99359e-05 0
0.00595771 1.61552e-05 0
0.00666392 5.29774e-06 0
0.00665306 -9.07844e-06 0
0.00594699 2.04517e-06 0
0.00593158 -2.83974e-05 0
0.00450289 1.74561e-05 0
0.00593928 -1.31761e-05 0
0.00521723 -5.47066e-06 0
0.00522494 9.75063e-06 0
0.00594699 1.77904e-06 0
0.00450289 2.05995e-05 0
0.00596581 3.05314e-05 0
0.00522494 1.11893e-05 0
0.00523435 2.55654e-05 0
0.0059564 1.61552e-05 0
0.00590056 -7.41845e-05 0
0.00593207 -2.9879e-05 0
0.00729899 -0.000105702 0
0.00591632 -5.20318e-05 0
0.00661553 -6.77903e-05 0
0.00659977 -8.99431e-05 0
0.00590056 -7.39601e-05 0
0.00729899 -0.000104729 0
0.00586979 -0.000120367 0
0.00659977 -8.93443e-05 0
0.00658439 -0.000112548 0
0.00588517 -9.71635e-05 0
0.00590067 -7.41845e-05 0
0.00447307 -4.35264e-05 0
0.00593133 -2.9879e-05 0
0.00518687 -5.88555e-05 0
0.0052022 -3.67027e-05 0
0.005916 -5.20318e-05 0
0.00590067 -7.39601e-05 0
0.00586896 -0.000120367 0
0.00447307 -4.22547e-05 0
0.00588482 -9.71635e-05 0
0.00517101 -8.13108e-05 0
0.00518687 -5.81074e-05 0
0.00725921 -0.000159282 0
0.00729703 -0.000105609 0
0.00861126 -0.000197104 0
0.00727812 -0.000132446 0
0.00795414 -0.000151357 0
0.00793523 -0.000178193 0
0.00725934 -0.000159282 0
0.00586965 -0.000120508 0
0.00729811 -0.000105609 0
0.00656449 -0.000139895 0
0.00658388 -0.000113059 0
0.00727872 -0.000132446 0
0.00725921 -0.000159022 0
0.00861126 -0.000191446 0
0.00722678 -0.000216945 0
0.00793523 -0.000175234 0
0.00791902 -0.000204195 0
0.007243 -0.000187983 0
0.00725934 -0.000159022 0
0.00722388 -0.000216945 0
0.00586965 -0.000123561 0
0.00724161 -0.000187983 0
0.00654676 -0.000170253 0
0.00656449 -0.000141291 0
0.00449987 3.31386e-05 0
0.00301287 3.15e-05 0
0.00449823 5.14611e-05 0
0.00375637 3.23193e-05 0
0.00375555 4.14805e-05 0
0.00449905 4.22998e-05 0
0.00449972 3.31386e-05 0
0.00450271 5.14611e-05 0
0.00596892 3.01468e-05 0
0.00450122 4.22998e-05 0
0.00523582 4.08039e-05 0
0.00523432 3.16427e-05 0
0.00449987 3.34408e-05 0
0.00450229 1.76384e-05 0
0.00301287 3.10238e-05 0
0.00450108 2.55396e-05 0
0.00375758 2.43311e-05 0
0.00375637 3.22323e-05 0
0.00449972 3.34408e-05 0
0.00596892 3.36456e-05 0
0.00449993 1.76384e-05 0
0.00523432 3.35432e-05 0
0.00523442 2.5642e-05 0
0.00449982 2.55396e-05 0
0.002993 3.55262e-05 0
0.00449982 5.30503e-05 0
0.00301052 2.91556e-05 0
0.00374641 4.42883e-05 0
0.00375517 4.1103e-05 0
0.00300176 3.23409e-05 0
0.002993 3.52257e-05 0
0.00297491 4.51393e-05 0
0.00449982 5.3317e-05 0
0.00298395 4.01825e-05 0
0.00373736 4.92281e-05 0
0.00374641 4.42714e-05 0
0.00299315 3.55262e-05 0
0.00301244 2.91556e-05 0
0.00148893 1.62289e-05 0
0.0030028 3.23409e-05 0
0.00225069 2.26922e-05 0
0.00224104 2.58776e-05 0
0.00299315 3.52257e-05 0
0.00148893 1.29572e-05 0
0.00297088 4.51393e-05 0
0.00224104 2.40915e-05 0
0.00222991 2.90482e-05 0
0.00298201 4.01825e-05 0
0.00448962 -1.39448e-05 0
0.00450388 1.64613e-05 0
0.00593138 -2.82068e-05 0
0.00449675 1.25827e-06 0
0.00521763 -5.87273e-06 0
0.0052105 -2.10758e-05 0
0.0044897 -1.39448e-05 0
0.00302512 -1.9172e-06 0
0.00450172 1.64613e-05 0
0.00375741 -7.93099e-06 0
0.00376342 7.27206e-06 0
0.00449571 1.25827e-06 0
0.00448962 -1.37917e-05 0
0.00593138 -2.98216e-05 0
0.00447359 -4.30006e-05 0
0.0052105 -2.18067e-05 0
0.00520249 -3.64111e-05 0
0.00448161 -2.83962e-05 0
0.0044897 -1.37917e-05 0
0.00447468 -4.30006e-05 0
0.00302512 1.22797e-06 0
0.00448219 -2.83962e-05 0
0.0037499 -2.08863e-05 0
0.00375741 -6.28189e-06 0
0.00302186 1.23677e-05 0
0.00301547 2.84154e-05 0
0.00450117 1.8754e-05 0
0.00301867 2.03915e-05 0
0.00375832 2.35847e-05 0
0.00376152 1.55608e-05 0
0.00302186 1.24243e-05 0
0.00450117 1.59112e-05 0
0.00302535 -1.68995e-06 0
0.00376152 1.41678e-05 0
0.00376326 7.1106e-06 0
0.0030236 5.3672e-06 0
0.00302189 1.23677e-05 0
0.00152636 4.21177e-06 0
0.00301373 2.84154e-05 0
0.00227413 8.28973e-06 0
0.00227005 1.63136e-05 0
0.00301781 2.03915e-05 0
0.00302189 1.24243e-05 0
0.00302669 -1.68995e-06 0
0.00152636 7.62125e-06 0
0.00302429 5.3672e-06 0
0.00227653 2.96565e-06 0
0.00227413 1.00228e-05 0
0.00432095 -0.0184328 0
0.00717649 -0.0161865 0
0.00512438 -0.0212883 0
0.00574872 -0.0173096 0
0.00615044 -0.0187374 0
0.00472266 -0.0198605 0
0.00433415 -0.0184328 0
0.0036799 -0.0156574 0
0.00710951 -0.0161865 0
0.00400703 -0.0170451 0
0.00539471 -0.015922 0
0.00572183 -0.0173096 0
0.0079153 -0.0185724 0
0.0053363 -0.0215002 0
0.00698341 -0.0159934 0
0.0066258 -0.0200363 0
0.00615986 -0.0187468 0
0.00744936 -0.0172829 0
0.0079153 -0.018561 0
0.00698341 -0.0163762 0
0.0101001 -0.0153774 0
0.00744936 -0.0174686 0
0.00854175 -0.0158768 0
0.0090077 -0.0169692 0
0.00792102 -0.0185724 0
0.00895186 -0.0212516 0
0.00524184 -0.0215002 0
0.00843644 -0.019912 0
0.00709685 -0.0213759 0
0.00658143 -0.0200363 0
0.00792102 -0.018561 0
0.0101145 -0.0153774 0
0.00895186 -0.0207544 0
0.00901775 -0.0169692 0
0.00953317 -0.0180659 0
0.00843644 -0.0196577 0
0.0109407 -0.0168663 0
0.0120483 -0.0185051 0
0.00930183 -0.0210306 0
0.0114945 -0.0176857 0
0.0106751 -0.0197679 0
0.0101212 -0.0189485 0
0.0109359 -0.0168663 0
0.00922805 -0.0210306 0
0.00989551 -0.0151584 0
0.010082 -0.0189485 0
0.00956178 -0.0180945 0
0.0104157 -0.0160124 0
0.0109407 -0.0168569 0
0.0120165 -0.0129774 0
0.0120483 -0.0179327 0
0.0114786 -0.0149172 0
0.0120324 -0.0154551 0
0.0114945 -0.0173948 0
0.0109359 -0.0168569 0
0.00989551 -0.0156366 0
0.0121562 -0.0129774 0
0.0104157 -0.0162468 0
0.0110259 -0.014307 0
0.0115461 -0.0149172 0
0.00611883 -0.0247873 0
0.00501814 -0.0217239 0
0.0091822 -0.0210213 0
0.00556848 -0.0232556 0
0.00710017 -0.0213726 0
0.00765051 -0.0229043 0
0.00609444 -0.0247873 0
0.00929046 -0.0210213 0
0.00743465 -0.0279833 0
0.00769245 -0.0229043 0
0.00836255 -0.0245023 0
0.00676455 -0.0263853 0
0.0104892 -0.0233333 0
0.008961 -0.0213715 0
0.0124511 -0.0181023 0
0.00972512 -0.0223524 0
0.0107061 -0.0197369 0
0.0114702 -0.0207178 0
0.0104892 -0.0233575 0
0.00782351 -0.0283722 0
0.008961 -0.0206918 0
0.00915637 -0.0258649 0
0.00839225 -0.024532 0
0.00972512 -0.0220247 0
0.0105013 -0.0233333 0
0.0123936 -0.0181023 0
0.0121952 -0.0252256 0
0.0114475 -0.0207178 0
0.0122944 -0.021664 0
0.0113483 -0.0242795 0
0.0105013 -0.0233575 0
0.0121952 -0.0261474 0
0.00771154 -0.0283722 0
0.0113483 -0.0247524 0
0.00995339 -0.0272598 0
0.00910644 -0.0258649 0
0.0125933 -0.0132322 0
0.012215 -0.0180994 0
0.011893 -0.012854 0
0.0124041 -0.0156658 0
0.012054 -0.0154767 0
0.0122431 -0.0130431 0
0.0125933 -0.0132302 0
0.011893 -0.0132291 0
0.0125943 -0.00933235 0
0.0122431 -0.0132297 0
0.0122437 -0.0112807 0
0.0125938 -0.0112813 0
0.0125943 -0.0132322 0
0.0131869 -0.0133149 0
0.0125117 -0.0180994 0
0.0128906 -0.0132736 0
0.0128493 -0.0157071 0
0.012553 -0.0156658 0
0.0125943 -0.0132302 0
0.0122833 -0.00933235 0
0.0131869 -0.0129192 0
0.0124388 -0.0112813 0
0.0127351 -0.0111257 0
0.0128906 -0.0130747 0
0.012111 -0.00846019 0
0.010786 -0.0054082 0
0.0114553 -0.0071352 0
0.0114485 -0.00693419 0
0.0111206 -0.0062717 0
0.0117831 -0.00779769 0
0.012117 -0.00846019 0
0.0123618 -0.00945472 0
0.0111225 -0.0054082 0
0.0122394 -0.00895745 0
0.0117422 -0.00743146 0
0.0116197 -0.00693419 0
0.012111 -0.00844809 0
0.0114553 -0.00705802 0
0.013501 -0.0128121 0
0.0117831 -0.00775305 0
0.0124781 -0.00993504 0
0.012806 -0.0106301 0
0.012117 -0.00844809 0
0.0130798 -0.0128121 0
0.0123618 -0.00941091 0
0.0125984 -0.0106301 0
0.0127208 -0.0111115 0
0.0122394 -0.0089295 0
0.0095931 -0.00410429 0
0.0111298 -0.00680974 0
0.0110188 -0.00564098 0
0.0103614 -0.00545701 0
0.0110743 -0.00622536 0
0.0103059 -0.00487263 0
0.0095931 -0.00411942 0
0.0110188 -0.00536883 0
0.00834369 -0.00234302 0
0.0103059 -0.00474412 0
0.00968122 -0.00385592 0
0.00896839 -0.00323122 0
0.00958553 -0.00410429 0
0.00766804 -0.00227743 0
0.0114124 -0.00680974 0
0.00862679 -0.00319086 0
0.00954022 -0.00454358 0
0.010499 -0.00545701 0
0.00958553 -0.00411942 0
0.008167 -0.00234302 0
0.00766804 -0.00270089 0
0.00887627 -0.00323122 0
0.00791752 -0.00252196 0
0.00862679 -0.00341015 0
0.0133352 -0.0113984 0
0.0132379 -0.0130752 0
0.0116585 -0.00685481 0
0.0132866 -0.0122368 0
0.0124482 -0.00996499 0
0.0124968 -0.00912662 0
0.0133352 -0.0113733 0
0.014863 -0.0182724 0
0.0132379 -0.0129011 0
0.0140991 -0.0148228 0
0.0140505 -0.0155867 0
0.0132866 -0.0121372 0
0.0133226 -0.0113984 0
0.0110613 -0.00685481 0
0.0128052 -0.00913712 0
0.0121919 -0.00912662 0
0.0119333 -0.00799597 0
0.0130639 -0.0102678 0
0.0133226 -0.0113733 0
0.0128052 -0.00905939 0
0.0156365 -0.0182724 0
0.0130639 -0.0102163 0
0.0142208 -0.0136659 0
0.0144795 -0.0148228 0
0.0135201 -0.0186549 0
0.0120807 -0.0185304 0
0.0136446 -0.0128572 0
0.0128004 -0.0185926 0
0.0128626 -0.0156938 0
0.0135824 -0.015756 0
0.0135288 -0.0186549 0
0.013194 -0.0128572 0
0.0149107 -0.0183201 0
0.0133614 -0.015756 0
0.0140524 -0.0155886 0
0.0142198 -0.0184875 0
0.0135201 -0.0186721 0
0.0126374 -0.0256678 0
0.0120807 -0.0177894 0
0.0130788 -0.02217 0
0.012359 -0.0217286 0
0.0128004 -0.0182307 0
0.0135288 -0.0186721 0
0.0149107 -0.0192336 0
0.0129673 -0.0256678 0
0.0142198 -0.0189529 0
0.013939 -0.0224507 0
0.013248 -0.02217 0
0.00625026 -0.00140403 0
0.00392064 -0.000231208 0
0.00742308 -0.00242795 0
0.00508545 -0.000817619 0
0.00567186 -0.00132958 0
0.00683667 -0.00191599 0
0.00625118 -0.00140403 0
0.00739511 -0.00242795 0
0.00837194 -0.00254796 0
0.00682314 -0.00191599 0
0.00788352 -0.00248796 0
0.00731156 -0.00197599 0
0.00625026 -0.00140586 0
0.00539527 -0.000651781 0
0.00392064 -0.000550866 0
0.00582277 -0.00102882 0
0.00465795 -0.000601323 0
0.00508545 -0.000978361 0
0.00625118 -0.00140586 0
0.00837194 -0.00224657 0
0.00541046 -0.000651781 0
0.00731156 -0.00182621 0
0.0068912 -0.00144918 0
0.00583082 -0.00102882 0
0.00956855 -0.00471417 0
0.0114849 -0.00673728 0
0.00754544 -0.00240003 0
0.0105267 -0.00572572 0
0.00951515 -0.00456865 0
0.00855699 -0.0035571 0
0.00955191 -0.00471417 0
0.007314 -0.00240003 0
0.00675239 -0.00247626 0
0.00843296 -0.0035571 0
0.0070332 -0.00243814 0
0.00815215 -0.00359521 0
0.00956855 -0.00468091 0
0.012166 -0.00849792 0
0.0114849 -0.00727837 0
0.0108673 -0.00658941 0
0.0118254 -0.00788815 0
0.0105267 -0.00597964 0
0.00955191 -0.00468091 0
0.00675239 -0.00160254 0
0.0126303 -0.00849792 0
0.00815215 -0.00314172 0
0.00969133 -0.00505023 0
0.0110911 -0.00658941 0
0.00480902 -0.00116585 0
0.00761525 -0.00223579 0
0.00373908 -0.000412768 0
0.00621213 -0.00170082 0
0.00567716 -0.00132428 0
0.00427405 -0.00078931 0
0.00480902 -0.00117076 0
0.00633953 -0.0020634 0
0.00761525 -0.00270127 0
0.00557427 -0.00161708 0
0.00697739 -0.00238234 0
0.00621213 -0.00193602 0
0.00481147 -0.00116585 0
0.00378742 -0.000412768 0
0.00194535 -0.000141794 0
0.00429945 -0.00078931 0
0.00286638 -0.000277281 0
0.00337841 -0.000653823 0
0.00481147 -0.00117076 0
0.00194535 0.00027456 0
0.0062568 -0.0020634 0
0.00337841 -0.000448102 0
0.00410107 -0.000894419 0
0.00553414 -0.00161708 0
0.0033868 -0.000283776 0
0.0038366 -0.000466831 0
0.00547707 -0.000733575 0
0.0036117 -0.000375304 0
0.00465683 -0.000600203 0
0.00443194 -0.000508675 0
0.0033868 -0.000278758 0
0.00547707 -0.000601414 0
0.00306415 -5.2561e-05 0
0.00443194 -0.000440086 0
0.00427061 -0.000326988 0
0.00322548 -0.000165659 0
0.00338931 -0.000283776 0
0.00141848 9.33124e-05 0
0.0037664 -0.000466831 0
0.0024039 -9.52319e-05 0
0.00259244 -0.00018676 0
0.00357786 -0.000375304 0
0.00338931 -0.000278758 0
0.00309922 -5.2561e-05 0
0.00141848 1.13355e-05 0
0.00324427 -0.000165659 0
0.00225885 -2.06128e-05 0
0.0024039 -0.000133711 0
0.00914904 -0.0322994 0
0.0129309 -0.025647 0
0.0113731 -0.0360813 0
0.01104 -0.0289732 0
0.012152 -0.0308642 0
0.0102611 -0.0341904 0
0.00922812 -0.0322994 0
0.0072517 -0.028832 0
0.0126955 -0.025647 0
0.00823991 -0.0305657 0
0.00997363 -0.0272395 0
0.0109618 -0.0289732 0
0.0148019 -0.0274282 0
0.0123279 -0.0370361 0
0.0122381 -0.0249543 0
0.0135649 -0.0322322 0
0.012283 -0.0309952 0
0.01352 -0.0261912 0
0.0148019 -0.0273599 0
0.0122381 -0.0263969 0
0.0157648 -0.0183795 0
0.01352 -0.0268784 0
0.0140015 -0.0223882 0
0.0152833 -0.0228697 0
0.014836 -0.0274282 0
0.0178139 -0.0299104 0
0.0123538 -0.0370361 0
0.016325 -0.0286693 0
0.0150839 -0.0334733 0
0.0135949 -0.0322322 0
0.014836 -0.0273599 0
0.0152608 -0.0183795 0
0.0178139 -0.0277847 0
0.0150484 -0.0228697 0
0.0165374 -0.0230821 0
0.016325 -0.0275723 0
0.0160469 -0.0160424 0
0.0120057 -0.00860006 0
0.0158497 -0.0120011 0
0.0140263 -0.0123212 0
0.0139277 -0.0103006 0
0.0159483 -0.0140217 0
0.0160694 -0.0160424 0
0.0150617 -0.0188472 0
0.0132645 -0.00860006 0
0.0155655 -0.0174448 0
0.0141631 -0.0137236 0
0.014667 -0.0123212 0
0.0160469 -0.0159973 0
0.0158497 -0.0122175 0
0.0198267 -0.0282232 0
0.0159483 -0.0141074 0
0.0178382 -0.0202204 0
0.0179368 -0.0221103 0
0.0160694 -0.0159973 0
0.0182525 -0.0282232 0
0.0150617 -0.0181804 0
0.0171609 -0.0221103 0
0.0166571 -0.0232018 0
0.0155655 -0.0170888 0
0.00975177 -0.00483269 0
0.0143808 -0.0105323 0
0.0128673 -0.00946173 0
0.0120663 -0.00768248 0
0.0136241 -0.009997 0
0.0113095 -0.00714721 0
0.00975177 -0.00492322 0
0.0128673 -0.00826087 0
0.00641412 -0.0019408 0
0.0113095 -0.00659205 0
0.00964072 -0.00510084 0
0.00808295 -0.00343201 0
0.00970651 -0.00483269 0
0.00491427 0.000710945 0
0.0152501 -0.0105323 0
0.00731039 -0.00206087 0
0.0100822 -0.00491066 0
0.0124783 -0.00768248 0
0.00970651 -0.00492322 0
0.00617853 -0.0019408 0
0.00491427 -0.00139524 0
0.00794252 -0.00343201 0
0.0055464 -0.00166802 0
0.00731039 -0.00315923 0
0.0157047 -0.0421108 0
0.0109713 -0.0384186 0
0.0193969 -0.0283274 0
0.013338 -0.0402647 0
0.0151841 -0.033373 0
0.0175508 -0.0352191 0
0.0150866 -0.0421108 0
0.0207675 -0.0283274 0
0.0172476 -0.0477917 0
0.017927 -0.0352191 0
0.0190075 -0.0380595 0
0.0161671 -0.0449512 0
0.0217725 -0.0252947 0
0.018235 -0.0298148 0
0.0172523 -0.0108149 0
0.0200038 -0.0275547 0
0.0177437 -0.0203149 0
0.0195124 -0.0180548 0
0.0217725 -0.0252404 0
0.0223271 -0.0528712 0
0.018235 -0.025795 0
0.0220498 -0.0390558 0
0.0202811 -0.0393331 0
0.0200038 -0.0255177 0
0.0217454 -0.0252947 0
0.0134467 -0.0108149 0
0.0243156 -0.016996 0
0.017596 -0.0180548 0
0.0188812 -0.0139054 0
0.0230305 -0.0211453 0
0.0217454 -0.0252404 0
0.0243156 -0.0204729 0
0.0265128 -0.0528712 0
0.0230305 -0.0228566 0
0.0254142 -0.0366721 0
0.0241291 -0.0390558 0
4.52029e-07 0 0
5.44195e-06 0 0
0.00152789 -4.98992e-06 0
2.94699e-06 0 0
0.000766667 -2.49496e-06 0
0.000764172 -2.49496e-06 0
4.52029e-07 0 0
0.00152789 -1.49393e-06 0
-1.0419e-06 0 0
0.000764172 -7.46965e-07 0
0.000763425 -7.46965e-07 0
-2.94936e-07 0 0
0.00152793 6.4883e-08 0
0.00152863 -5.72857e-06 0
6.07504e-06 -6.33091e-07 0
0.00152828 -2.83184e-06 0
0.000767352 -3.18083e-06 0
0.000767003 -2.84104e-07 0
0.0015281 6.4883e-08 0
0.00302522 2.21434e-07 0
0.00152826 -5.72857e-06 0
0.00227666 1.43158e-07 0
0.00227674 -2.75357e-06 0
0.00152818 -2.83184e-06 0
0.00152793 4.01748e-07 0
6.07504e-06 6.23766e-07 0
0.00152815 4.78803e-06 0
0.000767003 5.12755e-07 0
0.000767114 2.7059e-06 0
0.00152804 2.59489e-06 0
0.0015281 4.01748e-07 0
0.00152617 4.78803e-06 0
0.00302522 2.33322e-06 0
0.00152713 2.59489e-06 0
0.0022757 3.56062e-06 0
0.00227666 1.36749e-06 0
0.00300919 2.17593e-05 0
0.00152608 4.68603e-07 0
0.0029879 3.89499e-05 0
0.00226764 1.11139e-05 0
0.00225699 1.97093e-05 0
0.00299854 3.03546e-05 0
0.00300919 2.17259e-05 0
0.00302604 1.51522e-06 0
0.00152608 4.87525e-06 0
0.00301762 1.16205e-05 0
0.00227606 3.19523e-06 0
0.00226764 1.33006e-05 0
0.00300921 2.17593e-05 0
0.00298584 3.89499e-05 0
0.00447206 4.51224e-05 0
0.00299753 3.03546e-05 0
0.00372895 4.20361e-05 0
0.00374063 3.34408e-05 0
0.00300921 2.17259e-05 0
0.00447206 4.03816e-05 0
0.00302786 1.51522e-06 0
0.00374063 3.10537e-05 0
0.00374996 2.09484e-05 0
0.00301853 1.16205e-05 0
5.08689e-07 0 0
0.00152831 4.94258e-06 0
5.45127e-06 0 0
0.000764409 2.47129e-06 0
0.00076688 2.47129e-06 0
2.97998e-06 0 0
5.08689e-07 0 0
1.0521e-06 0 0
0.00152831 -5.43418e-07 0
7.80396e-07 0 0
0.00076468 -2.71708e-07 0
0.000764409 -2.71706e-07 0
0.00150672 1.35697e-05 0
0.00298425 3.52963e-05 0
0.00152845 2.83308e-06 0
0.00224548 2.4433e-05 0
0.00225635 1.90647e-05 0
0.00151758 8.20137e-06 0
0.00150652 1.35697e-05 0
0.00152493 2.83308e-06 0
5.89514e-06 -4.84304e-06 0
0.00151573 8.20137e-06 0
0.000765414 -1.00498e-06 0
0.000756207 4.36331e-06 0
0.00150672 1.39699e-05 0
0.00148187 1.48108e-05 0
0.00298425 3.88218e-05 0
0.00149429 1.43904e-05 0
0.00223306 2.68163e-05 0
0.00224548 2.63959e-05 0
0.00150652 1.39699e-05 0
5.89514e-06 -4.36572e-06 0
0.00148818 1.48108e-05 0
0.000756207 4.8021e-06 0
0.000747039 5.22256e-06 0
0.00149735 1.43904e-05 0
0.004435 7.94162e-05 0
0.0044735 4.3678e-05 0
0.00298388 4.09162e-05 0
0.00445425 6.15471e-05 0
0.00372869 4.22971e-05 0
0.00370944 6.01662e-05 0
0.00443493 7.94162e-05 0
0.00586757 0.000118971 0
0.00447449 4.3678e-05 0
0.00515125 9.91934e-05 0
0.00517103 8.13243e-05 0
0.00445471 6.15471e-05 0
0.004435 7.92778e-05 0
0.00298388 3.52737e-05 0
0.004391 0.00011481 0
0.00370944 5.72758e-05 0
0.00368744 7.5042e-05 0
0.004413 9.7044e-05 0
0.00443493 7.92778e-05 0
0.00439098 0.00011481 0
0.00586757 0.00012323 0
0.00441296 9.7044e-05 0
0.00512927 0.00011902 0
0.00515125 0.000101254 0
0.00581793 0.000168376 0
0.00438819 0.000115124 0
0.00576467 0.000218233 0
0.00510306 0.00014175 0
0.00507643 0.000166678 0
0.0057913 0.000193304 0
0.00581793 0.000168649 0
0.00586898 0.000121821 0
0.00438819 0.000117597 0
0.00584345 0.000145235 0
0.00512859 0.000119709 0
0.00510306 0.000143123 0
0.00581779 0.000168376 0
0.00576765 0.000218233 0
0.0072257 0.000218512 0
0.00579272 0.000193304 0
0.00649668 0.000218372 0
0.00652174 0.000193444 0
0.00581779 0.000168649 0
0.0072257 0.000218767 0
0.00586791 0.000121821 0
0.00652174 0.000193708 0
0.0065468 0.000170294 0
0.00584285 0.000145235 0
0.00432257 0.000150765 0
0.00576348 0.000217034 0
0.00438884 0.00011577 0
0.00504302 0.0001839 0
0.00507616 0.000166402 0
0.00435571 0.000133267 0
0.0043227 0.000150765 0
0.00438897 0.00011577 0
0.00287829 8.44986e-05 0
0.00435584 0.000133267 0
0.00363363 0.000100134 0
0.0036005 0.000117632 0
0.00432257 0.000150501 0
0.00425117 0.000186589 0
0.00576348 0.000221899 0
0.00428687 0.000168545 0
0.00500732 0.000204244 0
0.00504302 0.0001862 0
0.0043227 0.000150501 0
0.00287829 7.70003e-05 0
0.0042492 0.000186589 0
0.0036005 0.000113751 0
0.00356375 0.000131795 0
0.00428595 0.000168545 0
0.00293845 6.1859e-05 0
0.00438677 0.000110584 0
0.00298718 3.85724e-05 0
0.00366261 8.62217e-05 0
0.00368697 7.45784e-05 0
0.00296281 5.02157e-05 0
0.00293845 6.18747e-05 0
0.00288236 8.04294e-05 0
0.00438677 0.000117966 0
0.00291041 7.1152e-05 0
0.00363457 9.91977e-05 0
0.00366261 8.99203e-05 0
0.00293844 6.1859e-05 0
0.0029845 3.85724e-05 0
0.00148087 1.58066e-05 0
0.00296147 5.02157e-05 0
0.00223268 2.71895e-05 0
0.00220966 3.88328e-05 0
0.00293844 6.18747e-05 0
0.00148087 8.5821e-06 0
0.00288515 8.04294e-05 0
0.00220966 3.52284e-05 0
0.00218301 4.45058e-05 0
0.0029118 7.1152e-05 0
0.00718084 0.000263516 0
0.00722517 0.000219047 0
0.0057667 0.000219188 0
0.007203 0.000241281 0
0.00649593 0.000219117 0
0.00647377 0.000241352 0
0.00718069 0.000263516 0
0.00856203 0.000305581 0
0.00722275 0.000219047 0
0.00787136 0.000284549 0
0.00789239 0.000262314 0
0.00720172 0.000241281 0
0.00718084 0.000263219 0
0.0057667 0.000225082 0
0.0071427 0.000308416 0
0.00647377 0.00024415 0
0.0064547 0.000266749 0
0.00716177 0.000285817 0
0.00718069 0.000263219 0
0.00714719 0.000308416 0
0.00856203 0.000296714 0
0.00716394 0.000285817 0
0.00785461 0.000302565 0
0.00787136 0.000279966 0
4.96007e-07 0 0
-6.41523e-06 0 0
0.00148314 6.91124e-06 0
-2.95961e-06 0 0
0.000738361 3.45562e-06 0
0.000741817 3.45562e-06 0
4.96007e-07 0 0
0.00148314 9.76485e-06 0
1.02609e-05 0 0
0.000741817 4.88243e-06 0
0.000746699 4.88243e-06 0
5.37843e-06 0 0
0.00144063 2.88608e-05 0
0.00147714 1.29084e-05 0
1.23008e-06 -7.64531e-06 0
0.00145889 2.08846e-05 0
0.000739185 2.63155e-06 0
0.000720932 1.06077e-05 0
0.00144082 2.88608e-05 0
0.00287796 7.32353e-05 0
0.0014852 1.29084e-05 0
0.00215939 5.10481e-05 0
0.00218158 4.30719e-05 0
0.00146301 2.08846e-05 0
0.00144063 2.92394e-05 0
1.23008e-06 -1.20157e-05 0
0.00139938 2.6043e-05 0
0.000720932 8.61185e-06 0
0.000700305 7.01361e-06 0
0.00142001 2.76412e-05 0
0.00144082 2.92394e-05 0
0.00138867 2.6043e-05 0
0.00287796 8.13921e-05 0
0.00141475 2.76412e-05 0
0.00213331 5.37175e-05 0
0.00215939 5.53158e-05 0
0.00280459 0.000103878 0
0.00271685 0.000122406 0
0.0042439 0.000191625 0
0.00276072 0.000113142 0
0.00348037 0.000157016 0
0.00352424 0.000147751 0
0.00280459 0.000104034 0
0.0042439 0.000181284 0
0.00288184 8.05527e-05 0
0.00352424 0.000142659 0
0.00356287 0.000130918 0
0.00284322 9.22934e-05 0
0.00280467 0.000103878 0
0.0013848 1.80065e-05 0
0.0027188 0.000122406 0
0.00209474 6.09422e-05 0
0.0020518 7.02064e-05 0
0.00276174 0.000113142 0
0.00280467 0.000104034 0
0.0028788 8.05527e-05 0
0.0013848 2.99097e-05 0
0.00284173 9.22934e-05 0
0.0021318 5.52312e-05 0
0.00209474 6.69718e-05 0
0.00570243 0.000253021 0
0.00576492 0.000220451 0
0.00424724 0.000190527 0
0.00573368 0.000236736 0
0.00500608 0.000205489 0
0.00497483 0.000221774 0
0.00570243 0.000252609 0
0.00424724 0.000191638 0
0.00564146 0.000286967 0
0.00497483 0.000222124 0
0.00494435 0.000239303 0
0.00567194 0.000269788 0
0.00570222 0.000253021 0
0.00714715 0.000312865 0
0.00576207 0.000220451 0
0.00642469 0.000282943 0
0.00645461 0.000266658 0
0.00573214 0.000236736 0
0.00570222 0.000252609 0
0.0056472 0.000286967 0
0.00714715 0.000307634 0
0.00567471 0.000269788 0
0.00639717 0.000297301 0
0.00642469 0.000280122 0
0.00416585 0.00021001 0
0.00424666 0.000188864 0
0.00271005 0.000129204 0
0.00420625 0.000199437 0
0.00347835 0.000159034 0
0.00343795 0.000169607 0
0.00416555 0.00021001 0
0.00564341 0.000288919 0
0.00424446 0.000188864 0
0.00490448 0.000249465 0
0.00494394 0.000238892 0
0.00420501 0.000199437 0
0.00416585 0.000209416 0
0.00271005 0.000123154 0
0.00407959 0.000233319 0
0.00343795 0.000166285 0
0.00339482 0.000178237 0
0.00412272 0.000221368 0
0.00416555 0.000209416 0
0.00408594 0.000233319 0
0.00564341 0.000289029 0
0.00412575 0.000221368 0
0.00486467 0.000261174 0
0.00490448 0.000249223 0
4.12851e-07 0 0
0.00138617 1.2833e-05 0
1.32458e-05 0 0
0.000693291 6.41649e-06 0
0.000699707 6.41649e-06 0
6.82934e-06 0 0
4.12851e-07 0 0
-1.79887e-05 0 0
0.00138617 1.84015e-05 0
-8.78791e-06 0 0
0.00068409 9.20076e-06 0
0.000693291 9.20076e-06 0
0.00132626 4.51356e-05 0
0.00270718 0.000110786 0
0.00139191 2.5114e-05 0
0.00201672 7.79608e-05 0
0.00204955 6.795e-05 0
0.00135909 3.51248e-05 0
0.00132618 4.51356e-05 0
0.00137946 2.5114e-05 0
-9.84508e-06 -8.14359e-06 0
0.00135282 3.51248e-05 0
0.000684806 8.4852e-06 0
0.000658166 1.8496e-05 0
0.00132626 4.53034e-05 0
0.00124429 3.83699e-05 0
0.00270718 0.000127271 0
0.00128528 4.18367e-05 0
0.00197574 8.28203e-05 0
0.00201672 8.6287e-05 0
0.00132618 4.53034e-05 0
-9.84508e-06 -2.29501e-05 0
0.00125792 3.83699e-05 0
0.000658166 1.11767e-05 0
0.000624039 7.70992e-06 0
0.00129205 4.18367e-05 0
0.00854147 0.000319036 0
0.0071518 0.00032197 0
0.00854441 0.000323078 0
0.00784663 0.000320503 0
0.0078481 0.000322524 0
0.00854294 0.000321057 0
0.00854147 0.000319174 0
0.00855683 0.000301909 0
0.0071518 0.000303811 0
0.00854915 0.000310542 0
0.00785432 0.00030286 0
0.00784663 0.000311492 0
0.0085414 0.000319036 0
0.0085463 0.000323078 0
0.00987945 0.000314138 0
0.00854385 0.000321057 0
0.00921288 0.000318608 0
0.00921043 0.000316587 0
0.0085414 0.000319174 0
0.00987945 0.000333675 0
0.0085559 0.000301909 0
0.00921043 0.000326424 0
0.00921768 0.000317792 0
0.00854865 0.000310542 0
0.00711795 0.000309911 0
0.0085546 0.000333269 0
0.00714131 0.000311479 0
0.00783627 0.00032159 0
0.00784795 0.000322374 0
0.00712963 0.000310695 0
0.00711808 0.000309911 0
0.00714331 0.000311479 0
0.00564948 0.000284689 0
0.00713069 0.000310695 0
0.00639639 0.000298084 0
0.00638378 0.0002973 0
0.00711795 0.000309642 0
0.0071152 0.000294382 0
0.0085546 0.000312391 0
0.00711657 0.000302012 0
0.0078349 0.000303386 0
0.00783627 0.000311016 0
0.00711808 0.000309642 0
0.00564948 0.000302874 0
0.00711132 0.000294382 0
0.00638378 0.000306258 0
0.0063804 0.000298628 0
0.0071147 0.000302012 0
0.00989545 0.000281491 0
0.00986731 0.000326274 0
0.00855976 0.000309623 0
0.00988138 0.000303882 0
0.00921353 0.000317949 0
0.0092276 0.000295557 0
0.00989555 0.000281491 0
0.0111562 0.000258135 0
0.00987219 0.000326274 0
0.0105259 0.000269813 0
0.0105142 0.000292204 0
0.00988387 0.000303882 0
0.00989545 0.000281697 0
0.00855976 0.000339483 0
0.00995323 0.000194963 0
0.0092276 0.00031059 0
0.00925649 0.000267223 0
0.00992434 0.00023833 0
0.00989555 0.000281697 0
0.00994691 0.000194963 0
0.0111562 0.000230337 0
0.00992123 0.00023833 0
0.0105516 0.00021265 0
0.0105259 0.000256017 0
0.0112043 0.000105719 0
0.0112856 -0.00012076 0
0.0123418 2.44401e-05 0
0.0112449 -7.52063e-06 0
0.0118137 -4.816e-05 0
0.0117731 6.50795e-05 0
0.0112043 0.000105103 0
0.0123418 5.26574e-05 0
0.0111518 0.000249541 0
0.0117731 7.88803e-05 0
0.0117468 0.000151099 0
0.0111781 0.000177322 0
0.011204 0.000105719 0
0.00996981 0.000206433 0
0.0113047 -0.00012076 0
0.0105869 0.000156076 0
0.0106373 4.28363e-05 0
0.0112543 -7.52063e-06 0
0.011204 0.000105103 0
0.011137 0.000249541 0
0.00996981 0.000172058 0
0.0111705 0.000177322 0
0.0105534 0.000210799 0
0.0105869 0.000138581 0
0.012394 -0.000224615 0
0.0123188 4.75064e-05 0
0.0113142 -0.000149419 0
0.0123564 -8.85542e-05 0
0.0118165 -5.09566e-05 0
0.0118541 -0.000187017 0
0.0123944 -0.000224615 0
0.0133641 -0.00027379 0
0.0123453 4.75064e-05 0
0.0128793 -0.000249202 0
0.0128547 -0.000113142 0
0.0123698 -8.85542e-05 0
0.012394 -0.000223712 0
0.0113142 -0.000123167 0
0.0124945 -0.000618924 0
0.0118541 -0.00017344 0
0.0119044 -0.000371046 0
0.0124443 -0.000421318 0
0.0123944 -0.000223712 0
0.0124617 -0.000618924 0
0.0133641 -0.000291014 0
0.0124281 -0.000421318 0
0.0129129 -0.000454969 0
0.0128793 -0.000257363 0
0.0132988 -2.33843e-05 0
0.0132496 0.000140545 0
0.0123442 2.57995e-05 0
0.0132742 5.85802e-05 0
0.0127969 8.31722e-05 0
0.0128215 1.2076e-06 0
0.0132988 -2.27842e-05 0
0.0123442 4.64454e-05 0
0.013368 -0.000269917 0
0.0128215 1.18306e-05 0
0.0128561 -0.000111736 0
0.0133334 -0.000146351 0
0.0132991 -2.33843e-05 0
0.0141449 -5.52594e-05 0
0.0132672 0.000140545 0
0.013722 -3.93219e-05 0
0.013706 4.26427e-05 0
0.0132831 5.85802e-05 0
0.0132991 -2.27842e-05 0
0.0133462 -0.000269917 0
0.0141449 -6.99037e-05 0
0.0133226 -0.000146351 0
0.0137455 -0.000169911 0
0.013722 -4.63439e-05 0
0.0100433 -3.13703e-05 0
0.0113112 -0.000114234 0
0.00996045 0.000197066 0
0.0106773 -7.28022e-05 0
0.0106358 4.14158e-05 0
0.0100019 8.28477e-05 0
0.0100429 -3.13703e-05 0
0.0099401 0.000197066 0
0.00867907 7.13833e-05 0
0.00999148 8.28477e-05 0
0.00930958 0.000134224 0
0.00936096 2.00065e-05 0
0.0100433 -3.04589e-05 0
0.0101655 -0.000372799 0
0.0113112 -0.000152621 0
0.0101044 -0.000201629 0
0.0107383 -0.00026271 0
0.0106773 -9.154e-05 0
0.0100429 -3.04589e-05 0
0.00867907 0.000118884 0
0.0101922 -0.000372799 0
0.00936096 4.42128e-05 0
0.00943563 -0.000126957 0
0.0101175 -0.000201629 0
0.00857988 0.000240495 0
0.00996531 0.000207037 0
0.00854642 0.000326146 0
0.00927259 0.000223766 0
0.00925586 0.000266592 0
0.00856315 0.00028332 0
0.00857988 0.000240733 0
0.00864875 0.000101702 0
0.00996531 0.000171861 0
0.00861431 0.000171218 0
0.00930703 0.000136781 0
0.00927259 0.000206297 0
0.00857976 0.000240495 0
0.00854084 0.000326146 0
0.00713017 0.00027941 0
0.0085603 0.00028332 0
0.00783551 0.000302778 0
0.00785496 0.000259952 0
0.00857976 0.000240733 0
0.00713017 0.000316967 0
0.00865599 0.000101702 0
0.00785496 0.00027885 0
0.00789308 0.000209335 0
0.00861787 0.000171218 0
0.0141443 -0.000303193 0
0.0148115 -0.000293861 0
0.0141536 -5.49504e-05 0
0.0144779 -0.000298527 0
0.0144825 -0.000174406 0
0.0141489 -0.000179072 0
0.014144 -0.000303193 0
0.0141299 -5.49504e-05 0
0.0133654 -0.000289149 0
0.0141369 -0.000179072 0
0.0137477 -0.00017205 0
0.0137547 -0.000296171 0
0.0141443 -0.000302547 0
0.0141341 -0.000652529 0
0.0148115 -0.000292326 0
0.0141392 -0.000477538 0
0.0144728 -0.000472428 0
0.0144779 -0.000297437 0
0.014144 -0.000302547 0
0.0133654 -0.000284227 0
0.0141623 -0.000652529 0
0.0137547 -0.000293387 0
0.0137638 -0.000468378 0
0.0141531 -0.000477538 0
0.014802 -8.15894e-05 0
0.014146 -6.25379e-05 0
0.0148211 -0.000284246 0
0.014474 -7.20636e-05 0
0.0144836 -0.000173392 0
0.0148116 -0.000182918 0
0.014802 -8.20151e-05 0
0.0147895 5.64754e-05 0
0.014146 -6.9507e-05 0
0.0147958 -1.27699e-05 0
0.0144678 -6.51582e-06 0
0.014474 -7.57611e-05 0
0.0148023 -8.15894e-05 0
0.0148035 -0.000284246 0
0.0153462 -8.28818e-05 0
0.0148029 -0.000182918 0
0.0150749 -0.000183564 0
0.0150742 -8.22356e-05 0
0.0148023 -8.20151e-05 0
0.0153462 -8.01701e-05 0
0.0148041 5.64754e-05 0
0.0150742 -8.10926e-05 0
0.0150752 -1.18473e-05 0
0.0148032 -1.27699e-05 0
0.013373 -0.000674673 0
0.0124887 -0.000641272 0
0.0134064 -0.00123241 0
0.0129309 -0.000657972 0
0.0129476 -0.00093684 0
0.0133897 -0.000953541 0
0.013373 -0.000675617 0
0.0133433 -0.000270191 0
0.0124887 -0.000645925 0
0.0133581 -0.000472904 0
0.012916 -0.000458058 0
0.0129309 -0.000660771 0
0.0133734 -0.000674673 0
0.0133636 -0.00123241 0
0.0141452 -0.00066484 0
0.0133685 -0.000953541 0
0.0137544 -0.000948624 0
0.0137593 -0.000669756 0
0.0133734 -0.000675617 0
0.0141452 -0.000669628 0
0.0133794 -0.000270191 0
0.0137593 -0.000672622 0
0.0137623 -0.000469909 0
0.0133764 -0.000472904 0
0.0114046 -0.000538676 0
0.0124874 -0.000626088 0
0.0113172 -0.000120178 0
0.011946 -0.000582382 0
0.0119023 -0.000373133 0
0.0113609 -0.000329427 0
0.0114046 -0.000537311 0
0.0115172 -0.00113324 0
0.0124874 -0.000649922 0
0.0114609 -0.000835274 0
0.0120023 -0.00089158 0
0.011946 -0.000593617 0
0.0114039 -0.000538676 0
0.0112788 -0.000120178 0
0.0102062 -0.000413506 0
0.0113414 -0.000329427 0
0.0107425 -0.000266842 0
0.0108051 -0.000476091 0
0.0114039 -0.000537311 0
0.0102062 -0.000376025 0
0.0115652 -0.00113324 0
0.0108051 -0.000456668 0
0.0108857 -0.000754632 0
0.0114846 -0.000835274 0
0.012527 -0.00124176 0
0.0133803 -0.00125846 0
0.0125103 -0.000619655 0
0.0129537 -0.00125011 0
0.0129453 -0.000939055 0
0.0125187 -0.000930705 0
0.0125264 -0.00124176 0
0.0124571 -0.000619655 0
0.0115565 -0.00117247 0
0.0124917 -0.000930705 0
0.0120068 -0.000896065 0
0.0120414 -0.00120712 0
0.012527 -0.0012404 0
0.012538 -0.00208348 0
0.0133803 -0.00125131 0
0.0125325 -0.00166194 0
0.0129591 -0.00166739 0
0.0129537 -0.00124585 0
0.0125264 -0.0012404 0
0.0115565 -0.0011661 0
0.0126007 -0.00208348 0
0.0120414 -0.00120325 0
0.0120786 -0.00162479 0
0.0125635 -0.00166194 0
0.0147363 -0.000596656 0
0.0148038 -0.000284601 0
0.0141457 -0.000664125 0
0.01477 -0.000440628 0
0.0144747 -0.000474363 0
0.014441 -0.000630391 0
0.0147363 -0.000596102 0
0.0141457 -0.000682016 0
0.0146504 -0.00101488 0
0.014441 -0.000639059 0
0.014398 -0.000848448 0
0.0146933 -0.000805491 0
0.0147366 -0.000596656 0
0.01522 -0.000502991 0
0.0148302 -0.000284601 0
0.0149783 -0.000549823 0
0.0150251 -0.000393796 0
0.0147834 -0.000440628 0
0.0147366 -0.000596102 0
0.01462 -0.00101488 0
0.01522 -0.000479558 0
0.0146783 -0.000805491 0
0.01492 -0.000747219 0
0.0149783 -0.00053783 0
0.0140523 -0.00116801 0
0.0141336 -0.000653263 0
0.0133805 -0.00124933 0
0.0140929 -0.000910638 0
0.0137571 -0.000951297 0
0.0137164 -0.00120867 0
0.0140527 -0.00116801 0
0.014619 -0.00104627 0
0.0141744 -0.000653263 0
0.0143358 -0.00110714 0
0.0143967 -0.000849767 0
0.0141135 -0.000910638 0
0.0140523 -0.00116725 0
0.0133805 -0.00127565 0
0.0139439 -0.00184319 0
0.0137164 -0.00122145 0
0.0136622 -0.00155942 0
0.0139981 -0.00150522 0
0.0140527 -0.00116725 0
0.0138977 -0.00184319 0
0.014619 -0.00101232 0
0.0139752 -0.00150522 0
0.0142584 -0.00142775 0
0.0143358 -0.00108978 0
0.0152954 -0.000247696 0
0.0153404 -7.70894e-05 0
0.014812 -0.000292739 0
0.0153179 -0.000162393 0
0.0150762 -0.000184914 0
0.0150537 -0.000270218 0
0.0152956 -0.000247696 0
0.0156692 -0.00018708 0
0.0153562 -7.70894e-05 0
0.0154824 -0.000217388 0
0.0155127 -0.000132085 0
0.0153259 -0.000162393 0
0.0152954 -0.000247327 0
0.014812 -0.000302786 0
0.0152399 -0.00048303 0
0.0150537 -0.000275057 0
0.015026 -0.000392908 0
0.0152677 -0.000365178 0
0.0152956 -0.000247327 0
0.0152216 -0.00048303 0
0.0156692 -0.000173341 0
0.0152586 -0.000365178 0
0.0154454 -0.000328185 0
0.0154824 -0.000210334 0
0.0157022 -6.42204e-05 0
0.0157221 1.41352e-05 0
0.0153468 -8.41463e-05 0
0.0157121 -2.50426e-05 0
0.0155344 -3.50056e-05 0
0.0155245 -7.41834e-05 0
0.0157022 -6.40063e-05 0
0.0153468 -8.65222e-05 0
0.0156797 -0.000176639 0
0.0155245 -7.52643e-05 0
0.0155132 -0.000131581 0
0.0156909 -0.000120323 0
0.0157023 -6.42204e-05 0
0.0159452 -3.63662e-05 0
0.0157301 1.41352e-05 0
0.0158237 -5.02933e-05 0
0.0158377 -1.11155e-05 0
0.0157162 -2.50426e-05 0
0.0157023 -6.40063e-05 0
0.0156701 -0.000176639 0
0.0159452 -3.18492e-05 0
0.0156862 -0.000120323 0
0.0158077 -0.000104244 0
0.0158237 -4.79278e-05 0
0.00716385 0.000169969 0
0.00710716 0.000298945 0
0.00560802 0.000226653 0
0.0071355 0.000234457 0
0.00635759 0.000262799 0
0.00638593 0.000198311 0
0.00716393 0.000169969 0
0.00867247 0.000118184 0
0.00711215 0.000298945 0
0.0079182 0.000144076 0
0.00789231 0.000208564 0
0.00713804 0.000234457 0
0.00716385 0.000170148 0
0.00560802 0.000275866 0
0.00726956 -2.13816e-05 0
0.00638593 0.000223007 0
0.00643879 0.000127242 0
0.0072167 7.43831e-05 0
0.00716393 0.000170148 0
0.00726332 -2.13816e-05 0
0.00867247 7.07609e-05 0
0.00721363 7.43831e-05 0
0.0079679 2.46896e-05 0
0.0079182 0.000120454 0
0.00560391 0.000271521 0
0.00559207 0.000242609 0
0.00712274 0.000283366 0
0.00559799 0.000257065 0
0.0063574 0.000262988 0
0.00636333 0.000277444 0
0.00560391 0.000272087 0
0.00712274 0.000305807 0
0.00563763 0.00029103 0
0.00636333 0.000288947 0
0.00638019 0.000298419 0
0.00562077 0.000281559 0
0.0056042 0.000271521 0
0.00408438 0.000251651 0
0.00558433 0.000242609 0
0.00484429 0.000261586 0
0.00483436 0.00024713 0
0.00559426 0.000257065 0
0.0056042 0.000272087 0
0.00564141 0.00029103 0
0.00408438 0.000234875 0
0.0056228 0.000281559 0
0.0048629 0.000262953 0
0.00484429 0.000253481 0
0.0088022 -0.000224383 0
0.00899724 -0.000709963 0
0.0102021 -0.000419415 0
0.00889972 -0.000467173 0
0.00959968 -0.000564689 0
0.00950217 -0.000321899 0
0.0088022 -0.000225746 0
0.0102021 -0.000362871 0
0.00866508 0.000104897 0
0.00950217 -0.000294309 0
0.0094336 -0.000128987 0
0.00873364 -6.04246e-05 0
0.00880152 -0.000224383 0
0.0073045 7.61706e-06 0
0.00903352 -0.000709963 0
0.00805301 -0.000108383 0
0.00816901 -0.000351173 0
0.00891752 -0.000467173 0
0.00880152 -0.000225746 0
0.00863834 0.000104897 0
0.0073045 -6.25593e-05 0
0.00871993 -6.04246e-05 0
0.00797142 2.11689e-05 0
0.00805301 -0.000144153 0
0.0103687 -0.000983616 0
0.0101549 -0.000372173 0
0.0090571 -0.000769827 0
0.0102618 -0.000677894 0
0.00960599 -0.000571 0
0.00971289 -0.000876721 0
0.0103697 -0.000983616 0
0.0115552 -0.00114331 0
0.01021 -0.000372173 0
0.0109624 -0.00106346 0
0.0108826 -0.000757742 0
0.0102899 -0.000677894 0
0.0103687 -0.000981502 0
0.0090571 -0.000712496 0
0.0106377 -0.00184749 0
0.00971289 -0.000846999 0
0.00984739 -0.00127999 0
0.0105032 -0.0014145 0
0.0103697 -0.000981502 0
0.0105677 -0.00184749 0
0.0115552 -0.00117951 0
0.0104687 -0.0014145 0
0.0110614 -0.0015135 0
0.0109624 -0.00108051 0
0.00566248 8.33776e-05 0
0.00729394 2.99308e-06 0
0.0055821 0.000249943 0
0.00647821 4.31853e-05 0
0.00643802 0.000126468 0
0.00562229 0.00016666 0
0.00566248 8.32156e-05 0
0.00580814 -0.000148047 0
0.00729394 -6.24403e-05 0
0.00573531 -3.24157e-05 0
0.00655104 -0.000105244 0
0.00647821 1.03877e-05 0
0.00566257 8.33776e-05 0
0.00558034 0.000249943 0
0.00401559 0.000165608 0
0.00562145 0.00016666 0
0.00479796 0.000207775 0
0.00483908 0.000124493 0
0.00566257 8.32156e-05 0
0.00401559 0.000229421 0
0.00580877 -0.000148047 0
0.00483908 0.000156318 0
0.00491218 4.06871e-05 0
0.00573567 -3.24157e-05 0
0.00750875 -0.000464466 0
0.00905127 -0.00069222 0
0.007281 -1.58853e-05 0
0.00828001 -0.000578343 0
0.00816613 -0.000354053 0
0.00739487 -0.000240176 0
0.0075077 -0.000464466 0
0.00724738 -1.58853e-05 0
0.00586424 -0.000204145 0
0.00737754 -0.000240176 0
0.00655581 -0.000110015 0
0.00668597 -0.000334306 0
0.00750875 -0.000462373 0
0.00782624 -0.00112004 0
0.00905127 -0.000779867 0
0.0076675 -0.000791204 0
0.00843876 -0.000949951 0
0.00828001 -0.00062112 0
0.0075077 -0.000462373 0
0.00586424 -9.55668e-05 0
0.00787451 -0.00112004 0
0.00668597 -0.00027897 0
0.00686937 -0.000607801 0
0.00769111 -0.000791204 0
0.00402667 0.00020996 0
0.00559655 0.000254836 0
0.00407155 0.000238815 0
0.00481161 0.000232398 0
0.00483405 0.000246825 0
0.00404911 0.000224387 0
0.00402727 0.00020996 0
0.00407731 0.000238815 0
0.0025092 0.000159922 0
0.00405229 0.000224387 0
0.00329326 0.000199369 0
0.00326824 0.000184941 0
0.00402667 0.000208755 0
0.0040017 0.000179495 0
0.00559655 0.000233725 0
0.00401419 0.000194125 0
0.00479913 0.00020661 0
0.00481161 0.00022124 0
0.00402727 0.000208755 0
0.0025092 0.000168989 0
0.00398751 0.000179495 0
0.00326824 0.000188872 0
0.00324835 0.000174242 0
0.00400739 0.000194125 0
0.0026197 0.000138452 0
0.00407624 0.000229972 0
0.00271122 0.000124329 0
0.00334797 0.000184212 0
0.00339373 0.000177151 0
0.00266546 0.00013139 0
0.0026197 0.000137775 0
0.00251759 0.000151529 0
0.00407624 0.000239885 0
0.00256865 0.000144652 0
0.00329692 0.000195707 0
0.00334797 0.00018883 0
0.00262004 0.000138452 0
0.00271012 0.000124329 0
0.00123429 4.83723e-05 0
0.00266508 0.00013139 0
0.00197221 8.63508e-05 0
0.00192717 9.34119e-05 0
0.00262004 0.000137775 0
0.00123429 3.16916e-05 0
0.00251396 0.000151529 0
0.00192717 8.47332e-05 0
0.00187413 9.16101e-05 0
0.002567 0.000144652 0
0.0160016 0 0
0.0159454 -4.11439e-05 0
0.0159604 0 0
0.0159735 -2.05719e-05 0
0.0159529 -2.05719e-05 0
0.015981 0 0
0.0160016 0 0
0.0160365 0 0
0.0159454 -3.48872e-05 0
0.016019 0 0
0.0159909 -1.74436e-05 0
0.0159735 -1.74436e-05 0
0.0160016 0 0
0.0159604 0 0
0.0159454 4.11438e-05 0
0.015981 0 0
0.0159529 2.05719e-05 0
0.0159735 2.05719e-05 0
0.0160016 0 0
0.0159454 3.48872e-05 0
0.0160365 0 0
0.0159735 1.74436e-05 0
0.0159909 1.74436e-05 0
0.016019 0 0
0.0158656 -9.42863e-05 0
0.0159532 -7.2114e-06 0
0.0159527 -3.38395e-05 0
0.0159094 -5.07489e-05 0
0.0159529 -2.05255e-05 0
0.0159091 -6.40629e-05 0
0.0158655 -9.42863e-05 0
0.0159472 -3.38395e-05 0
0.0156694 -0.000175951 0
0.0159064 -6.40629e-05 0
0.0158083 -0.000104895 0
0.0157675 -0.000135119 0
0.0158656 -9.41675e-05 0
0.0157595 -0.000176847 0
0.0159532 1.18939e-05 0
0.0158126 -0.000135507 0
0.0158564 -8.24766e-05 0
0.0159094 -4.11368e-05 0
0.0158655 -9.41675e-05 0
0.0156694 -0.000193868 0
0.0157658 -0.000176847 0
0.0157675 -0.000144018 0
0.0157176 -0.000185358 0
0.0158157 -0.000135507 0
0.0158656 9.42863e-05 0
0.0159527 3.38395e-05 0
0.0159532 7.21138e-06 0
0.0159091 6.40629e-05 0
0.0159529 2.05254e-05 0
0.0159094 5.07488e-05 0
0.0158655 9.42863e-05 0
0.0156694 0.000175951 0
0.0159472 3.38395e-05 0
0.0157675 0.000135119 0
0.0158083 0.000104895 0
0.0159064 6.40629e-05 0
0.0158656 9.41675e-05 0
0.0159532 -1.1894e-05 0
0.0157595 0.000176847 0
0.0159094 4.11367e-05 0
0.0158564 8.24766e-05 0
0.0158126 0.000135507 0
0.0158655 9.41675e-05 0
0.0157658 0.000176847 0
0.0156694 0.000193868 0
0.0158157 0.000135507 0
0.0157176 0.000185358 0
0.0157675 0.000144018 0
0.0157023 6.42204e-05 0
0.0157301 -1.41352e-05 0
0.0159452 3.63661e-05 0
0.0157162 2.50426e-05 0
0.0158377 1.11155e-05 0
0.0158237 5.02933e-05 0
0.0157023 6.40063e-05 0
0.0159452 3.18492e-05 0
0.0156701 0.000176639 0
0.0158237 4.79277e-05 0
0.0158077 0.000104244 0
0.0156862 0.000120323 0
0.0157022 6.42204e-05 0
0.0153468 8.41463e-05 0
0.0157221 -1.41352e-05 0
0.0155245 7.41834e-05 0
0.0155344 3.50056e-05 0
0.0157121 2.50426e-05 0
0.0157022 6.40063e-05 0
0.0156797 0.000176639 0
0.0153468 8.65222e-05 0
0.0156909 0.000120323 0
0.0155132 0.000131581 0
0.0155245 7.52642e-05 0
0.0155361 -0.000344568 0
0.0153528 -0.000566812 0
0.0157482 -0.000161292 0
0.0154444 -0.00045569 0
0.0155505 -0.000364052 0
0.0156422 -0.00025293 0
0.0155361 -0.000344821 0
0.0157482 -0.000194437 0
0.0156865 -0.000176842 0
0.0156422 -0.000269629 0
0.0157174 -0.00018564 0
0.0156113 -0.000260831 0
0.015536 -0.000344568 0
0.0152202 -0.00051221 0
0.0153683 -0.000566812 0
0.0153781 -0.000428389 0
0.0152942 -0.000539511 0
0.0154521 -0.00045569 0
0.015536 -0.000344821 0
0.0156727 -0.000176842 0
0.0152202 -0.000481588 0
0.0156043 -0.000260831 0
0.0154464 -0.000329215 0
0.0153781 -0.000413204 0
0.0157995 0 0
0.0159651 0 0
0.0157483 -0.000165607 0
0.0158823 0 0
0.0158567 -8.28034e-05 0
0.0157739 -8.28034e-05 0
0.0157995 0 0
0.0157483 -0.000201015 0
0.0155985 0 0
0.0157739 -0.000100508 0
0.0156734 -0.000100508 0
0.015699 0 0
0.0157995 0 0
0.0157483 0.000165607 0
0.0159651 0 0
0.0157739 8.28034e-05 0
0.0158567 8.28034e-05 0
0.0158823 0 0
0.0157995 0 0
0.0155985 0 0
0.0157483 0.000201015 0
0.015699 0 0
0.0156734 0.000100508 0
0.0157739 0.000100508 0
0.0155039 -0.000292357 0
0.0157639 -0.000176991 0
0.0153383 -0.000552356 0
0.0156339 -0.000234674 0
0.0155511 -0.000364674 0
0.0154211 -0.000422356 0
0.015504 -0.000292357 0
0.0155745 -2.40449e-05 0
0.0157723 -0.000176991 0
0.0155392 -0.000158201 0
0.0156734 -0.000100518 0
0.0156382 -0.000234674 0
0.0155039 -0.000292241 0
0.0153383 -0.000605368 0
0.0151908 -0.000439579 0
0.0154211 -0.000448804 0
0.0152646 -0.000522474 0
0.0153474 -0.00036591 0
0.015504 -0.000292241 0
0.0151816 -0.000439579 0
0.0155745 3.0132e-05 0
0.0153428 -0.00036591 0
0.015378 -0.000204724 0
0.0155392 -0.000131054 0
0.0150279 -0.000817715 0
0.0153384 -0.000596773 0
0.0152489 -0.000483475 0
0.0151831 -0.000707244 0
0.0152936 -0.000540124 0
0.0151384 -0.000650595 0
0.0150278 -0.000817715 0
0.0152239 -0.000483475 0
0.014619 -0.00101385 0
0.0151258 -0.000650595 0
0.0149214 -0.000748664 0
0.0148234 -0.000915784 0
0.0150279 -0.000817331 0
0.014759 -0.00124798 0
0.0153384 -0.000548402 0
0.0148935 -0.00103265 0
0.0150487 -0.00089819 0
0.0151831 -0.000682867 0
0.0150278 -0.000817331 0
0.014619 -0.00105839 0
0.0147867 -0.00124798 0
0.0148234 -0.000937861 0
0.0147028 -0.00115318 0
0.0149072 -0.00103265 0
0.0152954 0.000247696 0
0.014812 0.000292739 0
0.0153404 7.70894e-05 0
0.0150537 0.000270218 0
0.0150762 0.000184914 0
0.0153179 0.000162393 0
0.0152956 0.000247696 0
0.0153562 7.70894e-05 0
0.0156692 0.00018708 0
0.0153259 0.000162393 0
0.0155127 0.000132085 0
0.0154824 0.000217388 0
0.0152954 0.000247327 0
0.0152399 0.00048303 0
0.014812 0.000302786 0
0.0152677 0.000365178 0
0.015026 0.000392908 0
0.0150537 0.000275057 0
0.0152956 0.000247327 0
0.0156692 0.000173341 0
0.0152216 0.00048303 0
0.0154824 0.000210334 0
0.0154454 0.000328185 0
0.0152586 0.000365178 0
0.0148023 8.15893e-05 0
0.0153462 8.28818e-05 0
0.0148035 0.000284246 0
0.0150742 8.22356e-05 0
0.0150749 0.000183564 0
0.0148029 0.000182918 0
0.0148023 8.20151e-05 0
0.0148041 -5.64754e-05 0
0.0153462 8.01701e-05 0
0.0148032 1.27698e-05 0
0.0150752 1.18473e-05 0
0.0150742 8.10926e-05 0
0.014802 8.15893e-05 0
0.0148211 0.000284246 0
0.014146 6.25378e-05 0
0.0148116 0.000182918 0
0.0144836 0.000173392 0
0.014474 7.20636e-05 0
0.014802 8.20151e-05 0
0.014146 6.9507e-05 0
0.0147895 -5.64754e-05 0
0.014474 7.5761e-05 0
0.0144678 6.51579e-06 0
0.0147958 1.27698e-05 0
0.0155361 0.000344568 0
0.0157482 0.000161292 0
0.0153528 0.000566812 0
0.0156422 0.00025293 0
0.0155505 0.000364052 0
0.0154444 0.00045569 0
0.0155361 0.000344821 0
0.0156865 0.000176842 0
0.0157482 0.000194437 0
0.0156113 0.000260831 0
0.0157174 0.000185639 0
0.0156422 0.000269629 0
0.015536 0.000344568 0
0.0153683 0.000566812 0
0.0152202 0.00051221 0
0.0154521 0.00045569 0
0.0152942 0.000539511 0
0.0153781 0.000428389 0
0.015536 0.000344821 0
0.0152202 0.000481588 0
0.0156727 0.000176842 0
0.0153781 0.000413204 0
0.0154464 0.000329215 0
0.0156043 0.000260831 0
0.0155039 0.000292357 0
0.0153383 0.000552356 0
0.0157639 0.000176991 0
0.0154211 0.000422356 0
0.0155511 0.000364673 0
0.0156339 0.000234674 0
0.015504 0.000292357 0
0.0157723 0.000176991 0
0.0155745 2.40449e-05 0
0.0156382 0.000234674 0
0.0156734 0.000100518 0
0.0155392 0.000158201 0
0.0155039 0.000292241 0
0.0151908 0.000439579 0
0.0153383 0.000605368 0
0.0153474 0.00036591 0
0.0152646 0.000522474 0
0.0154211 0.000448804 0
0.015504 0.000292241 0
0.0155745 -3.0132e-05 0
0.0151816 0.000439579 0
0.0155392 0.000131054 0
0.015378 0.000204724 0
0.0153428 0.00036591 0
0.0147366 0.000596656 0
0.0148302 0.000284601 0
0.01522 0.000502991 0
0.0147834 0.000440628 0
0.0150251 0.000393796 0
0.0149783 0.000549823 0
0.0147366 0.000596102 0
0.01522 0.000479558 0
0.01462 0.00101488 0
0.0149783 0.00053783 0
0.01492 0.000747219 0
0.0146783 0.000805491 0
0.0147363 0.000596656 0
0.0141457 0.000664125 0
0.0148038 0.000284601 0
0.014441 0.00063039 0
0.0144747 0.000474363 0
0.01477 0.000440628 0
0.0147363 0.000596102 0
0.0146504 0.00101488 0
0.0141457 0.000682016 0
0.0146933 0.000805491 0
0.014398 0.000848448 0
0.014441 0.000639059 0
0.0150279 0.000817715 0
0.0152489 0.000483475 0
0.0153384 0.000596773 0
0.0151384 0.000650595 0
0.0152936 0.000540124 0
0.0151831 0.000707244 0
0.0150278 0.000817715 0
0.014619 0.00101385 0
0.0152239 0.000483475 0
0.0148234 0.000915783 0
0.0149214 0.000748664 0
0.0151258 0.000650595 0
0.0150279 0.000817331 0
0.0153384 0.000548402 0
0.014759 0.00124798 0
0.0151831 0.000682867 0
0.0150487 0.00089819 0
0.0148935 0.00103265 0
0.0150278 0.000817331 0
0.0147867 0.00124798 0
0.014619 0.00105839 0
0.0149072 0.00103265 0
0.0147028 0.00115318 0
0.0148234 0.000937861 0
0.0141443 0.000303193 0
0.0141536 5.49504e-05 0
0.0148115 0.000293861 0
0.0141489 0.000179072 0
0.0144825 0.000174406 0
0.0144779 0.000298527 0
0.014144 0.000303193 0
0.0133654 0.000289149 0
0.0141299 5.49504e-05 0
0.0137547 0.000296171 0
0.0137477 0.00017205 0
0.0141369 0.000179072 0
0.0141443 0.000302547 0
0.0148115 0.000292326 0
0.0141341 0.000652529 0
0.0144779 0.000297437 0
0.0144728 0.000472428 0
0.0141392 0.000477538 0
0.014144 0.000302547 0
0.0141623 0.000652529 0
0.0133654 0.000284227 0
0.0141531 0.000477538 0
0.0137638 0.000468378 0
0.0137547 0.000293387 0
0.0132991 2.33843e-05 0
0.0132672 -0.000140545 0
0.0141449 5.52594e-05 0
0.0132831 -5.85803e-05 0
0.013706 -4.26427e-05 0
0.013722 3.93218e-05 0
0.0132991 2.27842e-05 0
0.0141449 6.99037e-05 0
0.0133462 0.000269917 0
0.013722 4.63439e-05 0
0.0137455 0.000169911 0
0.0133226 0.000146351 0
0.0132988 2.33843e-05 0
0.0123442 -2.57996e-05 0
0.0132496 -0.000140545 0
0.0128215 -1.20762e-06 0
0.0127969 -8.31722e-05 0
0.0132742 -5.85803e-05 0
0.0132988 2.27842e-05 0
0.013368 0.000269917 0
0.0123442 -4.64454e-05 0
0.0133334 0.000146351 0
0.0128561 0.000111736 0
0.0128215 -1.18306e-05 0
0.0143664 -0.00158712 0
0.0138981 -0.00190417 0
0.0140493 -0.00230793 0
0.0141322 -0.00174565 0
0.0139737 -0.00210605 0
0.0142079 -0.00194752 0
0.0143664 -0.0015876 0
0.0146223 -0.00101566 0
0.0138981 -0.00184355 0
0.0144943 -0.00130163 0
0.0142602 -0.0014296 0
0.0141322 -0.00171557 0
0.0143666 -0.00158712 0
0.0140065 -0.00230793 0
0.0147422 -0.00122702 0
0.0141866 -0.00194752 0
0.0143743 -0.00176748 0
0.0145544 -0.00140707 0
0.0143666 -0.0015876 0
0.0147422 -0.0012925 0
0.0146617 -0.00101566 0
0.0145544 -0.00144005 0
0.0147019 -0.00115408 0
0.0145142 -0.00130163 0
0.013587 -0.00274069 0
0.0139874 -0.00236982 0
0.0139579 -0.00184439 0
0.0137872 -0.00255526 0
0.0139727 -0.0021071 0
0.0137724 -0.00229254 0
0.0135868 -0.00274069 0
0.0139008 -0.00184439 0
0.0130999 -0.00305474 0
0.0137438 -0.00229254 0
0.0135003 -0.00244956 0
0.0133433 -0.00289771 0
0.013587 -0.00274018 0
0.0131305 -0.00384779 0
0.0139874 -0.00228369 0
0.0133588 -0.00329399 0
0.013559 -0.00306574 0
0.0137872 -0.00251194 0
0.0135868 -0.00274018 0
0.0130999 -0.00313579 0
0.0131911 -0.00384779 0
0.0133433 -0.00293799 0
0.0131455 -0.00349179 0
0.013389 -0.00329399 0
0.0132831 -0.00202806 0
0.0138984 -0.00188865 0
0.0134225 -0.00123372 0
0.0135907 -0.00195836 0
0.0136604 -0.00156119 0
0.0133528 -0.00163089 0
0.0132831 -0.00202708 0
0.013098 -0.00305286 0
0.0138984 -0.00184201 0
0.0131905 -0.00253997 0
0.0134982 -0.00244743 0
0.0135907 -0.00193455 0
0.0132826 -0.00202806 0
0.0133627 -0.00123372 0
0.0125627 -0.00210823 0
0.0133227 -0.00163089 0
0.0129627 -0.00167098 0
0.0129226 -0.00206815 0
0.0132826 -0.00202708 0
0.0125627 -0.00214513 0
0.0131645 -0.00305286 0
0.0129226 -0.00208611 0
0.0128636 -0.00259899 0
0.0132236 -0.00253997 0
0.0142806 -0.00180529 0
0.0147637 -0.00124855 0
0.013987 -0.00228841 0
0.0145221 -0.00152692 0
0.0143753 -0.00176848 0
0.0141338 -0.00204685 0
0.0142807 -0.00180529 0
0.0144961 -0.00128942 0
0.0147966 -0.00124855 0
0.0143884 -0.00154735 0
0.0146463 -0.00126898 0
0.0145386 -0.00152692 0
0.0142806 -0.00180506 0
0.013987 -0.0023821 0
0.0137035 -0.00248213 0
0.0141338 -0.00209358 0
0.0138453 -0.00243211 0
0.013992 -0.00214359 0
0.0142807 -0.00180506 0
0.013669 -0.00248213 0
0.0144961 -0.00119341 0
0.0139749 -0.00214359 0
0.0140826 -0.00183777 0
0.0143884 -0.00149923 0
0.0149905 -0.000864345 0
0.0153571 -0.000567159 0
0.014742 -0.00123097 0
0.0151738 -0.000715752 0
0.0150496 -0.000899063 0
0.0148662 -0.00104766 0
0.0149905 -0.000864141 0
0.014742 -0.00130309 0
0.0145515 -0.00123395 0
0.0148662 -0.00108362 0
0.0146468 -0.00126852 0
0.014771 -0.00104905 0
0.0149906 -0.000864345 0
0.015152 -0.000478377 0
0.0153766 -0.000567159 0
0.0150713 -0.000671361 0
0.0152643 -0.000522768 0
0.0151836 -0.000715752 0
0.0149906 -0.000864141 0
0.0145307 -0.00123395 0
0.015152 -0.000404212 0
0.0147606 -0.00104905 0
0.0148413 -0.000819082 0
0.0150713 -0.000634176 0
0.0116574 -0.0020496 0
0.011719 -0.00328299 0
0.0125631 -0.00211119 0
0.0116882 -0.00266629 0
0.012141 -0.00269709 0
0.0121102 -0.00208039 0
0.0116574 -0.00205151 0
0.0125631 -0.00212107 0
0.0115878 -0.00113476 0
0.0121102 -0.00208629 0
0.0120754 -0.00162792 0
0.0116226 -0.00159314 0
0.0116564 -0.0020496 0
0.0106258 -0.00189627 0
0.0118097 -0.00328299 0
0.0111411 -0.00197293 0
0.0112178 -0.00258963 0
0.0117331 -0.00266629 0
0.0116564 -0.00205151 0
0.0115104 -0.00113476 0
0.0106258 -0.00190551 0
0.0115834 -0.00159314 0
0.0110681 -0.00152014 0
0.0111411 -0.00197851 0
0.012479 -0.00325917 0
0.0125376 -0.00208567 0
0.0117537 -0.00331773 0
0.0125083 -0.00267242 0
0.0121456 -0.0027017 0
0.0121164 -0.00328845 0
0.0124796 -0.00325917 0
0.0131008 -0.00311659 0
0.0126222 -0.00208567 0
0.0127902 -0.00318788 0
0.0128615 -0.00260113 0
0.0125509 -0.00267242 0
0.012479 -0.00325806 0
0.0117537 -0.0033713 0
0.0123658 -0.00475254 0
0.0121164 -0.00331468 0
0.0120597 -0.00406192 0
0.0124224 -0.0040053 0
0.0124796 -0.00325806 0
0.0122734 -0.00475254 0
0.0131008 -0.00305191 0
0.0123765 -0.0040053 0
0.0126871 -0.00390223 0
0.0127902 -0.00315499 0
0.0108369 -0.00317199 0
0.0117553 -0.00333739 0
0.0106715 -0.0018505 0
0.0112961 -0.00325469 0
0.0112134 -0.00259395 0
0.0107542 -0.00251125 0
0.0108356 -0.00317199 0
0.0105585 -0.0018505 0
0.00977804 -0.0028949 0
0.0106971 -0.00251125 0
0.0101683 -0.0023727 0
0.0103068 -0.00303345 0
0.0108369 -0.00316936 0
0.0109878 -0.00494557 0
0.0117553 -0.00332024 0
0.0109124 -0.00405747 0
0.0113716 -0.0041329 0
0.0112961 -0.0032448 0
0.0108356 -0.00316936 0
0.00977804 -0.00288578 0
0.0111192 -0.00494557 0
0.0103068 -0.00302757 0
0.0104486 -0.00391568 0
0.0109774 -0.00405747 0
0.00934595 -0.00157478 0
0.0106249 -0.00186031 0
0.00906041 -0.000709187 0
0.0099854 -0.00171755 0
0.00984263 -0.00128475 0
0.00920318 -0.00114198 0
0.00934595 -0.00157133 0
0.00969145 -0.00280831 0
0.0106249 -0.00191683 0
0.0095187 -0.00218982 0
0.0101582 -0.00236257 0
0.0099854 -0.00174408 0
0.00934422 -0.00157478 0
0.00898058 -0.000709187 0
0.00791735 -0.00121114 0
0.0091624 -0.00114198 0
0.00844897 -0.000960164 0
0.00863079 -0.00139296 0
0.00934422 -0.00157133 0
0.00791735 -0.00112015 0
0.00979541 -0.00280831 0
0.00863079 -0.00134574 0
0.00885638 -0.00196423 0
0.00956981 -0.00218982 0
0.0127308 -0.00438083 0
0.0121675 -0.0059889 0
0.0131081 -0.00381753 0
0.0124491 -0.00518487 0
0.0126378 -0.00490321 0
0.0129194 -0.00409918 0
0.0127308 -0.00438119 0
0.0131081 -0.00393087 0
0.0131811 -0.00305453 0
0.0129194 -0.00415603 0
0.0131446 -0.0034927 0
0.012956 -0.00371786 0
0.0127306 -0.00438083 0
0.0122749 -0.00486373 0
0.0122477 -0.0059889 0
0.0125027 -0.00462228 0
0.0122613 -0.00542632 0
0.0124892 -0.00518487 0
0.0127306 -0.00438119 0
0.0131034 -0.00305453 0
0.0122749 -0.00475399 0
0.012917 -0.00371786 0
0.0126891 -0.00390426 0
0.0125027 -0.00456759 0
0.0134023 -0.00321441 0
0.0140124 -0.0023087 0
0.0131073 -0.00382455 0
0.0137074 -0.00276155 0
0.0135599 -0.00306662 0
0.0132548 -0.00351948 0
0.0134023 -0.00321424 0
0.0131073 -0.00394396 0
0.0126726 -0.00429238 0
0.0132548 -0.0035791 0
0.0128899 -0.00411817 0
0.0130374 -0.00375331 0
0.0134024 -0.00321441 0
0.0136293 -0.00255637 0
0.0140604 -0.0023087 0
0.0135158 -0.00288539 0
0.0138448 -0.00243253 0
0.0137314 -0.00276155 0
0.0134024 -0.00321424 0
0.0126234 -0.00429238 0
0.0136293 -0.00243531 0
0.0130129 -0.00375331 0
0.0131264 -0.00336384 0
0.0135158 -0.00282478 0
0.0123858 -0.0052047 0
0.0131392 -0.00384865 0
0.0121367 -0.00595813 0
0.0127625 -0.00452667 0
0.012638 -0.00490339 0
0.0122612 -0.00558141 0
0.0123857 -0.0052047 0
0.0125771 -0.00438781 0
0.0132026 -0.00384865 0
0.0124814 -0.00479626 0
0.0128899 -0.00411823 0
0.0127941 -0.00452667 0
0.0123858 -0.00520483 0
0.0121367 -0.00610987 0
0.0114807 -0.0067835 0
0.0122612 -0.00565735 0
0.0118087 -0.00644668 0
0.0119333 -0.00599417 0
0.0123857 -0.00520483 0
0.0114183 -0.0067835 0
0.0125771 -0.00423743 0
0.011902 -0.00599417 0
0.0119977 -0.00551046 0
0.0124814 -0.00472113 0
0.011706 -0.00497405 0
0.0122768 -0.00484156 0
0.0118385 -0.00328653 0
0.0119914 -0.0049078 0
0.0120576 -0.00406404 0
0.0117722 -0.00413029 0
0.011706 -0.00497308 0
0.0114796 -0.00709238 0
0.0122768 -0.00474675 0
0.0115928 -0.00603273 0
0.0118782 -0.00591956 0
0.0119914 -0.00485992 0
0.0117055 -0.00497405 0
0.0117216 -0.00328653 0
0.0110324 -0.00499018 0
0.0117136 -0.00413029 0
0.011377 -0.00413835 0
0.011369 -0.00498211 0
0.0117055 -0.00497308 0
0.0110324 -0.00507538 0
0.0116032 -0.00709238 0
0.011369 -0.00502423 0
0.0113178 -0.00608388 0
0.0116544 -0.00603273 0
0.0118403 -0.00664189 0
0.0121384 -0.00609822 0
0.012384 -0.00475462 0
0.0119894 -0.00637006 0
0.0122612 -0.00542642 0
0.0121121 -0.00569825 0
0.0118404 -0.00664189 0
0.0122846 -0.00475462 0
0.0114733 -0.00708607 0
0.0120625 -0.00569825 0
0.011879 -0.00592034 0
0.0116569 -0.00686398 0
0.0118403 -0.00664216 0
0.0111458 -0.00887825 0
0.0121384 -0.00594762 0
0.011493 -0.00776021 0
0.0116421 -0.00741294 0
0.0119894 -0.00629489 0
0.0118404 -0.00664216 0
0.0114733 -0.00723937 0
0.0112432 -0.00887825 0
0.0116569 -0.00694077 0
0.0113583 -0.00805881 0
0.0115418 -0.00776021 0
0.0151947 0 0
0.015152 -0.000486058 0
0.0147086 0 0
0.0151733 -0.000243029 0
0.0149303 -0.000243029 0
0.0149516 0 0
0.0151947 0 0
0.0156046 0 0
0.015152 -0.000409925 0
0.0153996 0 0
0.0153783 -0.000204962 0
0.0151733 -0.000204962 0
0.0151947 0 0
0.0147086 0 0
0.015152 0.000486058 0
0.0149516 0 0
0.0149303 0.000243029 0
0.0151733 0.000243029 0
0.0151947 0 0
0.015152 0.000409925 0
0.0156046 0 0
0.0151733 0.000204962 0
0.0153783 0.000204962 0
0.0153996 0 0
0.0146165 -0.000628143 0
0.0146622 -4.6381e-05 0
0.0151983 -0.000439746 0
0.0146394 -0.000337262 0
0.0149303 -0.000243064 0
0.0149074 -0.000533945 0
0.0146165 -0.000628143 0
0.0151876 -0.000439746 0
0.0144959 -0.00119921 0
0.014902 -0.000533945 0
0.0148417 -0.000819476 0
0.0145562 -0.000913675 0
0.0146165 -0.000628075 0
0.0139351 -0.000855598 0
0.0146622 5.33733e-05 0
0.0142758 -0.000741836 0
0.0142987 -0.000401113 0
0.0146394 -0.000287351 0
0.0146165 -0.000628075 0
0.0144959 -0.00129828 0
0.0139463 -0.000855598 0
0.0145562 -0.000963176 0
0.0142211 -0.00107694 0
0.0142814 -0.000741836 0
0.0146165 0.000628143 0
0.0151983 0.000439746 0
0.0146622 4.6381e-05 0
0.0149074 0.000533945 0
0.0149303 0.000243064 0
0.0146394 0.000337262 0
0.0146165 0.000628143 0
0.0144959 0.00119921 0
0.0151876 0.000439746 0
0.0145562 0.000913675 0
0.0148417 0.000819476 0
0.014902 0.000533945 0
0.0146165 0.000628075 0
0.0146622 -5.33733e-05 0
0.0139351 0.000855598 0
0.0146394 0.000287351 0
0.0142987 0.000401112 0
0.0142758 0.000741836 0
0.0146165 0.000628075 0
0.0139463 0.000855598 0
0.0144959 0.00129828 0
0.0142814 0.000741836 0
0.0142211 0.00107694 0
0.0145562 0.000963176 0
0.0149906 0.000864345 0
0.0153766 0.000567159 0
0.015152 0.000478377 0
0.0151836 0.000715752 0
0.0152643 0.000522768 0
0.0150713 0.000671361 0
0.0149906 0.000864141 0
0.015152 0.000404212 0
0.0145307 0.00123395 0
0.0150713 0.000634176 0
0.0148413 0.000819082 0
0.0147606 0.00104905 0
0.0149905 0.000864345 0
0.014742 0.00123097 0
0.0153571 0.000567159 0
0.0148662 0.00104766 0
0.0150496 0.000899063 0
0.0151738 0.000715752 0
0.0149905 0.000864141 0
0.0145515 0.00123395 0
0.014742 0.00130309 0
0.014771 0.00104905 0
0.0146468 0.00126852 0
0.0148662 0.00108362 0
0.0137873 -0.0016924 0
0.013629 -0.00256576 0
0.012914 -0.0022331 0
0.0137081 -0.00212908 0
0.0132715 -0.00239943 0
0.0133506 -0.00196275 0
0.0137873 -0.00169247 0
0.0145369 -0.00123426 0
0.013629 -0.00244206 0
0.0141621 -0.00146336 0
0.0140829 -0.00183816 0
0.0137081 -0.00206726 0
0.0137874 -0.0016924 0
0.0128905 -0.0022331 0
0.013882 -0.000795495 0
0.0133389 -0.00196275 0
0.0133862 -0.0015143 0
0.0138347 -0.00124395 0
0.0137874 -0.00169247 0
0.013882 -0.0009199 0
0.0145599 -0.00123426 0
0.0138347 -0.00130618 0
0.014221 -0.00107708 0
0.0141736 -0.00146336 0
0.0127299 -0.00329883 0
0.0128306 -0.00231651 0
0.0137122 -0.00248248 0
0.0127802 -0.00280767 0
0.0132714 -0.0023995 0
0.0132211 -0.00289066 0
0.01273 -0.00329883 0
0.0136764 -0.00248248 0
0.0125764 -0.00424532 0
0.0132032 -0.00289066 0
0.0131264 -0.0033639 0
0.0126532 -0.00377208 0
0.0127299 -0.00329888 0
0.011597 -0.00424109 0
0.0128306 -0.00216598 0
0.0121635 -0.00376999 0
0.0122138 -0.00320354 0
0.0127802 -0.00273243 0
0.01273 -0.00329888 0
0.0125764 -0.00439641 0
0.0116324 -0.00424109 0
0.0126532 -0.00384765 0
0.0121044 -0.00431875 0
0.0121812 -0.00376999 0
0.0139132 0 0
0.0147156 0 0
0.0138819 -0.000802425 0
0.0143144 0 0
0.0142988 -0.000401213 0
0.0138975 -0.000401213 0
0.0139132 0 0
0.0138819 -0.000927601 0
0.0129856 0 0
0.0138975 -0.0004638 0
0.0134337 -0.0004638 0
0.0134494 0 0
0.0139132 0 0
0.0138819 0.000802425 0
0.0147156 0 0
0.0138975 0.000401213 0
0.0142988 0.000401213 0
0.0143144 0 0
0.0139132 0 0
0.0129856 0 0
0.0138819 0.000927601 0
0.0134494 0 0
0.0134337 0.0004638 0
0.0138975 0.0004638 0
0.0128975 -0.00112826 0
0.0139422 -0.000855697 0
0.0128303 -0.00217291 0
0.0134199 -0.000991978 0
0.0133862 -0.00151431 0
0.0128639 -0.00165059 0
0.0128975 -0.00112826 0
0.0129136 -7.19766e-05 0
0.0139538 -0.000855697 0
0.0129056 -0.000600118 0
0.0134337 -0.000463837 0
0.0134257 -0.000991978 0
0.0128975 -0.00112827 0
0.0128303 -0.00232386 0
0.0117019 -0.00144172 0
0.0128639 -0.00172607 0
0.0122661 -0.00188279 0
0.0122997 -0.001285 0
0.0128975 -0.00112827 0
0.0116904 -0.00144172 0
0.0129136 7.88229e-05 0
0.012294 -0.001285 0
0.012302 -0.00068145 0
0.0129056 -0.000524725 0
2.84023e-07 0 0
-3.62242e-05 0 0
0.00123238 3.65083e-05 0
-1.79701e-05 0 0
0.000598075 1.82541e-05 0
0.00061633 1.82541e-05 0
2.84023e-07 0 0
0.00123238 1.2821e-05 0
1.3105e-05 0 0
0.00061633 6.41048e-06 0
0.00062274 6.41048e-06 0
6.6945e-06 0 0
0.00116576 5.88845e-05 0
0.00122833 4.05554e-05 0
-3.25376e-05 -3.68662e-06 0
0.00119704 4.97199e-05 0
0.000597895 1.84344e-05 0
0.00056661 2.75989e-05 0
0.00116543 5.88845e-05 0
0.00249904 0.000136614 0
0.00124316 4.05554e-05 0
0.00183224 9.77495e-05 0
0.0018711 8.8585e-05 0
0.00120429 4.97199e-05 0
0.00116576 5.8222e-05 0
-3.25376e-05 -3.82973e-05 0
0.00106924 4.98861e-05 0
0.00056661 9.96234e-06 0
0.00051835 5.79438e-06 0
0.0011175 5.40541e-05 0
0.00116543 5.8222e-05 0
0.00105905 4.98861e-05 0
0.00249904 0.000164601 0
0.00111224 5.40541e-05 0
0.00177905 0.000107243 0
0.00183224 0.000111411 0
0.0024436 0.000130404 0
0.001038 5.90005e-05 0
0.0023722 0.000117481 0
0.0017408 9.47025e-05 0
0.0017051 8.82408e-05 0
0.0024079 0.000123943 0
0.0024436 0.000132473 0
0.00250515 0.000158497 0
0.001038 7.09301e-05 0
0.00247438 0.000145485 0
0.00177158 0.000114714 0
0.0017408 0.000101702 0
0.00244257 0.000130404 0
0.00239312 0.000117481 0
0.00399662 0.000179852 0
0.00241785 0.000123943 0
0.00319487 0.000148667 0
0.0032196 0.000155128 0
0.00244257 0.000132473 0
0.00399662 0.000188612 0
0.00249871 0.000158497 0
0.0032196 0.000160542 0
0.00324767 0.000173554 0
0.00247064 0.000145485 0
4.3589e-07 0 0
0.00102468 5.32381e-06 0
5.7597e-06 0 0
0.000512556 2.66191e-06 0
0.000515217 2.66191e-06 0
3.0978e-06 0 0
4.3589e-07 0 0
-6.80217e-05 0 0
0.00102468 6.84576e-05 0
-3.37929e-05 0 0
0.000478327 3.42288e-05 0
0.000512556 3.42288e-05 0
0.000987469 5.54582e-05 0
0.00236367 0.000108953 0
0.00104096 6.19611e-05 0
0.00167557 8.22054e-05 0
0.00170232 8.54569e-05 0
0.00101422 5.87096e-05 0
0.000989511 5.54582e-05 0
0.00103117 6.19611e-05 0
-8.18193e-05 1.37976e-05 0
0.00101034 5.87096e-05 0
0.000474676 3.78793e-05 0
0.000453846 3.46279e-05 0
0.000987469 5.1374e-05 0
0.000896812 5.1651e-05 0
0.00236367 0.000142031 0
0.00094214 5.15125e-05 0
0.00163024 9.68411e-05 0
0.00167557 9.67026e-05 0
0.000989511 5.1374e-05 0
-8.18193e-05 -6.01234e-05 0
0.000878014 5.1651e-05 0
0.000453846 -4.37471e-06 0
0.000398097 -4.23621e-06 0
0.000933762 5.15125e-05 0
0.00409501 4.88358e-06 0
0.00398451 0.000191962 0
0.00239522 0.000115383 0
0.00403976 9.84226e-05 0
0.00318987 0.000153672 0
0.00324512 6.01331e-05 0
0.0040943 4.88358e-06 0
0.00584554 -0.000111283 0
0.00397813 0.000191962 0
0.00496992 -5.31997e-05 0
0.00491183 4.03393e-05 0
0.00403621 9.84226e-05 0
0.00409501 3.44931e-06 0
0.00239522 0.000189449 0
0.00428101 -0.00023129 0
0.00324512 9.64489e-05 0
0.00333812 -2.09207e-05 0
0.00418801 -0.00011392 0
0.0040943 3.44931e-06 0
0.00429744 -0.00023129 0
0.00584554 -0.000199692 0
0.00419587 -0.00011392 0
0.00507149 -0.000215491 0
0.00496992 -9.81212e-05 0
0.00619394 -0.000711512 0
0.00671014 -0.00157227 0
0.00790811 -0.00122771 0
0.00645204 -0.00114189 0
0.00730913 -0.00139999 0
0.00705103 -0.000969611 0
0.00619394 -0.000714941 0
0.00790811 -0.00108643 0
0.00582245 -0.000137355 0
0.00705103 -0.000900687 0
0.00686528 -0.000611894 0
0.0060082 -0.000426148 0
0.00619223 -0.000711512 0
0.00437206 -0.000130345 0
0.0067734 -0.00157227 0
0.00528214 -0.000420928 0
0.00557273 -0.000851308 0
0.00648281 -0.00114189 0
0.00619223 -0.000714941 0
0.0057832 -0.000137355 0
0.00437206 -0.000305911 0
0.00598771 -0.000426148 0
0.00507763 -0.000221633 0
0.00528214 -0.000510426 0
0.00841135 -0.00232931 0
0.00779919 -0.00111879 0
0.00685502 -0.00171715 0
0.00810527 -0.00172405 0
0.00732711 -0.00141797 0
0.00763319 -0.00202323 0
0.00841438 -0.00232931 0
0.00977874 -0.00282498 0
0.00791872 -0.00111879 0
0.00909656 -0.00257715 0
0.00884873 -0.00197188 0
0.00816655 -0.00172405 0
0.00841135 -0.00232326 0
0.00685502 -0.0015691 0
0.00916551 -0.00409918 0
0.00763319 -0.00194618 0
0.00801026 -0.00283414 0
0.00878843 -0.00321122 0
0.00841438 -0.00232326 0
0.00900356 -0.00409918 0
0.00977874 -0.00291244 0
0.00870897 -0.00321122 0
0.00939115 -0.00350581 0
0.00909656 -0.00261785 0
0.00488492 -0.000916775 0
0.00683906 -0.0015066 0
0.00429509 -0.000207311 0
0.00586199 -0.00121169 0
0.00556708 -0.000856957 0
0.00459001 -0.000562043 0
0.00488201 -0.000916775 0
0.004258 -0.000207311 0
0.00281305 -0.000292761 0
0.00457001 -0.000562043 0
0.00353553 -0.000250036 0
0.00384753 -0.000604768 0
0.00488492 -0.000910964 0
0.00572087 -0.00200395 0
0.00683906 -0.00174692 0
0.0053029 -0.00145746 0
0.00627997 -0.00187543 0
0.00586199 -0.00132894 0
0.00488201 -0.000910964 0
0.00281305 5.66599e-06 0
0.00579864 -0.00200395 0
0.00384753 -0.000452649 0
0.00430585 -0.00099914 0
0.00534033 -0.00145746 0
0.00248629 -3.68625e-05 0
0.00433367 -0.000178633 0
0.00234452 0.000138751 0
0.00340998 -0.000107748 0
0.0033391 -1.9941e-05 0
0.00241541 5.09445e-05 0
0.00248629 -4.15586e-05 0
0.00272772 -0.000207423 0
0.00433367 -0.000282979 0
0.00260701 -0.000124491 0
0.00353069 -0.000245201 0
0.00340998 -0.000162269 0
0.00248864 -3.68625e-05 0
0.00236695 0.000138751 0
0.000863634 8.48284e-05 0
0.0024278 5.09445e-05 0
0.00161529 0.00011179 0
0.00167614 2.3983e-05 0
0.00248864 -4.15586e-05 0
0.000863634 0.000142213 0
0.00267241 -0.000207423 0
0.00167614 5.03271e-05 0
0.00176802 -3.2605e-05 0
0.00258053 -0.000124491 0
0.0101636 -0.00470905 0
0.00913386 -0.00423813 0
0.0106345 -0.00726876 0
0.00964873 -0.00447359 0
0.0098842 -0.00575344 0
0.0103991 -0.00598891 0
0.0101636 -0.00471236 0
0.00968073 -0.00281442 0
0.00913386 -0.00422948 0
0.00992216 -0.00376339 0
0.00940729 -0.00352195 0
0.00964873 -0.00447092 0
0.0101653 -0.00470905 0
0.0104427 -0.00726876 0
0.0110365 -0.00498653 0
0.010304 -0.00598891 0
0.0107396 -0.00612765 0
0.0106009 -0.00484779 0
0.0101653 -0.00471236 0
0.0110365 -0.00502822 0
0.00984939 -0.00281442 0
0.0106009 -0.00487029 0
0.010443 -0.00392132 0
0.0100073 -0.00376339 0
0.00769676 -0.00328324 0
0.00913908 -0.00412561 0
0.00685439 -0.00156973 0
0.00841792 -0.00370442 0
0.00799673 -0.00284767 0
0.00727557 -0.00242649 0
0.00769676 -0.0032709 0
0.00867793 -0.005923 0
0.00913908 -0.00425207 0
0.00818734 -0.00459695 0
0.0089085 -0.00508753 0
0.00841792 -0.00376148 0
0.00769059 -0.00328324 0
0.00666188 -0.00156973 0
0.00597146 -0.00225453 0
0.00717623 -0.00242649 0
0.00631667 -0.00191213 0
0.00683102 -0.00276888 0
0.00769059 -0.0032709 0
0.00597146 -0.00200468 0
0.0089568 -0.005923 0
0.00683102 -0.00263779 0
0.00746413 -0.00396384 0
0.0083237 -0.00459695 0
0.00977599 -0.0068893 0
0.0104977 -0.00740562 0
0.00925967 -0.00411231 0
0.0101368 -0.00714746 0
0.00987867 -0.00575897 0
0.00951783 -0.00550081 0
0.00977526 -0.0068893 0
0.00899933 -0.00411231 0
0.0088683 -0.00611337 0
0.00938729 -0.00550081 0
0.00893382 -0.00511284 0
0.00932178 -0.00650134 0
0.00977599 -0.00688783 0
0.0101768 -0.0106256 0
0.0104977 -0.00728868 0
0.00997642 -0.00875674 0
0.0103373 -0.00895716 0
0.0101368 -0.00708825 0
0.00977526 -0.00688783 0
0.0088683 -0.00621557 0
0.0104475 -0.0106256 0
0.00932178 -0.0065517 0
0.00965791 -0.00842061 0
0.0101114 -0.00875674 0
0.0110316 -0.00734362 0
0.011001 -0.00495102 0
0.0104871 -0.00731308 0
0.0110163 -0.00614732 0
0.010744 -0.00613205 0
0.0107593 -0.00732835 0
0.0110314 -0.00734362 0
0.0114773 -0.00721827 0
0.0111568 -0.00495102 0
0.0112544 -0.00728094 0
0.011317 -0.00608464 0
0.0110941 -0.00614732 0
0.0110316 -0.00734394 0
0.0104871 -0.00746476 0
0.0109108 -0.010287 0
0.0107593 -0.00740435 0
0.0106989 -0.0088759 0
0.0109712 -0.00881549 0
0.0110314 -0.00734394 0
0.0107573 -0.010287 0
0.0114773 -0.00706981 0
0.0108943 -0.00881549 0
0.0111173 -0.00867843 0
0.0112544 -0.00720688 0
3.25822e-06 0 0
-0.000139709 0 0
0.000801409 0.000142967 0
-6.82253e-05 0 0
0.00033085 7.14835e-05 0
0.000402333 7.14835e-05 0
3.25822e-06 0 0
0.000801409 -2.49541e-05 0
-2.16959e-05 0 0
0.000402333 -1.2477e-05 0
0.000389856 -1.2477e-05 0
-9.21883e-06 0 0
0.000953773 -3.83047e-05 0
0.000841767 0.000102608 0
-0.00021341 7.37012e-05 0
0.00089777 3.21518e-05 0
0.000314179 8.81548e-05 0
0.000370182 1.76982e-05 0
0.000943313 -3.83047e-05 0
0.00272225 -0.000157588 0
0.00082403 0.000102608 0
0.00183278 -9.79462e-05 0
0.00177314 -2.74896e-05 0
0.000883671 3.21518e-05 0
0.000953773 -5.92256e-05 0
-0.00021341 -8.23116e-05 0
0.000930687 -2.23439e-05 0
0.000370182 -7.07686e-05 0
0.000358639 -5.23277e-05 0
0.00094223 -4.07847e-05 0
0.000943313 -5.92256e-05 0
0.00109487 -2.23439e-05 0
0.00272225 -0.000210784 0
0.00101909 -4.07847e-05 0
0.00190856 -0.000116564 0
0.00183278 -0.000135005 0
0.00356257 -0.000955914 0
0.00491033 -0.00230354 0
0.00593472 -0.00230367 0
0.00423645 -0.00162973 0
0.00542252 -0.00230361 0
0.00474864 -0.00162979 0
0.00356257 -0.000967056 0
0.00593472 -0.00186787 0
0.00266175 -0.000145636 0
0.00474864 -0.00141747 0
0.00429823 -0.00100675 0
0.00311216 -0.000556346 0
0.003557 -0.000955914 0
0.00113969 0.000480063 0
0.00499298 -0.00230354 0
0.00234834 -0.000237926 0
0.00306633 -0.000911741 0
0.00427499 -0.00162973 0
0.003557 -0.000967056 0
0.0026571 -0.000145636 0
0.00113969 -6.71604e-05 0
0.00310705 -0.000556346 0
0.00189839 -0.000106398 0
0.00234834 -0.000517108 0
0.00739273 -0.00456065 0
0.00562537 -0.00199433 0
0.00540008 -0.00279329 0
0.00650905 -0.00327749 0
0.00551273 -0.00239381 0
0.0063964 -0.00367697 0
0.00740658 -0.00456065 0
0.00889438 -0.00598542 0
0.00598181 -0.00199433 0
0.00815048 -0.00527304 0
0.00743809 -0.00398988 0
0.0066942 -0.00327749 0
0.00739273 -0.00453293 0
0.00540008 -0.00237304 0
0.00955262 -0.00888484 0
0.0063964 -0.00345299 0
0.00747635 -0.00562894 0
0.00847267 -0.00670889 0
0.00740658 -0.00453293 0
0.00900216 -0.00888484 0
0.00889438 -0.00612851 0
0.00820437 -0.00670889 0
0.00894827 -0.00750668 0
0.00815048 -0.00533072 0
1.97758e-05 0 0
0.000802157 -0.000150874 0
-0.000131098 0 0
0.000410966 -7.54371e-05 0
0.000335529 -7.54371e-05 0
-5.56613e-05 0 0
1.97758e-05 0 0
-0.000355457 0 0
0.000802157 0.000375233 0
-0.000167841 0 0
0.00022335 0.000187617 0
0.000410966 0.000187617 0
0.00208348 -0.000807516 0
0.00529105 -0.00200547 0
0.00088553 0.000225906 0
0.00368727 -0.00140649 0
0.00308829 -0.000889781 0
0.00148451 -0.000290805 0
0.00211859 -0.000807516 0
0.000951484 0.000225906 0
-0.000715047 0.000359589 0
0.00153504 -0.000290805 0
0.000118219 0.000292748 0
0.000701771 -0.000223964 0
0.00208348 -0.000877733 0
0.00414377 -0.00175405 0
0.00529105 -0.00293803 0
0.00311363 -0.00131589 0
0.00471741 -0.00234604 0
0.00368727 -0.00190788 0
0.00211859 -0.000877733 0
-0.000715047 0.000589977 0
0.0035863 -0.00175405 0
0.000701771 -0.000143878 0
0.00143563 -0.000582037 0
0.00285244 -0.00131589 0
0.0226232 -0.0617213 0
0.0169644 -0.00721131 0
0.0703249 -0.0560625 0
0.0197938 -0.0344663 0
0.0436447 -0.0316369 0
0.046474 -0.0588919 0
0.0392515 -0.0617213 0
0.0159885 -0.0633956 0
0.0375772 -0.00721131 0
0.02762 -0.0625584 0
0.0267828 -0.0353035 0
0.0384144 -0.0344663 0
-0.000353819 0 0
0.0142624 0 0
0.0243693 -0.0146162 0
0.00695428 0 0
0.0193158 -0.0073081 0
0.0120077 -0.0073081 0
-0.000353819 0 0
0.0243693 -0.00531257 0
-0.00566639 0 0
0.0120077 -0.00265628 0
0.00935145 -0.00265628 0
-0.0030101 0 0
0.00942072 -0.00432704 0
0.0185205 -0.0112009 0
0.0160587 -0.0134268 0
0.0139706 -0.00776398 0
0.0172896 -0.0123139 0
0.0127397 -0.00887694 0
0.00941226 -0.00432704 0
-0.000924746 0.00474164 0
0.0184809 -0.0112009 0
0.00424376 0.0002073 0
0.0087781 -0.00322964 0
0.0139466 -0.00776398 0
0.00942072 -0.00434396 0
0.0160587 -0.00972374 0
0.00404095 -0.000162379 0
0.0127397 -0.00703385 0
0.0100498 -0.00494306 0
0.00673084 -0.00225317 0
0.00941226 -0.00434396 0
0.00419902 -0.000162379 0
-0.000924746 0.000869279 0
0.00680564 -0.00225317 0
0.00163714 0.00035345 0
0.00424376 -0.00173734 0
-5.67283e-06 0 0
0.00398684 -0.000618431 0
-0.000624104 0 0
0.00199059 -0.000309216 0
0.00168137 -0.000309216 0
-0.000314888 0 0
-5.67283e-06 0 0
-5.54669e-05 0 0
0.00398684 4.97941e-05 0
-3.05699e-05 0 0
0.00196569 2.4897e-05 0
0.00199059 2.4897e-05 0
0.00278524 -0.000746455 0
-0.000380812 0.000243292 0
0.00377499 -0.000830288 0
0.00120221 -0.000251581 0
0.00169709 -0.000293498 0
0.00328011 -0.000788372 0
0.00275538 -0.000746455 0
0.00434932 -0.000830288 0
0.00657812 -0.0023404 0
0.00355235 -0.000788372 0
0.00546372 -0.00158534 0
0.00466675 -0.00154343 0
0.00278524 -0.000686728 0
0.00185627 2.92444e-05 0
-0.000380812 0.000242237 0
0.00232076 -0.000328742 0
0.000737731 0.000135741 0
0.00120221 -0.000222246 0
0.00275538 -0.000686728 0
0.00657812 -0.00174207 0
0.00170003 2.92444e-05 0
0.00466675 -0.0012144 0
0.00413908 -0.000856414 0
0.0022277 -0.000328742 0
3.2993e-06 0 0
-0.000138575 0 0
0.00174364 0.000141874 0
-6.76378e-05 0 0
0.000802535 7.09371e-05 0
0.000873472 7.09371e-05 0
3.2993e-06 0 0
0.00174364 -0.000155096 0
-0.000151797 0 0
0.000873472 -7.75482e-05 0
0.000795924 -7.75482e-05 0
-7.42489e-05 0 0
0.00161454 -0.000150883 0
0.00192879 -0.000125237 0
0.00383978 -0.00046513 0
0.00177167 -0.00013806 0
0.00288428 -0.000295183 0
0.00272716 -0.000308006 0
0.00162204 -0.000150883 0
-0.000151214 5.83522e-07 0
0.0017735 -0.000125237 0
0.000735412 -7.51497e-05 0
0.000811145 -6.23267e-05 0
0.00169777 -0.00013806 0
0.00161454 -0.000135894 0
0.00383978 -0.000393455 0
0.00135698 3.18154e-05 0
0.00272716 -0.000264674 0
0.00259838 -0.00018082 0
0.00148576 -5.20395e-05 0
0.00162204 -0.000135894 0
0.00140735 3.18154e-05 0
-0.000151214 7.87938e-05 0
0.00151469 -5.20395e-05 0
0.000628068 5.53046e-05 0
0.000735412 -2.85503e-05 0
1.53658e-07 0 0
0.00136659 -4.43258e-05 0
-4.41722e-05 0 0
0.000683373 -2.21629e-05 0
0.00066121 -2.21629e-05 0
-2.20093e-05 0 0
1.53658e-07 0 0
-7.24198e-05 0 0
0.00136659 7.25734e-05 0
-3.61331e-05 0 0
0.000647086 3.62867e-05 0
0.000683373 3.62867e-05 0
0.00140394 -1.68786e-05 0
-6.47284e-05 -2.05562e-05 0
0.00140026 -1.06525e-05 0
0.000669607 -1.87174e-05 0
0.000667768 -1.56043e-05 0
0.0014021 -1.37656e-05 0
0.00140189 -1.68786e-05 0
0.00144047 -1.06525e-05 0
0.00310212 -5.54597e-05 0
0.00142118 -1.37656e-05 0
0.00227129 -3.30561e-05 0
0.002252 -3.61692e-05 0
0.00140394 -1.27684e-05 0
0.00136676 2.80528e-05 0
-6.47284e-05 2.44186e-05 0
0.00138535 7.64224e-06 0
0.000651014 2.62357e-05 0
0.000669607 5.8251e-06 0
0.00140189 -1.27684e-05 0
0.00310212 -5.93315e-05 0
0.00135532 2.80528e-05 0
0.002252 -3.60499e-05 0
0.00222872 -1.56393e-05 0
0.00137861 7.64224e-06 0
-1.69439e-07 0 0
-4.03098e-05 0 0
0.00135467 4.01404e-05 0
-2.02396e-05 0 0
0.000657179 2.00702e-05 0
0.000677249 2.00702e-05 0
-1.69439e-07 0 0
0.00135467 -8.86204e-06 0
-9.03147e-06 0 0
0.000677249 -4.43102e-06 0
0.000672818 -4.43102e-06 0
-4.60046e-06 0 0
0.0014104 1.53068e-05 0
0.00138528 1.45828e-05 0
0.00295037 4.04295e-05 0
0.00139784 1.49448e-05 0
0.00216783 2.75062e-05 0
0.00218039 2.78681e-05 0
0.00141098 1.53068e-05 0
-2.65932e-05 -1.75617e-05 0
0.00137811 1.45828e-05 0
0.000692194 -1.12746e-06 0
0.00067576 -1.48942e-06 0
0.00139455 1.49448e-05 0
0.0014104 1.64714e-05 0
0.00295037 2.98573e-05 0
0.00142378 2.12176e-05 0
0.00218039 2.31644e-05 0
0.00218708 2.55375e-05 0
0.00141709 1.88445e-05 0
0.00141098 1.64714e-05 0
0.0014228 2.12176e-05 0
-2.65932e-05 4.65677e-06 0
0.00141689 1.88445e-05 0
0.000698101 1.29372e-05 0
0.000692194 1.05641e-05 0
8.90268e-08 0 0
0.00142199 3.33244e-06 0
3.42147e-06 0 0
0.000711039 1.66622e-06 0
0.000712705 1.66622e-06 0
1.75525e-06 0 0
8.90268e-08 0 0
-2.19364e-05 0 0
0.00142199 2.20254e-05 0
-1.09237e-05 0 0
0.000700026 1.10127e-05 0
0.000711039 1.10127e-05 0
0.00146519 1.82297e-05 0
-7.6264e-06 -1.10479e-05 0
0.00143591 1.72531e-05 0
0.00072878 3.59093e-06 0
0.000714141 3.10261e-06 0
0.00145055 1.77414e-05 0
0.00146509 1.82297e-05 0
0.00143396 1.72531e-05 0
0.00296812 4.93608e-05 0
0.00144952 1.77414e-05 0
0.00220104 3.33069e-05 0
0.0022166 3.37952e-05 0
0.00146519 1.84233e-05 0
0.00148574 1.30656e-05 0
-7.6264e-06 -2.12861e-06 0
0.00147546 1.57445e-05 0
0.000739056 5.4685e-06 0
0.00072878 8.14734e-06 0
0.00146509 1.84233e-05 0
0.00296812 4.23772e-05 0
0.00148904 1.30656e-05 0
0.0022166 3.04003e-05 0
0.00222858 2.77214e-05 0
0.00147707 1.57445e-05 0
3.16701e-07 0 0
-9.75501e-06 0 0
0.00148873 1.00717e-05 0
-4.71916e-06 0 0
0.000739489 5.03586e-06 0
0.000744524 5.03586e-06 0
3.16701e-07 0 0
0.00148873 6.40619e-06 0
6.72289e-06 0 0
0.000744524 3.20309e-06 0
0.000747727 3.20309e-06 0
3.51979e-06 0 0
0.00151109 1.11328e-05 0
0.00149235 1.28174e-05 0
0.00301173 2.98731e-05 0
0.00150172 1.19751e-05 0
0.00225204 2.13452e-05 0
0.00226141 2.0503e-05 0
0.001511 1.11328e-05 0
2.0014e-06 -4.72149e-06 0
0.00149514 1.28174e-05 0
0.000756499 3.20567e-06 0
0.000748572 4.04793e-06 0
0.00150307 1.19751e-05 0
0.00151109 1.09543e-05 0
0.00301173 2.64098e-05 0
0.00152654 4.38994e-06 0
0.00226141 1.86821e-05 0
0.00226913 1.53999e-05 0
0.00151881 7.67213e-06 0
0.001511 1.09543e-05 0
0.001525 4.38994e-06 0
2.0014e-06 -3.0433e-06 0
0.001518 7.67213e-06 0
0.000763498 6.73322e-07 0
0.000756499 3.95551e-06 0
4.52029e-07 0 0
0.00152789 4.98992e-06 0
5.44195e-06 0 0
0.000764172 2.49496e-06 0
0.000766667 2.49496e-06 0
2.94699e-06 0 0
4.52029e-07 0 0
-1.0419e-06 0 0
0.00152789 1.49393e-06 0
-2.94935e-07 0 0
0.000763425 7.46964e-07 0
0.000764172 7.46964e-07 0
0.00152793 -6.48857e-08 0
6.07504e-06 6.33089e-07 0
0.00152863 5.72857e-06 0
0.000767003 2.84101e-07 0
0.000767352 3.18083e-06 0
0.00152828 2.83184e-06 0
0.0015281 -6.48857e-08 0
0.00152826 5.72857e-06 0
0.00302522 -2.21437e-07 0
0.00152818 2.83184e-06 0
0.00227674 2.75357e-06 0
0.00227666 -1.43162e-07 0
0.00152793 -4.0175e-07 0
0.00152815 -4.78803e-06 0
6.07504e-06 -6.23765e-07 0
0.00152804 -2.59489e-06 0
0.000767114 -2.7059e-06 0
0.000767003 -5.12758e-07 0
0.0015281 -4.0175e-07 0
0.00302522 -2.33323e-06 0
0.00152617 -4.78803e-06 0
0.00227666 -1.36749e-06 0
0.0022757 -3.56063e-06 0
0.00152713 -2.59489e-06 0
0.00300919 -2.17593e-05 0
0.0029879 -3.89499e-05 0
0.00152608 -4.68611e-07 0
0.00299854 -3.03546e-05 0
0.00225699 -1.97093e-05 0
0.00226764 -1.11139e-05 0
0.00300919 -2.17259e-05 0
0.00152608 -4.87526e-06 0
0.00302604 -1.51523e-06 0
0.00226764 -1.33006e-05 0
0.00227606 -3.19524e-06 0
0.00301762 -1.16205e-05 0
0.00300921 -2.17593e-05 0
0.00447206 -4.51224e-05 0
0.00298584 -3.89499e-05 0
0.00374063 -3.34408e-05 0
0.00372895 -4.20362e-05 0
0.00299753 -3.03546e-05 0
0.00300921 -2.17259e-05 0
0.00302786 -1.51523e-06 0
0.00447206 -4.03816e-05 0
0.00301853 -1.16205e-05 0
0.00374996 -2.09484e-05 0
0.00374063 -3.10537e-05 0
5.08689e-07 0 0
5.45127e-06 0 0
0.00152831 -4.94259e-06 0
2.97998e-06 0 0
0.00076688 -2.47129e-06 0
0.000764409 -2.47129e-06 0
5.08689e-07 0 0
0.00152831 5.4341e-07 0
1.0521e-06 0 0
0.000764409 2.71707e-07 0
0.00076468 2.71705e-07 0
7.80394e-07 0 0
0.00150672 -1.35697e-05 0
0.00152845 -2.83309e-06 0
0.00298425 -3.52963e-05 0
0.00151758 -8.20137e-06 0
0.00225635 -1.90647e-05 0
0.00224548 -2.4433e-05 0
0.00150652 -1.35697e-05 0
5.89514e-06 4.84304e-06 0
0.00152493 -2.83309e-06 0
0.000756207 -4.36331e-06 0
0.000765414 1.00497e-06 0
0.00151573 -8.20137e-06 0
0.00150672 -1.39699e-05 0
0.00298425 -3.88218e-05 0
0.00148187 -1.48108e-05 0
0.00224548 -2.63959e-05 0
0.00223306 -2.68163e-05 0
0.00149429 -1.43904e-05 0
0.00150652 -1.39699e-05 0
0.00148818 -1.48108e-05 0
5.89514e-06 4.36572e-06 0
0.00149735 -1.43904e-05 0
0.000747039 -5.22256e-06 0
0.000756207 -4.80211e-06 0
0.004435 -7.94162e-05 0
0.00298388 -4.09162e-05 0
0.0044735 -4.3678e-05 0
0.00370944 -6.01662e-05 0
0.00372869 -4.22971e-05 0
0.00445425 -6.15471e-05 0
0.00443493 -7.94162e-05 0
0.00447449 -4.3678e-05 0
0.00586757 -0.000118971 0
0.00445471 -6.15471e-05 0
0.00517103 -8.13243e-05 0
0.00515125 -9.91934e-05 0
0.004435 -7.92778e-05 0
0.004391 -0.00011481 0
0.00298388 -3.52737e-05 0
0.004413 -9.7044e-05 0
0.00368744 -7.5042e-05 0
0.00370944 -5.72758e-05 0
0.00443493 -7.92778e-05 0
0.00586757 -0.00012323 0
0.00439098 -0.00011481 0
0.00515125 -0.000101254 0
0.00512927 -0.00011902 0
0.00441296 -9.7044e-05 0
0.00581793 -0.000168376 0
0.00576467 -0.000218233 0
0.00438819 -0.000115124 0
0.0057913 -0.000193304 0
0.00507643 -0.000166678 0
0.00510306 -0.00014175 0
0.00581793 -0.000168649 0
0.00438819 -0.000117597 0
0.00586898 -0.000121821 0
0.00510306 -0.000143123 0
0.00512859 -0.000119709 0
0.00584345 -0.000145235 0
0.00581779 -0.000168376 0
0.0072257 -0.000218512 0
0.00576765 -0.000218233 0
0.00652174 -0.000193444 0
0.00649668 -0.000218372 0
0.00579272 -0.000193304 0
0.00581779 -0.000168649 0
0.00586791 -0.000121821 0
0.0072257 -0.000218767 0
0.00584285 -0.000145235 0
0.0065468 -0.000170294 0
0.00652174 -0.000193708 0
0.00432257 -0.000150765 0
0.00438884 -0.00011577 0
0.00576348 -0.000217034 0
0.00435571 -0.000133267 0
0.00507616 -0.000166402 0
0.00504302 -0.0001839 0
0.0043227 -0.000150765 0
0.00287829 -8.44986e-05 0
0.00438897 -0.00011577 0
0.0036005 -0.000117632 0
0.00363363 -0.000100134 0
0.00435584 -0.000133267 0
0.00432257 -0.000150501 0
0.00576348 -0.000221899 0
0.00425117 -0.000186589 0
0.00504302 -0.0001862 0
0.00500732 -0.000204244 0
0.00428687 -0.000168545 0
0.0043227 -0.000150501 0
0.0042492 -0.000186589 0
0.00287829 -7.70003e-05 0
0.00428595 -0.000168545 0
0.00356375 -0.000131795 0
0.0036005 -0.000113751 0
0.00293845 -6.1859e-05 0
0.00298718 -3.85724e-05 0
0.00438677 -0.000110584 0
0.00296281 -5.02157e-05 0
0.00368697 -7.45784e-05 0
0.00366261 -8.62217e-05 0
0.00293845 -6.18747e-05 0
0.00438677 -0.000117966 0
0.00288236 -8.04294e-05 0
0.00366261 -8.99203e-05 0
0.00363457 -9.91977e-05 0
0.00291041 -7.1152e-05 0
0.00293844 -6.1859e-05 0
0.00148087 -1.58066e-05 0
0.0029845 -3.85724e-05 0
0.00220966 -3.88328e-05 0
0.00223268 -2.71895e-05 0
0.00296147 -5.02157e-05 0
0.00293844 -6.18747e-05 0
0.00288515 -8.04294e-05 0
0.00148087 -8.5821e-06 0
0.0029118 -7.1152e-05 0
0.00218301 -4.45058e-05 0
0.00220966 -3.52284e-05 0
0.00718084 -0.000263516 0
0.0057667 -0.000219188 0
0.00722517 -0.000219047 0
0.00647377 -0.000241352 0
0.00649593 -0.000219117 0
0.007203 -0.000241281 0
0.00718069 -0.000263516 0
0.00722275 -0.000219047 0
0.00856203 -0.000305581 0
0.00720172 -0.000241281 0
0.00789239 -0.000262314 0
0.00787136 -0.000284549 0
0.00718084 -0.000263219 0
0.0071427 -0.000308416 0
0.0057667 -0.000225082 0
0.00716177 -0.000285817 0
0.0064547 -0.000266749 0
0.00647377 -0.00024415 0
0.00718069 -0.000263219 0
0.00856203 -0.000296714 0
0.00714719 -0.000308416 0
0.00787136 -0.000279966 0
0.00785461 -0.000302565 0
0.00716394 -0.000285817 0
4.96007e-07 0 0
0.00148314 -6.91124e-06 0
-6.41523e-06 0 0
0.000741817 -3.45562e-06 0
0.000738361 -3.45562e-06 0
-2.95961e-06 0 0
4.96007e-07 0 0
1.02609e-05 0 0
0.00148314 -9.76485e-06 0
5.37843e-06 0 0
0.000746699 -4.88243e-06 0
0.000741817 -4.88243e-06 0
0.00144063 -2.88608e-05 0
1.23008e-06 7.64531e-06 0
0.00147714 -1.29084e-05 0
0.000720932 -1.06078e-05 0
0.000739185 -2.63156e-06 0
0.00145889 -2.08846e-05 0
0.00144082 -2.88608e-05 0
0.0014852 -1.29084e-05 0
0.00287796 -7.32353e-05 0
0.00146301 -2.08846e-05 0
0.00218158 -4.30719e-05 0
0.00215939 -5.10481e-05 0
0.00144063 -2.92394e-05 0
0.00139938 -2.6043e-05 0
1.23008e-06 1.20157e-05 0
0.00142001 -2.76412e-05 0
0.000700305 -7.01361e-06 0
0.000720932 -8.61185e-06 0
0.00144082 -2.92394e-05 0
0.00287796 -8.13921e-05 0
0.00138867 -2.6043e-05 0
0.00215939 -5.53158e-05 0
0.00213331 -5.37175e-05 0
0.00141475 -2.76412e-05 0
0.00280459 -0.000103878 0
0.0042439 -0.000191625 0
0.00271685 -0.000122406 0
0.00352424 -0.000147751 0
0.00348037 -0.000157016 0
0.00276072 -0.000113142 0
0.00280459 -0.000104034 0
0.00288184 -8.05527e-05 0
0.0042439 -0.000181284 0
0.00284322 -9.22934e-05 0
0.00356287 -0.000130918 0
0.00352424 -0.000142659 0
0.00280467 -0.000103878 0
0.0027188 -0.000122406 0
0.0013848 -1.80065e-05 0
0.00276174 -0.000113142 0
0.0020518 -7.02064e-05 0
0.00209474 -6.09422e-05 0
0.00280467 -0.000104034 0
0.0013848 -2.99097e-05 0
0.0028788 -8.05527e-05 0
0.00209474 -6.69718e-05 0
0.0021318 -5.52312e-05 0
0.00284173 -9.22934e-05 0
0.00570243 -0.000253021 0
0.00424724 -0.000190527 0
0.00576492 -0.000220451 0
0.00497483 -0.000221774 0
0.00500608 -0.000205489 0
0.00573368 -0.000236736 0
0.00570243 -0.000252609 0
0.00564146 -0.000286967 0
0.00424724 -0.000191638 0
0.00567194 -0.000269788 0
0.00494435 -0.000239303 0
0.00497483 -0.000222124 0
0.00570222 -0.000253021 0
0.00576207 -0.000220451 0
0.00714715 -0.000312865 0
0.00573214 -0.000236736 0
0.00645461 -0.000266658 0
0.00642469 -0.000282943 0
0.00570222 -0.000252609 0
0.00714715 -0.000307634 0
0.0056472 -0.000286967 0
0.00642469 -0.000280122 0
0.00639717 -0.000297301 0
0.00567471 -0.000269788 0
0.00416585 -0.00021001 0
0.00271005 -0.000129204 0
0.00424666 -0.000188864 0
0.00343795 -0.000169607 0
0.00347835 -0.000159034 0
0.00420625 -0.000199437 0
0.00416555 -0.00021001 0
0.00424446 -0.000188864 0
0.00564341 -0.000288919 0
0.00420501 -0.000199437 0
0.00494394 -0.000238892 0
0.00490448 -0.000249465 0
0.00416585 -0.000209416 0
0.00407959 -0.000233319 0
0.00271005 -0.000123154 0
0.00412272 -0.000221368 0
0.00339482 -0.000178237 0
0.00343795 -0.000166285 0
0.00416555 -0.000209416 0
0.00564341 -0.000289029 0
0.00408594 -0.000233319 0
0.00490448 -0.000249223 0
0.00486467 -0.000261174 0
0.00412575 -0.000221368 0
4.12851e-07 0 0
1.32458e-05 0 0
0.00138617 -1.2833e-05 0
6.82934e-06 0 0
0.000699707 -6.41649e-06 0
0.000693291 -6.41649e-06 0
4.12851e-07 0 0
0.00138617 -1.84015e-05 0
-1.79887e-05 0 0
0.000693291 -9.20076e-06 0
0.00068409 -9.20076e-06 0
-8.78791e-06 0 0
0.00132626 -4.51356e-05 0
0.00139191 -2.5114e-05 0
0.00270718 -0.000110786 0
0.00135909 -3.51248e-05 0
0.00204955 -6.795e-05 0
0.00201672 -7.79608e-05 0
0.00132618 -4.51356e-05 0
-9.84508e-06 8.14359e-06 0
0.00137946 -2.5114e-05 0
0.000658166 -1.8496e-05 0
0.000684806 -8.4852e-06 0
0.00135282 -3.51248e-05 0
0.00132626 -4.53034e-05 0
0.00270718 -0.000127271 0
0.00124429 -3.83699e-05 0
0.00201672 -8.6287e-05 0
0.00197574 -8.28203e-05 0
0.00128528 -4.18367e-05 0
0.00132618 -4.53034e-05 0
0.00125792 -3.83699e-05 0
-9.84508e-06 2.29501e-05 0
0.00129205 -4.18367e-05 0
0.000624039 -7.70993e-06 0
0.000658166 -1.11767e-05 0
0.00854147 -0.000319036 0
0.00854441 -0.000323078 0
0.0071518 -0.00032197 0
0.00854294 -0.000321057 0
0.0078481 -0.000322524 0
0.00784663 -0.000320503 0
0.00854147 -0.000319174 0
0.0071518 -0.000303811 0
0.00855683 -0.000301909 0
0.00784663 -0.000311492 0
0.00785432 -0.00030286 0
0.00854915 -0.000310542 0
0.0085414 -0.000319036 0
0.00987945 -0.000314138 0
0.0085463 -0.000323078 0
0.00921043 -0.000316587 0
0.00921288 -0.000318608 0
0.00854385 -0.000321057 0
0.0085414 -0.000319174 0
0.0085559 -0.000301909 0
0.00987945 -0.000333675 0
0.00854865 -0.000310542 0
0.00921768 -0.000317792 0
0.00921043 -0.000326424 0
0.00711795 -0.000309911 0
0.00714131 -0.000311479 0
0.0085546 -0.000333269 0
0.00712963 -0.000310695 0
0.00784795 -0.000322374 0
0.00783627 -0.00032159 0
0.00711808 -0.000309911 0
0.00564948 -0.000284689 0
0.00714331 -0.000311479 0
0.00638378 -0.0002973 0
0.00639639 -0.000298084 0
0.00713069 -0.000310695 0
0.00711795 -0.000309642 0
0.0085546 -0.000312391 0
0.0071152 -0.000294382 0
0.00783627 -0.000311016 0
0.0078349 -0.000303386 0
0.00711657 -0.000302012 0
0.00711808 -0.000309642 0
0.00711132 -0.000294382 0
0.00564948 -0.000302874 0
0.0071147 -0.000302012 0
0.0063804 -0.000298628 0
0.00638378 -0.000306258 0
0.00989545 -0.000281491 0
0.00855976 -0.000309623 0
0.00986731 -0.000326274 0
0.0092276 -0.000295557 0
0.00921353 -0.000317949 0
0.00988138 -0.000303882 0
0.00989555 -0.000281491 0
0.00987219 -0.000326274 0
0.0111562 -0.000258135 0
0.00988387 -0.000303882 0
0.0105142 -0.000292204 0
0.0105259 -0.000269813 0
0.00989545 -0.000281697 0
0.00995323 -0.000194963 0
0.00855976 -0.000339483 0
0.00992434 -0.00023833 0
0.00925649 -0.000267223 0
0.0092276 -0.00031059 0
0.00989555 -0.000281697 0
0.0111562 -0.000230337 0
0.00994691 -0.000194963 0
0.0105259 -0.000256017 0
0.0105516 -0.00021265 0
0.00992123 -0.00023833 0
0.0112043 -0.000105719 0
0.0123418 -2.44401e-05 0
0.0112856 0.00012076 0
0.0117731 -6.50795e-05 0
0.0118137 4.816e-05 0
0.0112449 7.52061e-06 0
0.0112043 -0.000105103 0
0.0111518 -0.000249541 0
0.0123418 -5.26574e-05 0
0.0111781 -0.000177322 0
0.0117468 -0.000151099 0
0.0117731 -7.88803e-05 0
0.011204 -0.000105719 0
0.0113047 0.00012076 0
0.00996981 -0.000206433 0
0.0112543 7.52061e-06 0
0.0106373 -4.28363e-05 0
0.0105869 -0.000156076 0
0.011204 -0.000105103 0
0.00996981 -0.000172058 0
0.011137 -0.000249541 0
0.0105869 -0.000138581 0
0.0105534 -0.000210799 0
0.0111705 -0.000177322 0
0.012394 0.000224615 0
0.0113142 0.000149419 0
0.0123188 -4.75064e-05 0
0.0118541 0.000187017 0
0.0118165 5.09565e-05 0
0.0123564 8.85542e-05 0
0.0123944 0.000224615 0
0.0123453 -4.75064e-05 0
0.0133641 0.00027379 0
0.0123698 8.85542e-05 0
0.0128547 0.000113142 0
0.0128793 0.000249202 0
0.012394 0.000223712 0
0.0124945 0.000618924 0
0.0113142 0.000123167 0
0.0124443 0.000421318 0
0.0119044 0.000371046 0
0.0118541 0.00017344 0
0.0123944 0.000223712 0
0.0133641 0.000291014 0
0.0124617 0.000618924 0
0.0128793 0.000257363 0
0.0129129 0.000454969 0
0.0124281 0.000421318 0
0.0100433 3.13703e-05 0
0.00996045 -0.000197066 0
0.0113112 0.000114234 0
0.0100019 -8.28477e-05 0
0.0106358 -4.14158e-05 0
0.0106773 7.28022e-05 0
0.0100429 3.13703e-05 0
0.00867907 -7.13833e-05 0
0.0099401 -0.000197066 0
0.00936096 -2.00065e-05 0
0.00930958 -0.000134225 0
0.00999148 -8.28477e-05 0
0.0100433 3.04589e-05 0
0.0113112 0.000152621 0
0.0101655 0.000372799 0
0.0106773 9.154e-05 0
0.0107383 0.00026271 0
0.0101044 0.000201629 0
0.0100429 3.04589e-05 0
0.0101922 0.000372799 0
0.00867907 -0.000118884 0
0.0101175 0.000201629 0
0.00943563 0.000126957 0
0.00936096 -4.42128e-05 0
0.00857988 -0.000240495 0
0.00854642 -0.000326146 0
0.00996531 -0.000207037 0
0.00856315 -0.00028332 0
0.00925586 -0.000266592 0
0.00927259 -0.000223766 0
0.00857988 -0.000240733 0
0.00996531 -0.000171861 0
0.00864875 -0.000101702 0
0.00927259 -0.000206297 0
0.00930703 -0.000136782 0
0.00861431 -0.000171218 0
0.00857976 -0.000240495 0
0.00713017 -0.00027941 0
0.00854084 -0.000326146 0
0.00785496 -0.000259952 0
0.00783551 -0.000302778 0
0.0085603 -0.00028332 0
0.00857976 -0.000240733 0
0.00865599 -0.000101702 0
0.00713017 -0.000316967 0
0.00861787 -0.000171218 0
0.00789308 -0.000209335 0
0.00785496 -0.00027885 0
0.013373 0.000674673 0
0.0134064 0.00123241 0
0.0124887 0.000641271 0
0.0133897 0.000953541 0
0.0129476 0.00093684 0
0.0129309 0.000657972 0
0.013373 0.000675617 0
0.0124887 0.000645925 0
0.0133433 0.000270191 0
0.0129309 0.000660771 0
0.012916 0.000458058 0
0.0133581 0.000472904 0
0.0133734 0.000674673 0
0.0141452 0.00066484 0
0.0133636 0.00123241 0
0.0137593 0.000669756 0
0.0137544 0.000948624 0
0.0133685 0.000953541 0
0.0133734 0.000675617 0
0.0133794 0.000270191 0
0.0141452 0.000669628 0
0.0133764 0.000472904 0
0.0137623 0.000469909 0
0.0137593 0.000672622 0
0.0114046 0.000538676 0
0.0113172 0.000120178 0
0.0124874 0.000626088 0
0.0113609 0.000329427 0
0.0119023 0.000373133 0
0.011946 0.000582382 0
0.0114046 0.000537311 0
0.0124874 0.000649922 0
0.0115172 0.00113324 0
0.011946 0.000593617 0
0.0120023 0.00089158 0
0.0114609 0.000835274 0
0.0114039 0.000538676 0
0.0102062 0.000413506 0
0.0112788 0.000120178 0
0.0108051 0.000476091 0
0.0107425 0.000266842 0
0.0113414 0.000329427 0
0.0114039 0.000537311 0
0.0115652 0.00113324 0
0.0102062 0.000376025 0
0.0114846 0.000835274 0
0.0108857 0.000754631 0
0.0108051 0.000456668 0
0.012527 0.00124176 0
0.0125103 0.000619655 0
0.0133803 0.00125846 0
0.0125187 0.000930705 0
0.0129453 0.000939055 0
0.0129537 0.00125011 0
0.0125264 0.00124176 0
0.0115565 0.00117247 0
0.0124571 0.000619655 0
0.0120414 0.00120712 0
0.0120068 0.000896065 0
0.0124917 0.000930705 0
0.012527 0.0012404 0
0.0133803 0.00125131 0
0.012538 0.00208348 0
0.0129537 0.00124585 0
0.0129591 0.00166739 0
0.0125325 0.00166194 0
0.0125264 0.0012404 0
0.0126007 0.00208348 0
0.0115565 0.0011661 0
0.0125635 0.00166194 0
0.0120786 0.00162479 0
0.0120414 0.00120325 0
0.0140523 0.00116801 0
0.0133805 0.00124933 0
0.0141336 0.000653263 0
0.0137164 0.00120867 0
0.0137571 0.000951297 0
0.0140929 0.000910638 0
0.0140527 0.00116801 0
0.0141744 0.000653263 0
0.014619 0.00104627 0
0.0141135 0.000910638 0
0.0143967 0.000849767 0
0.0143358 0.00110714 0
0.0140523 0.00116725 0
0.0139439 0.00184319 0
0.0133805 0.00127565 0
0.0139981 0.00150522 0
0.0136622 0.00155942 0
0.0137164 0.00122145 0
0.0140527 0.00116725 0
0.014619 0.00101232 0
0.0138977 0.00184319 0
0.0143358 0.00108978 0
0.0142584 0.00142775 0
0.0139752 0.00150522 0
0.00716385 -0.000169969 0
0.00560802 -0.000226653 0
0.00710716 -0.000298945 0
0.00638593 -0.000198311 0
0.00635759 -0.000262799 0
0.0071355 -0.000234457 0
0.00716393 -0.000169969 0
0.00711215 -0.000298945 0
0.00867247 -0.000118184 0
0.00713804 -0.000234457 0
0.00789231 -0.000208564 0
0.0079182 -0.000144076 0
0.00716385 -0.000170148 0
0.00726956 2.13816e-05 0
0.00560802 -0.000275866 0
0.0072167 -7.43831e-05 0
0.00643879 -0.000127242 0
0.00638593 -0.000223007 0
0.00716393 -0.000170148 0
0.00867247 -7.07609e-05 0
0.00726332 2.13816e-05 0
0.0079182 -0.000120454 0
0.0079679 -2.46896e-05 0
0.00721363 -7.43831e-05 0
0.00560391 -0.000271521 0
0.00712274 -0.000283366 0
0.00559207 -0.000242609 0
0.00636333 -0.000277444 0
0.0063574 -0.000262988 0
0.00559799 -0.000257065 0
0.00560391 -0.000272087 0
0.00563763 -0.00029103 0
0.00712274 -0.000305807 0
0.00562077 -0.000281559 0
0.00638019 -0.000298419 0
0.00636333 -0.000288947 0
0.0056042 -0.000271521 0
0.00558433 -0.000242609 0
0.00408438 -0.000251651 0
0.00559426 -0.000257065 0
0.00483436 -0.00024713 0
0.00484429 -0.000261586 0
0.0056042 -0.000272087 0
0.00408438 -0.000234875 0
0.00564141 -0.00029103 0
0.00484429 -0.000253481 0
0.0048629 -0.000262953 0
0.0056228 -0.000281559 0
0.0088022 0.000224383 0
0.0102021 0.000419415 0
0.00899724 0.000709963 0
0.00950217 0.000321899 0
0.00959968 0.000564689 0
0.00889972 0.000467173 0
0.0088022 0.000225746 0
0.00866508 -0.000104897 0
0.0102021 0.000362871 0
0.00873364 6.04246e-05 0
0.0094336 0.000128987 0
0.00950217 0.000294309 0
0.00880152 0.000224383 0
0.00903352 0.000709963 0
0.0073045 -7.61707e-06 0
0.00891752 0.000467173 0
0.00816901 0.000351173 0
0.00805301 0.000108383 0
0.00880152 0.000225746 0
0.0073045 6.25592e-05 0
0.00863834 -0.000104897 0
0.00805301 0.000144153 0
0.00797142 -2.11689e-05 0
0.00871993 6.04246e-05 0
0.0103687 0.000983616 0
0.0090571 0.000769827 0
0.0101549 0.000372173 0
0.00971289 0.000876721 0
0.00960599 0.000571 0
0.0102618 0.000677894 0
0.0103697 0.000983616 0
0.01021 0.000372173 0
0.0115552 0.00114331 0
0.0102899 0.000677894 0
0.0108826 0.000757742 0
0.0109624 0.00106346 0
0.0103687 0.000981502 0
0.0106377 0.00184749 0
0.0090571 0.000712496 0
0.0105032 0.0014145 0
0.00984739 0.00127999 0
0.00971289 0.000846999 0
0.0103697 0.000981502 0
0.0115552 0.00117951 0
0.0105677 0.00184749 0
0.0109624 0.00108051 0
0.0110614 0.0015135 0
0.0104687 0.0014145 0
0.00566248 -8.33776e-05 0
0.0055821 -0.000249943 0
0.00729394 -2.99309e-06 0
0.00562229 -0.00016666 0
0.00643802 -0.000126468 0
0.00647821 -4.31853e-05 0
0.00566248 -8.32156e-05 0
0.00729394 6.24403e-05 0
0.00580814 0.000148047 0
0.00647821 -1.03877e-05 0
0.00655104 0.000105244 0
0.00573531 3.24157e-05 0
0.00566257 -8.33776e-05 0
0.00401559 -0.000165608 0
0.00558034 -0.000249943 0
0.00483908 -0.000124493 0
0.00479796 -0.000207775 0
0.00562145 -0.00016666 0
0.00566257 -8.32156e-05 0
0.00580877 0.000148047 0
0.00401559 -0.000229421 0
0.00573567 3.24157e-05 0
0.00491218 -4.06871e-05 0
0.00483908 -0.000156318 0
0.00750875 0.000464466 0
0.007281 1.58853e-05 0
0.00905127 0.00069222 0
0.00739487 0.000240176 0
0.00816613 0.000354053 0
0.00828001 0.000578343 0
0.0075077 0.000464466 0
0.00586424 0.000204145 0
0.00724738 1.58853e-05 0
0.00668597 0.000334306 0
0.00655581 0.000110015 0
0.00737754 0.000240176 0
0.00750875 0.000462373 0
0.00905127 0.000779867 0
0.00782624 0.00112004 0
0.00828001 0.00062112 0
0.00843876 0.000949951 0
0.0076675 0.000791204 0
0.0075077 0.000462373 0
0.00787451 0.00112004 0
0.00586424 9.55668e-05 0
0.00769111 0.000791204 0
0.00686937 0.000607801 0
0.00668597 0.00027897 0
0.00402667 -0.00020996 0
0.00407155 -0.000238815 0
0.00559655 -0.000254836 0
0.00404911 -0.000224387 0
0.00483405 -0.000246825 0
0.00481161 -0.000232398 0
0.00402727 -0.00020996 0
0.0025092 -0.000159922 0
0.00407731 -0.000238815 0
0.00326824 -0.000184941 0
0.00329326 -0.000199369 0
0.00405229 -0.000224387 0
0.00402667 -0.000208755 0
0.00559655 -0.000233725 0
0.0040017 -0.000179495 0
0.00481161 -0.00022124 0
0.00479913 -0.00020661 0
0.00401419 -0.000194125 0
0.00402727 -0.000208755 0
0.00398751 -0.000179495 0
0.0025092 -0.000168989 0
0.00400739 -0.000194125 0
0.00324835 -0.000174242 0
0.00326824 -0.000188872 0
0.0026197 -0.000138452 0
0.00271122 -0.000124329 0
0.00407624 -0.000229972 0
0.00266546 -0.00013139 0
0.00339373 -0.000177151 0
0.00334797 -0.000184212 0
0.0026197 -0.000137775 0
0.00407624 -0.000239885 0
0.00251759 -0.000151529 0
0.00334797 -0.00018883 0
0.00329692 -0.000195707 0
0.00256865 -0.000144652 0
0.00262004 -0.000138452 0
0.00123429 -4.83723e-05 0
0.00271012 -0.000124329 0
0.00192717 -9.34119e-05 0
0.00197221 -8.63508e-05 0
0.00266508 -0.00013139 0
0.00262004 -0.000137775 0
0.00251396 -0.000151529 0
0.00123429 -3.16916e-05 0
0.002567 -0.000144652 0
0.00187413 -9.16101e-05 0
0.00192717 -8.47332e-05 0
0.0143664 0.00158712 0
0.0140493 0.00230793 0
0.0138981 0.00190417 0
0.0142079 0.00194752 0
0.0139737 0.00210605 0
0.0141322 0.00174565 0
0.0143664 0.0015876 0
0.0138981 0.00184355 0
0.0146223 0.00101566 0
0.0141322 0.00171557 0
0.0142602 0.0014296 0
0.0144943 0.00130163 0
0.0143666 0.00158712 0
0.0147422 0.00122702 0
0.0140065 0.00230793 0
0.0145544 0.00140707 0
0.0143743 0.00176748 0
0.0141866 0.00194752 0
0.0143666 0.0015876 0
0.0146617 0.00101566 0
0.0147422 0.0012925 0
0.0145142 0.00130163 0
0.0147019 0.00115408 0
0.0145544 0.00144005 0
0.013587 0.00274069 0
0.0139579 0.00184439 0
0.0139874 0.00236982 0
0.0137724 0.00229254 0
0.0139727 0.0021071 0
0.0137872 0.00255526 0
0.0135868 0.00274069 0
0.0130999 0.00305474 0
0.0139008 0.00184439 0
0.0133433 0.00289771 0
0.0135003 0.00244956 0
0.0137438 0.00229254 0
0.013587 0.00274018 0
0.0139874 0.00228369 0
0.0131305 0.00384779 0
0.0137872 0.00251194 0
0.013559 0.00306574 0
0.0133588 0.00329399 0
0.0135868 0.00274018 0
0.0131911 0.00384779 0
0.0130999 0.00313579 0
0.013389 0.00329399 0
0.0131455 0.00349179 0
0.0133433 0.00293799 0
0.0132831 0.00202806 0
0.0134225 0.00123372 0
0.0138984 0.00188865 0
0.0133528 0.00163089 0
0.0136604 0.00156119 0
0.0135907 0.00195836 0
0.0132831 0.00202708 0
0.0138984 0.00184201 0
0.013098 0.00305286 0
0.0135907 0.00193455 0
0.0134982 0.00244743 0
0.0131905 0.00253997 0
0.0132826 0.00202806 0
0.0125627 0.00210823 0
0.0133627 0.00123372 0
0.0129226 0.00206815 0
0.0129627 0.00167098 0
0.0133227 0.00163089 0
0.0132826 0.00202708 0
0.0131645 0.00305286 0
0.0125627 0.00214513 0
0.0132236 0.00253997 0
0.0128636 0.00259899 0
0.0129226 0.00208611 0
0.0142806 0.00180529 0
0.013987 0.00228841 0
0.0147637 0.00124855 0
0.0141338 0.00204685 0
0.0143753 0.00176848 0
0.0145221 0.00152692 0
0.0142807 0.00180529 0
0.0147966 0.00124855 0
0.0144961 0.00128942 0
0.0145386 0.00152692 0
0.0146463 0.00126898 0
0.0143884 0.00154735 0
0.0142806 0.00180506 0
0.0137035 0.00248213 0
0.013987 0.0023821 0
0.013992 0.00214359 0
0.0138453 0.00243211 0
0.0141338 0.00209358 0
0.0142807 0.00180506 0
0.0144961 0.00119341 0
0.013669 0.00248213 0
0.0143884 0.00149923 0
0.0140826 0.00183777 0
0.0139749 0.00214359 0
0.0116574 0.0020496 0
0.0125631 0.00211119 0
0.011719 0.00328299 0
0.0121102 0.00208039 0
0.012141 0.00269709 0
0.0116882 0.00266629 0
0.0116574 0.00205151 0
0.0115878 0.00113476 0
0.0125631 0.00212107 0
0.0116226 0.00159314 0
0.0120754 0.00162792 0
0.0121102 0.00208629 0
0.0116564 0.0020496 0
0.0118097 0.00328299 0
0.0106258 0.00189627 0
0.0117331 0.00266629 0
0.0112178 0.00258963 0
0.0111411 0.00197293 0
0.0116564 0.00205151 0
0.0106258 0.00190551 0
0.0115104 0.00113476 0
0.0111411 0.00197851 0
0.0110681 0.00152014 0
0.0115834 0.00159314 0
0.012479 0.00325917 0
0.0117537 0.00331773 0
0.0125376 0.00208567 0
0.0121164 0.00328845 0
0.0121456 0.0027017 0
0.0125083 0.00267242 0
0.0124796 0.00325917 0
0.0126222 0.00208567 0
0.0131008 0.00311659 0
0.0125509 0.00267242 0
0.0128615 0.00260113 0
0.0127902 0.00318788 0
0.012479 0.00325806 0
0.0123658 0.00475254 0
0.0117537 0.0033713 0
0.0124224 0.0040053 0
0.0120597 0.00406192 0
0.0121164 0.00331468 0
0.0124796 0.00325806 0
0.0131008 0.00305191 0
0.0122734 0.00475254 0
0.0127902 0.00315499 0
0.0126871 0.00390223 0
0.0123765 0.0040053 0
0.0108369 0.00317199 0
0.0106715 0.0018505 0
0.0117553 0.00333739 0
0.0107542 0.00251125 0
0.0112134 0.00259395 0
0.0112961 0.00325469 0
0.0108356 0.00317199 0
0.00977804 0.0028949 0
0.0105585 0.0018505 0
0.0103068 0.00303345 0
0.0101683 0.0023727 0
0.0106971 0.00251125 0
0.0108369 0.00316936 0
0.0117553 0.00332024 0
0.0109878 0.00494557 0
0.0112961 0.0032448 0
0.0113716 0.0041329 0
0.0109124 0.00405747 0
0.0108356 0.00316936 0
0.0111192 0.00494557 0
0.00977804 0.00288578 0
0.0109774 0.00405747 0
0.0104486 0.00391568 0
0.0103068 0.00302757 0
0.00934595 0.00157478 0
0.00906041 0.000709186 0
0.0106249 0.00186031 0
0.00920318 0.00114198 0
0.00984263 0.00128475 0
0.0099854 0.00171755 0
0.00934595 0.00157133 0
0.0106249 0.00191683 0
0.00969145 0.00280831 0
0.0099854 0.00174408 0
0.0101582 0.00236257 0
0.0095187 0.00218982 0
0.00934422 0.00157478 0
0.00791735 0.00121114 0
0.00898058 0.000709186 0
0.00863079 0.00139296 0
0.00844897 0.000960164 0
0.0091624 0.00114198 0
0.00934422 0.00157133 0
0.00979541 0.00280831 0
0.00791735 0.00112015 0
0.00956981 0.00218982 0
0.00885638 0.00196423 0
0.00863079 0.00134574 0
0.0127308 0.00438083 0
0.0131081 0.00381753 0
0.0121675 0.0059889 0
0.0129194 0.00409918 0
0.0126378 0.00490321 0
0.0124491 0.00518487 0
0.0127308 0.00438119 0
0.0131811 0.00305453 0
0.0131081 0.00393087 0
0.012956 0.00371786 0
0.0131446 0.0034927 0
0.0129194 0.00415603 0
0.0127306 0.00438083 0
0.0122477 0.0059889 0
0.0122749 0.00486373 0
0.0124892 0.00518487 0
0.0122613 0.00542632 0
0.0125027 0.00462228 0
0.0127306 0.00438119 0
0.0122749 0.00475399 0
0.0131034 0.00305453 0
0.0125027 0.00456759 0
0.0126891 0.00390426 0
0.012917 0.00371786 0
0.0134023 0.00321441 0
0.0131073 0.00382455 0
0.0140124 0.0023087 0
0.0132548 0.00351948 0
0.0135599 0.00306662 0
0.0137074 0.00276155 0
0.0134023 0.00321424 0
0.0126726 0.00429238 0
0.0131073 0.00394396 0
0.0130374 0.00375331 0
0.0128899 0.00411817 0
0.0132548 0.0035791 0
0.0134024 0.00321441 0
0.0140604 0.0023087 0
0.0136293 0.00255637 0
0.0137314 0.00276155 0
0.0138448 0.00243253 0
0.0135158 0.00288539 0
0.0134024 0.00321424 0
0.0136293 0.00243531 0
0.0126234 0.00429238 0
0.0135158 0.00282478 0
0.0131264 0.00336384 0
0.0130129 0.00375331 0
0.0123858 0.0052047 0
0.0121367 0.00595813 0
0.0131392 0.00384865 0
0.0122612 0.00558141 0
0.012638 0.00490339 0
0.0127625 0.00452667 0
0.0123857 0.0052047 0
0.0132026 0.00384865 0
0.0125771 0.00438781 0
0.0127941 0.00452667 0
0.0128899 0.00411823 0
0.0124814 0.00479626 0
0.0123858 0.00520483 0
0.0114807 0.0067835 0
0.0121367 0.00610987 0
0.0119333 0.00599417 0
0.0118087 0.00644668 0
0.0122612 0.00565735 0
0.0123857 0.00520483 0
0.0125771 0.00423743 0
0.0114183 0.0067835 0
0.0124814 0.00472113 0
0.0119977 0.00551046 0
0.011902 0.00599417 0
0.011706 0.00497405 0
0.0118385 0.00328653 0
0.0122768 0.00484156 0
0.0117722 0.00413029 0
0.0120576 0.00406404 0
0.0119914 0.0049078 0
0.011706 0.00497308 0
0.0122768 0.00474675 0
0.0114796 0.00709238 0
0.0119914 0.00485992 0
0.0118782 0.00591956 0
0.0115928 0.00603273 0
0.0117055 0.00497405 0
0.0110324 0.00499018 0
0.0117216 0.00328653 0
0.011369 0.00498211 0
0.011377 0.00413835 0
0.0117136 0.00413029 0
0.0117055 0.00497308 0
0.0116032 0.00709238 0
0.0110324 0.00507538 0
0.0116544 0.00603273 0
0.0113178 0.00608388 0
0.011369 0.00502423 0
0.0118403 0.00664189 0
0.012384 0.00475462 0
0.0121384 0.00609822 0
0.0121121 0.00569825 0
0.0122612 0.00542642 0
0.0119894 0.00637006 0
0.0118404 0.00664189 0
0.0114733 0.00708607 0
0.0122846 0.00475462 0
0.0116569 0.00686398 0
0.011879 0.00592034 0
0.0120625 0.00569825 0
0.0118403 0.00664216 0
0.0121384 0.00594762 0
0.0111458 0.00887825 0
0.0119894 0.00629489 0
0.0116421 0.00741294 0
0.011493 0.00776021 0
0.0118404 0.00664216 0
0.0112432 0.00887825 0
0.0114733 0.00723937 0
0.0115418 0.00776021 0
0.0113583 0.00805881 0
0.0116569 0.00694077 0
0.0137873 0.0016924 0
0.012914 0.0022331 0
0.013629 0.00256576 0
0.0133506 0.00196275 0
0.0132715 0.00239943 0
0.0137081 0.00212908 0
0.0137873 0.00169247 0
0.013629 0.00244206 0
0.0145369 0.00123426 0
0.0137081 0.00206726 0
0.0140829 0.00183816 0
0.0141621 0.00146336 0
0.0137874 0.0016924 0
0.013882 0.000795495 0
0.0128905 0.0022331 0
0.0138347 0.00124395 0
0.0133862 0.0015143 0
0.0133389 0.00196275 0
0.0137874 0.00169247 0
0.0145599 0.00123426 0
0.013882 0.0009199 0
0.0141736 0.00146336 0
0.014221 0.00107708 0
0.0138347 0.00130618 0
0.0127299 0.00329883 0
0.0137122 0.00248248 0
0.0128306 0.00231651 0
0.0132211 0.00289066 0
0.0132714 0.0023995 0
0.0127802 0.00280767 0
0.01273 0.00329883 0
0.0125764 0.00424532 0
0.0136764 0.00248248 0
0.0126532 0.00377208 0
0.0131264 0.0033639 0
0.0132032 0.00289066 0
0.0127299 0.00329888 0
0.0128306 0.00216598 0
0.011597 0.00424109 0
0.0127802 0.00273243 0
0.0122138 0.00320354 0
0.0121635 0.00376999 0
0.01273 0.00329888 0
0.0116324 0.00424109 0
0.0125764 0.00439641 0
0.0121812 0.00376999 0
0.0121044 0.00431875 0
0.0126532 0.00384765 0
0.0128975 0.00112826 0
0.0128303 0.00217291 0
0.0139422 0.000855697 0
0.0128639 0.00165059 0
0.0133862 0.00151431 0
0.0134199 0.000991978 0
0.0128975 0.00112826 0
0.0139538 0.000855697 0
0.0129136 7.19766e-05 0
0.0134257 0.000991978 0
0.0134337 0.000463837 0
0.0129056 0.000600118 0
0.0128975 0.00112827 0
0.0117019 0.00144172 0
0.0128303 0.00232386 0
0.0122997 0.001285 0
0.0122661 0.00188279 0
0.0128639 0.00172607 0
0.0128975 0.00112827 0
0.0129136 -7.88229e-05 0
0.0116904 0.00144172 0
0.0129056 0.000524725 0
0.012302 0.00068145 0
0.012294 0.001285 0
2.84023e-07 0 0
0.00123238 -3.65083e-05 0
-3.62242e-05 0 0
0.00061633 -1.82541e-05 0
0.000598075 -1.82541e-05 0
-1.79701e-05 0 0
2.84023e-07 0 0
1.3105e-05 0 0
0.00123238 -1.2821e-05 0
6.6945e-06 0 0
0.00062274 -6.41048e-06 0
0.00061633 -6.41048e-06 0
0.00116576 -5.88845e-05 0
-3.25376e-05 3.68661e-06 0
0.00122833 -4.05554e-05 0
0.00056661 -2.75989e-05 0
0.000597895 -1.84344e-05 0
0.00119704 -4.972e-05 0
0.00116543 -5.88845e-05 0
0.00124316 -4.05554e-05 0
0.00249904 -0.000136614 0
0.00120429 -4.972e-05 0
0.0018711 -8.8585e-05 0
0.00183224 -9.77495e-05 0
0.00116576 -5.8222e-05 0
0.00106924 -4.98861e-05 0
-3.25376e-05 3.82973e-05 0
0.0011175 -5.40541e-05 0
0.00051835 -5.79439e-06 0
0.00056661 -9.96234e-06 0
0.00116543 -5.8222e-05 0
0.00249904 -0.000164601 0
0.00105905 -4.98861e-05 0
0.00183224 -0.000111411 0
0.00177905 -0.000107243 0
0.00111224 -5.40541e-05 0
0.0024436 -0.000130404 0
0.0023722 -0.000117481 0
0.001038 -5.90005e-05 0
0.0024079 -0.000123943 0
0.0017051 -8.82408e-05 0
0.0017408 -9.47025e-05 0
0.0024436 -0.000132473 0
0.001038 -7.09301e-05 0
0.00250515 -0.000158497 0
0.0017408 -0.000101702 0
0.00177158 -0.000114714 0
0.00247438 -0.000145485 0
0.00244257 -0.000130404 0
0.00399662 -0.000179852 0
0.00239312 -0.000117481 0
0.0032196 -0.000155128 0
0.00319487 -0.000148667 0
0.00241785 -0.000123943 0
0.00244257 -0.000132473 0
0.00249871 -0.000158497 0
0.00399662 -0.000188612 0
0.00247064 -0.000145485 0
0.00324767 -0.000173554 0
0.0032196 -0.000160542 0
4.3589e-07 0 0
5.7597e-06 0 0
0.00102468 -5.32381e-06 0
3.0978e-06 0 0
0.000515217 -2.66191e-06 0
0.000512556 -2.66191e-06 0
4.3589e-07 0 0
0.00102468 -6.84576e-05 0
-6.80217e-05 0 0
0.000512556 -3.42288e-05 0
0.000478327 -3.42288e-05 0
-3.37929e-05 0 0
0.000987469 -5.54582e-05 0
0.00104096 -6.19611e-05 0
0.00236367 -0.000108953 0
0.00101422 -5.87096e-05 0
0.00170232 -8.54569e-05 0
0.00167557 -8.22054e-05 0
0.000989511 -5.54582e-05 0
-8.18193e-05 -1.37976e-05 0
0.00103117 -6.19611e-05 0
0.000453846 -3.46279e-05 0
0.000474676 -3.78793e-05 0
0.00101034 -5.87096e-05 0
0.000987469 -5.1374e-05 0
0.00236367 -0.000142031 0
0.000896812 -5.1651e-05 0
0.00167557 -9.67026e-05 0
0.00163024 -9.68411e-05 0
0.00094214 -5.15125e-05 0
0.000989511 -5.1374e-05 0
0.000878014 -5.1651e-05 0
-8.18193e-05 6.01234e-05 0
0.000933762 -5.15125e-05 0
0.000398097 4.23621e-06 0
0.000453846 4.3747e-06 0
0.00409501 -4.88359e-06 0
0.00239522 -0.000115383 0
0.00398451 -0.000191962 0
0.00324512 -6.01331e-05 0
0.00318987 -0.000153672 0
0.00403976 -9.84226e-05 0
0.0040943 -4.88359e-06 0
0.00397813 -0.000191962 0
0.00584554 0.000111283 0
0.00403621 -9.84226e-05 0
0.00491183 -4.03393e-05 0
0.00496992 5.31997e-05 0
0.00409501 -3.44931e-06 0
0.00428101 0.00023129 0
0.00239522 -0.000189449 0
0.00418801 0.00011392 0
0.00333812 2.09207e-05 0
0.00324512 -9.64489e-05 0
0.0040943 -3.44931e-06 0
0.00584554 0.000199692 0
0.00429744 0.00023129 0
0.00496992 9.81212e-05 0
0.00507149 0.000215491 0
0.00419587 0.00011392 0
0.00619394 0.000711512 0
0.00790811 0.00122771 0
0.00671014 0.00157227 0
0.00705103 0.000969611 0
0.00730913 0.00139999 0
0.00645204 0.00114189 0
0.00619394 0.000714941 0
0.00582245 0.000137355 0
0.00790811 0.00108643 0
0.0060082 0.000426148 0
0.00686528 0.000611894 0
0.00705103 0.000900687 0
0.00619223 0.000711512 0
0.0067734 0.00157227 0
0.00437206 0.000130345 0
0.00648281 0.00114189 0
0.00557273 0.000851308 0
0.00528214 0.000420928 0
0.00619223 0.000714941 0
0.00437206 0.000305911 0
0.0057832 0.000137355 0
0.00528214 0.000510426 0
0.00507763 0.000221633 0
0.00598771 0.000426148 0
0.00841135 0.00232931 0
0.00685502 0.00171715 0
0.00779919 0.00111879 0
0.00763319 0.00202323 0
0.00732711 0.00141797 0
0.00810527 0.00172405 0
0.00841438 0.00232931 0
0.00791872 0.00111879 0
0.00977874 0.00282498 0
0.00816655 0.00172405 0
0.00884873 0.00197188 0
0.00909656 0.00257715 0
0.00841135 0.00232326 0
0.00916551 0.00409918 0
0.00685502 0.0015691 0
0.00878843 0.00321122 0
0.00801026 0.00283414 0
0.00763319 0.00194618 0
0.00841438 0.00232326 0
0.00977874 0.00291244 0
0.00900356 0.00409918 0
0.00909656 0.00261785 0
0.00939115 0.00350581 0
0.00870897 0.00321122 0
0.00488492 0.000916775 0
0.00429509 0.000207311 0
0.00683906 0.0015066 0
0.00459001 0.000562043 0
0.00556708 0.000856957 0
0.00586199 0.00121169 0
0.00488201 0.000916775 0
0.00281305 0.000292761 0
0.004258 0.000207311 0
0.00384753 0.000604768 0
0.00353553 0.000250036 0
0.00457001 0.000562043 0
0.00488492 0.000910964 0
0.00683906 0.00174692 0
0.00572087 0.00200395 0
0.00586199 0.00132894 0
0.00627997 0.00187543 0
0.0053029 0.00145746 0
0.00488201 0.000910964 0
0.00579864 0.00200395 0
0.00281305 -5.66599e-06 0
0.00534033 0.00145746 0
0.00430585 0.00099914 0
0.00384753 0.000452649 0
0.00248629 3.68625e-05 0
0.00234452 -0.000138751 0
0.00433367 0.000178633 0
0.00241541 -5.09445e-05 0
0.0033391 1.9941e-05 0
0.00340998 0.000107748 0
0.00248629 4.15586e-05 0
0.00433367 0.000282979 0
0.00272772 0.000207423 0
0.00340998 0.000162269 0
0.00353069 0.000245201 0
0.00260701 0.000124491 0
0.00248864 3.68625e-05 0
0.000863634 -8.48284e-05 0
0.00236695 -0.000138751 0
0.00167614 -2.3983e-05 0
0.00161529 -0.00011179 0
0.0024278 -5.09445e-05 0
0.00248864 4.15586e-05 0
0.00267241 0.000207423 0
0.000863634 -0.000142213 0
0.00258053 0.000124491 0
0.00176802 3.2605e-05 0
0.00167614 -5.03272e-05 0
0.0101636 0.00470905 0
0.0106345 0.00726876 0
0.00913386 0.00423813 0
0.0103991 0.00598891 0
0.0098842 0.00575344 0
0.00964873 0.00447359 0
0.0101636 0.00471236 0
0.00913386 0.00422948 0
0.00968073 0.00281442 0
0.00964873 0.00447092 0
0.00940729 0.00352195 0
0.00992216 0.00376339 0
0.0101653 0.00470905 0
0.0110365 0.00498653 0
0.0104427 0.00726876 0
0.0106009 0.00484779 0
0.0107396 0.00612765 0
0.010304 0.00598891 0
0.0101653 0.00471236 0
0.00984939 0.00281442 0
0.0110365 0.00502822 0
0.0100073 0.00376339 0
0.010443 0.00392132 0
0.0106009 0.00487029 0
0.00769676 0.00328324 0
0.00685439 0.00156973 0
0.00913908 0.00412561 0
0.00727557 0.00242649 0
0.00799673 0.00284767 0
0.00841792 0.00370442 0
0.00769676 0.0032709 0
0.00913908 0.00425207 0
0.00867793 0.005923 0
0.00841792 0.00376148 0
0.0089085 0.00508753 0
0.00818734 0.00459695 0
0.00769059 0.00328324 0
0.00597146 0.00225453 0
0.00666188 0.00156973 0
0.00683102 0.00276888 0
0.00631667 0.00191213 0
0.00717623 0.00242649 0
0.00769059 0.0032709 0
0.0089568 0.005923 0
0.00597146 0.00200468 0
0.0083237 0.00459695 0
0.00746413 0.00396384 0
0.00683102 0.00263779 0
0.00977599 0.0068893 0
0.00925967 0.00411231 0
0.0104977 0.00740562 0
0.00951783 0.00550081 0
0.00987867 0.00575897 0
0.0101368 0.00714746 0
0.00977526 0.0068893 0
0.0088683 0.00611337 0
0.00899933 0.00411231 0
0.00932178 0.00650134 0
0.00893382 0.00511284 0
0.00938729 0.00550081 0
0.00977599 0.00688783 0
0.0104977 0.00728868 0
0.0101768 0.0106256 0
0.0101368 0.00708825 0
0.0103373 0.00895716 0
0.00997642 0.00875674 0
0.00977526 0.00688783 0
0.0104475 0.0106256 0
0.0088683 0.00621557 0
0.0101114 0.00875674 0
0.00965791 0.00842061 0
0.00932178 0.0065517 0
0.0110316 0.00734362 0
0.0104871 0.00731308 0
0.011001 0.00495102 0
0.0107593 0.00732835 0
0.010744 0.00613205 0
0.0110163 0.00614732 0
0.0110314 0.00734362 0
0.0111568 0.00495102 0
0.0114773 0.00721827 0
0.0110941 0.00614732 0
0.011317 0.00608464 0
0.0112544 0.00728094 0
0.0110316 0.00734394 0
0.0109108 0.010287 0
0.0104871 0.00746476 0
0.0109712 0.00881549 0
0.0106989 0.0088759 0
0.0107593 0.00740435 0
0.0110314 0.00734394 0
0.0114773 0.00706981 0
0.0107573 0.010287 0
0.0112544 0.00720688 0
0.0111173 0.00867843 0
0.0108943 0.00881549 0
3.25822e-06 0 0
0.000801409 -0.000142967 0
-0.000139709 0 0
0.000402333 -7.14835e-05 0
0.00033085 -7.14835e-05 0
-6.82253e-05 0 0
3.25822e-06 0 0
-2.16959e-05 0 0
0.000801409 2.49541e-05 0
-9.21883e-06 0 0
0.000389856 1.2477e-05 0
0.000402333 1.2477e-05 0
0.000953773 3.83047e-05 0
-0.00021341 -7.37012e-05 0
0.000841767 -0.000102608 0
0.000370182 -1.76982e-05 0
0.000314179 -8.81548e-05 0
0.00089777 -3.21518e-05 0
0.000943313 3.83047e-05 0
0.00082403 -0.000102608 0
0.00272225 0.000157588 0
0.000883671 -3.21518e-05 0
0.00177314 2.74896e-05 0
0.00183278 9.79462e-05 0
0.000953773 5.92256e-05 0
0.000930687 2.23439e-05 0
-0.00021341 8.23116e-05 0
0.00094223 4.07847e-05 0
0.000358639 5.23277e-05 0
0.000370182 7.07686e-05 0
0.000943313 5.92256e-05 0
0.00272225 0.000210784 0
0.00109487 2.23439e-05 0
0.00183278 0.000135005 0
0.00190856 0.000116564 0
0.00101909 4.07847e-05 0
0.00356257 0.000955914 0
0.00593472 0.00230367 0
0.00491033 0.00230354 0
0.00474864 0.00162979 0
0.00542252 0.00230361 0
0.00423645 0.00162973 0
0.00356257 0.000967056 0
0.00266175 0.000145636 0
0.00593472 0.00186787 0
0.00311216 0.000556346 0
0.00429823 0.00100675 0
0.00474864 0.00141747 0
0.003557 0.000955914 0
0.00499298 0.00230354 0
0.00113969 -0.000480063 0
0.00427499 0.00162973 0
0.00306633 0.000911741 0
0.00234834 0.000237926 0
0.003557 0.000967056 0
0.00113969 6.71604e-05 0
0.0026571 0.000145636 0
0.00234834 0.000517108 0
0.00189839 0.000106398 0
0.00310705 0.000556346 0
0.00739273 0.00456065 0
0.00540008 0.00279329 0
0.00562537 0.00199433 0
0.0063964 0.00367697 0
0.00551273 0.00239381 0
0.00650905 0.00327749 0
0.00740658 0.00456065 0
0.00598181 0.00199433 0
0.00889438 0.00598542 0
0.0066942 0.00327749 0
0.00743809 0.00398988 0
0.00815048 0.00527304 0
0.00739273 0.00453293 0
0.00955262 0.00888484 0
0.00540008 0.00237304 0
0.00847267 0.00670889 0
0.00747635 0.00562894 0
0.0063964 0.00345299 0
0.00740658 0.00453293 0
0.00889438 0.00612851 0
0.00900216 0.00888484 0
0.00815048 0.00533072 0
0.00894827 0.00750668 0
0.00820437 0.00670889 0
1.97758e-05 0 0
-0.000131098 0 0
0.000802157 0.000150874 0
-5.56613e-05 0 0
0.000335529 7.54371e-05 0
0.000410966 7.54371e-05 0
1.97758e-05 0 0
0.000802157 -0.000375233 0
-0.000355457 0 0
0.000410966 -0.000187617 0
0.00022335 -0.000187617 0
-0.000167841 0 0
0.00208348 0.000807516 0
0.00088553 -0.000225906 0
0.00529105 0.00200547 0
0.00148451 0.000290805 0
0.00308829 0.000889781 0
0.00368727 0.00140649 0
0.00211859 0.000807516 0
-0.000715047 -0.000359589 0
0.000951484 -0.000225906 0
0.000701771 0.000223964 0
0.000118219 -0.000292748 0
0.00153504 0.000290805 0
0.00208348 0.000877733 0
0.00529105 0.00293803 0
0.00414377 0.00175405 0
0.00368727 0.00190788 0
0.00471741 0.00234604 0
0.00311363 0.00131589 0
0.00211859 0.000877733 0
0.0035863 0.00175405 0
-0.000715047 -0.000589977 0
0.00285244 0.00131589 0
0.00143563 0.000582037 0
0.000701771 0.000143878 0
-6.28734e-05 0 0
0.0040982 0.00146347 0
0.00140059 0 0
0.00201766 0.000731734 0
0.0027494 0.000731734 0
0.000668861 0 0
-6.28734e-05 0 0
-0.00130502 0 0
0.0040982 0.00124215 0
-0.000683949 0 0
0.00139659 0.000621075 0
0.00201766 0.000621075 0
0.01 0.0156689 0
0.01 0.00859941 0
0.00293051 0.000295779 0
0.01 0.0121341 0
0.00646526 0.00444759 0
0.00646526 0.00798234 0
0.01 0.0156689 0
0.00853185 0.000295779 0
0.01 0.017137 0
0.00926592 0.00798234 0
0.00926592 0.00871641 0
0.01 0.016403 0
0.00792571 0.00673124 0
0.00577272 0.00338299 0
0.00457747 0.00222444 0
0.00684922 0.00505712 0
0.00517509 0.00280372 0
0.00625159 0.00447784 0
0.00792571 0.00666449 0
0.0115353 0.0156017 0
0.00577272 0.00305491 0
0.0097305 0.0111331 0
0.00865401 0.00932833 0
0.00684922 0.0048597 0
0.00795909 0.00673124 0
0.00554868 0.00222444 0
0.00929581 0.00914165 0
0.00675388 0.00447784 0
0.00742225 0.00568304 0
0.00862745 0.00793645 0
0.00795909 0.00666449 0
0.00929581 0.00880225 0
0.0100968 0.0156017 0
0.00862745 0.00773337 0
0.00969633 0.012202 0
0.00902796 0.0111331 0
0.01 0.0160754 0
0.00993277 0.00893599 0
0.01 0.0161426 0
0.00996638 0.0125057 0
0.00996638 0.0125393 0
0.01 0.016109 0
0.01 0.0160754 0
0.01 0.0155049 0
0.00942956 0.00893599 0
0.01 0.0157901 0
0.00971478 0.0122204 0
0.00971478 0.0125057 0
0.00980196 0.0102265 0
0.0104083 0.0157343 0
0.00924863 0.00962013 0
0.0101051 0.0129804 0
0.00982847 0.0126772 0
0.0095253 0.0099233 0
0.00980196 0.0102123 0
0.00924863 0.00913131 0
0.00872098 0.00595511 0
0.0095253 0.0096718 0
0.00898481 0.00754321 0
0.00926147 0.00808371 0
0.00979487 0.0102265 0
0.0101948 0.0105314 0
0.0100998 0.0157343 0
0.00999481 0.0103789 0
0.0101473 0.0131328 0
0.00994734 0.0129804 0
0.00979487 0.0102123 0
0.00912876 0.00595511 0
0.0101948 0.0108784 0
0.00946182 0.00808371 0
0.00966176 0.00841676 0
0.00999481 0.0105454 0
0.01 0.0153436 0
0.01 0.0156345 0
0.0102909 0.0106276 0
0.01 0.015489 0
0.0101454 0.013131 0
0.0101454 0.0129856 0
0.01 0.0153436 0
0.0104816 0.0106276 0
0.01 0.014862 0
0.0102408 0.0129856 0
0.0102408 0.0127448 0
0.01 0.0151028 0
0.0104982 0.0106473 0
0.0101855 0.0106343 0
0.0104852 0.0072762 0
0.0103418 0.0106408 0
0.0103353 0.00895525 0
0.0104917 0.00896175 0
0.0104982 0.0106516 0
0.0102262 0.0146358 0
0.0101855 0.0109236 0
0.0103622 0.0126437 0
0.0102058 0.0127797 0
0.0103418 0.0107876 0
0.010496 0.0106473 0
0.0106756 0.0072762 0
0.0107301 0.0104677 0
0.0105858 0.00896175 0
0.0107028 0.00887197 0
0.0106131 0.0105575 0
0.010496 0.0106516 0
0.0107301 0.0102213 0
0.0100658 0.0146358 0
0.0106131 0.0104365 0
0.0103979 0.0124286 0
0.0102809 0.0126437 0
0.01 0.0137738 0
0.0109189 0.0102876 0
0.01 0.0128548 0
0.0104595 0.0120307 0
0.0104595 0.0115712 0
0.01 0.0133143 0
0.01 0.0137738 0
0.01 0.01457 0
0.0107963 0.0102876 0
0.01 0.0141719 0
0.0103981 0.0124288 0
0.0103981 0.0120307 0
0.0109412 0.00969949 0
0.010163 0.0126918 0
0.0107288 0.0104777 0
0.0105521 0.0111956 0
0.0104459 0.0115847 0
0.010835 0.0100886 0
0.0109412 0.00969795 0
0.0107288 0.0102586 0
0.0115018 0.00709433 0
0.010835 0.00997826 0
0.0111153 0.00867645 0
0.0112215 0.00839614 0
0.0109405 0.00969949 0
0.0111015 0.00881638 0
0.0100573 0.0126918 0
0.011021 0.00925794 0
0.0105794 0.0107541 0
0.0104989 0.0111956 0
0.0109405 0.00969795 0
0.0116184 0.00709433 0
0.0111015 0.00902003 0
0.0112794 0.00839614 0
0.0113599 0.00805718 0
0.011021 0.00935899 0
0.01 0.0114707 0
0.01 0.0126345 0
0.0111637 0.00887867 0
0.01 0.0120526 0
0.0105819 0.0107566 0
0.0105819 0.0101747 0
0.01 0.0114707 0
0.0112512 0.00887867 0
0.01 0.0102195 0
0.0106256 0.0101747 0
0.0106256 0.0095491 0
0.01 0.0108451 0
0.0112528 0.00790725 0
0.0111023 0.00883476 0
0.0121803 0.00598955 0
0.0111775 0.008371 0
0.0116413 0.00741215 0
0.0117166 0.0069484 0
0.0112528 0.00790786 0
0.0101331 0.0100864 0
0.0111023 0.00902757 0
0.010693 0.00899714 0
0.0106177 0.009557 0
0.0111775 0.00846771 0
0.0112525 0.00790725 0
0.012257 0.00598955 0
0.0113615 0.00690271 0
0.0117548 0.0069484 0
0.0118093 0.00644613 0
0.011307 0.00740498 0
0.0112525 0.00790786 0
0.0113615 0.00671602 0
0.0100607 0.0100864 0
0.011307 0.00731194 0
0.0107111 0.00840122 0
0.0106566 0.00899714 0
0.01 0.00859644 0
0.0114893 0.00678381 0
0.01 0.00710716 0
0.0107446 0.00769013 0
0.0107446 0.00694549 0
0.01 0.0078518 0
0.01 0.00859644 0
0.01 0.0100258 0
0.0114293 0.00678381 0
0.01 0.0093111 0
0.0107147 0.00840479 0
0.0107147 0.00769013 0
0.0114647 0.00556047 0
0.0101147 0.00699244 0
0.0113627 0.00691042 0
0.0107897 0.00627645 0
0.0107387 0.00695143 0
0.0114137 0.00623544 0
0.0114647 0.00556022 0
0.0113627 0.00672789 0
0.0126323 0.00429262 0
0.0114137 0.00614405 0
0.0119975 0.00551025 0
0.0120485 0.00492642 0
0.0114645 0.00556047 0
0.0115289 0.00416451 0
0.0100686 0.00699244 0
0.0114967 0.00486249 0
0.0107988 0.00557847 0
0.0107666 0.00627645 0
0.0114645 0.00556022 0
0.0126802 0.00429262 0
0.0115289 0.00434458 0
0.0120724 0.00492642 0
0.0121046 0.0043186 0
0.0114967 0.0049524 0
0.01 0.00531815 0
0.01 0.00692386 0
0.0116057 0.00424129 0
0.01 0.006121 0
0.0108029 0.00558257 0
0.0108029 0.00477972 0
0.01 0.00531815 0
0.011641 0.00424129 0
0.01 0.00367719 0
0.0108205 0.00477972 0
0.0108205 0.00395924 0
0.01 0.00449767 0
0.0115886 0.00286469 0
0.0115298 0.00417386 0
0.0128978 0.00223319 0
0.0115592 0.00351927 0
0.0122138 0.00320352 0
0.0122432 0.00254894 0
0.0115886 0.00286478 0
0.0101009 0.00357626 0
0.0115298 0.00435245 0
0.0108448 0.00322052 0
0.0108154 0.00396436 0
0.0115592 0.00360862 0
0.0115886 0.00286469 0
0.0129209 0.00223319 0
0.0116114 0.00153232 0
0.0122548 0.00254894 0
0.0122661 0.00188275 0
0.0116 0.00219851 0
0.0115886 0.00286478 0
0.0116114 0.00135458 0
0.0100784 0.00357626 0
0.0116 0.00210968 0
0.0108449 0.00246542 0
0.0108335 0.00322052 0
0.01 0.00179933 0
0.0117102 0.00144179 0
0.01 8.91357e-05 0
0.0108551 0.00162056 0
0.0108551 0.000765462 0
0.01 0.000944235 0
0.01 0.00179933 0
0.01 0.00349789 0
0.0116986 0.00144179 0
0.01 0.00264861 0
0.0108493 0.00246984 0
0.0108493 0.00162056 0
0.0116295 0 0
0.0100891 0 0
0.0116117 0.00154033 0
0.0108593 0 0
0.0108504 0.000770165 0
0.0116206 0.000770165 0
0.0116295 0 0
0.0116117 0.00136295 0
0.0129924 0 0
0.0116206 0.000681475 0
0.012302 0.000681475 0
0.0123109 0 0
0.0116295 0 0
0.0116117 -0.00154033 0
0.0100891 0 0
0.0116206 -0.000770165 0
0.0108504 -0.000770165 0
0.0108593 0 0
0.0116295 0 0
0.0129924 0 0
0.0116117 -0.00136295 0
0.0123109 0 0
0.012302 -0.000681475 0
0.0116206 -0.000681475 0
0.01 -0.00179933 0
0.01 -8.91357e-05 0
0.0117102 -0.00144179 0
0.01 -0.000944235 0
0.0108551 -0.000765462 0
0.0108551 -0.00162056 0
0.01 -0.00179933 0
0.0116986 -0.00144179 0
0.01 -0.00349789 0
0.0108493 -0.00162056 0
0.0108493 -0.00246984 0
0.01 -0.00264861 0
0.0115886 -0.00286469 0
0.0116114 -0.00153232 0
0.0129209 -0.00223319 0
0.0116 -0.00219851 0
0.0122661 -0.00188275 0
0.0122548 -0.00254894 0
0.0115886 -0.00286478 0
0.0100784 -0.00357626 0
0.0116114 -0.00135458 0
0.0108335 -0.00322052 0
0.0108449 -0.00246542 0
0.0116 -0.00210968 0
0.0115886 -0.00286469 0
0.0128978 -0.00223319 0
0.0115298 -0.00417386 0
0.0122432 -0.00254894 0
0.0122138 -0.00320352 0
0.0115592 -0.00351927 0
0.0115886 -0.00286478 0
0.0115298 -0.00435245 0
0.0101009 -0.00357626 0
0.0115592 -0.00360862 0
0.0108154 -0.00396436 0
0.0108448 -0.00322052 0
0.01 -0.00531815 0
0.0116057 -0.00424129 0
0.01 -0.00692386 0
0.0108029 -0.00477972 0
0.0108029 -0.00558257 0
0.01 -0.006121 0
0.01 -0.00531815 0
0.01 -0.00367719 0
0.011641 -0.00424129 0
0.01 -0.00449767 0
0.0108205 -0.00395924 0
0.0108205 -0.00477972 0
0.0114645 -0.00556047 0
0.0100686 -0.00699244 0
0.0115289 -0.00416451 0
0.0107666 -0.00627645 0
0.0107988 -0.00557847 0
0.0114967 -0.00486249 0
0.0114645 -0.00556022 0
0.0115289 -0.00434458 0
0.0126802 -0.00429262 0
0.0114967 -0.0049524 0
0.0121046 -0.0043186 0
0.0120724 -0.00492642 0
0.0114647 -0.00556047 0
0.0113627 -0.00691042 0
0.0101147 -0.00699244 0
0.0114137 -0.00623544 0
0.0107387 -0.00695143 0
0.0107897 -0.00627645 0
0.0114647 -0.00556022 0
0.0126323 -0.00429262 0
0.0113627 -0.00672789 0
0.0120485 -0.00492642 0
0.0119975 -0.00551025 0
0.0114137 -0.00614405 0
0.01 -0.00859644 0
0.01 -0.00710716 0
0.0114893 -0.00678381 0
0.01 -0.0078518 0
0.0107446 -0.00694549 0
0.0107446 -0.00769013 0
0.01 -0.00859644 0
0.0114293 -0.00678381 0
0.01 -0.0100258 0
0.0107147 -0.00769013 0
0.0107147 -0.00840479 0
0.01 -0.0093111 0
0.0112525 -0.00790725 0
0.0113615 -0.00690271 0
0.012257 -0.00598955 0
0.011307 -0.00740498 0
0.0118093 -0.00644613 0
0.0117548 -0.0069484 0
0.0112525 -0.00790786 0
0.0100607 -0.0100864 0
0.0113615 -0.00671602 0
0.0106566 -0.00899714 0
0.0107111 -0.00840122 0
0.011307 -0.00731194 0
0.0112528 -0.00790725 0
0.0121803 -0.00598955 0
0.0111023 -0.00883476 0
0.0117166 -0.0069484 0
0.0116413 -0.00741215 0
0.0111775 -0.008371 0
0.0112528 -0.00790786 0
0.0111023 -0.00902757 0
0.0101331 -0.0100864 0
0.0111775 -0.00846771 0
0.0106177 -0.009557 0
0.010693 -0.00899714 0
0.01 -0.0114707 0
0.0111637 -0.00887867 0
0.01 -0.0126345 0
0.0105819 -0.0101747 0
0.0105819 -0.0107566 0
0.01 -0.0120526 0
0.01 -0.0114707 0
0.01 -0.0102195 0
0.0112512 -0.00887867 0
0.01 -0.0108451 0
0.0106256 -0.0095491 0
0.0106256 -0.0101747 0
0.0109405 -0.00969949 0
0.0100573 -0.0126918 0
0.0111015 -0.00881638 0
0.0104989 -0.0111956 0
0.0105794 -0.0107541 0
0.011021 -0.00925794 0
0.0109405 -0.00969795 0
0.0111015 -0.00902003 0
0.0116184 -0.00709433 0
0.011021 -0.00935899 0
0.0113599 -0.00805718 0
0.0112794 -0.00839614 0
0.0109412 -0.00969949 0
0.0107288 -0.0104777 0
0.010163 -0.0126918 0
0.010835 -0.0100886 0
0.0104459 -0.0115847 0
0.0105521 -0.0111956 0
0.0109412 -0.00969795 0
0.0115018 -0.00709433 0
0.0107288 -0.0102586 0
0.0112215 -0.00839614 0
0.0111153 -0.00867645 0
0.010835 -0.00997826 0
0.01 -0.0137738 0
0.01 -0.0128548 0
0.0109189 -0.0102876 0
0.01 -0.0133143 0
0.0104595 -0.0115712 0
0.0104595 -0.0120307 0
0.01 -0.0137738 0
0.0107963 -0.0102876 0
0.01 -0.01457 0
0.0103981 -0.0120307 0
0.0103981 -0.0124288 0
0.01 -0.0141719 0
0.010496 -0.0106473 0
0.0107301 -0.0104677 0
0.0106756 -0.0072762 0
0.0106131 -0.0105575 0
0.0107028 -0.00887197 0
0.0105858 -0.00896175 0
0.010496 -0.0106516 0
0.0100658 -0.0146358 0
0.0107301 -0.0102213 0
0.0102809 -0.0126437 0
0.0103979 -0.0124286 0
0.0106131 -0.0104365 0
0.0104982 -0.0106473 0
0.0104852 -0.0072762 0
0.0101855 -0.0106343 0
0.0104917 -0.00896175 0
0.0103353 -0.00895525 0
0.0103418 -0.0106408 0
0.0104982 -0.0106516 0
0.0101855 -0.0109236 0
0.0102262 -0.0146358 0
0.0103418 -0.0107876 0
0.0102058 -0.0127797 0
0.0103622 -0.0126437 0
0.01 -0.0153436 0
0.0102909 -0.0106276 0
0.01 -0.0156345 0
0.0101454 -0.0129856 0
0.0101454 -0.013131 0
0.01 -0.015489 0
0.01 -0.0153436 0
0.01 -0.014862 0
0.0104816 -0.0106276 0
0.01 -0.0151028 0
0.0102408 -0.0127448 0
0.0102408 -0.0129856 0
0.00979487 -0.0102265 0
0.0100998 -0.0157343 0
0.0101948 -0.0105314 0
0.00994734 -0.0129804 0
0.0101473 -0.0131328 0
0.00999481 -0.0103789 0
0.00979487 -0.0102123 0
0.0101948 -0.0108784 0
0.00912876 -0.00595511 0
0.00999481 -0.0105454 0
0.00966176 -0.00841676 0
0.00946182 -0.00808371 0
0.00980196 -0.0102265 0
0.00924863 -0.00962013 0
0.0104083 -0.0157343 0
0.0095253 -0.0099233 0
0.00982847 -0.0126772 0
0.0101051 -0.0129804 0
0.00980196 -0.0102123 0
0.00872098 -0.00595511 0
0.00924863 -0.00913131 0
0.00926147 -0.00808371 0
0.00898481 -0.00754321 0
0.0095253 -0.0096718 0
0.01 -0.0160754 0
0.01 -0.0161426 0
0.00993277 -0.00893599 0
0.01 -0.016109 0
0.00996638 -0.0125393 0
0.00996638 -0.0125057 0
0.01 -0.0160754 0
0.00942956 -0.00893599 0
0.01 -0.0155049 0
0.00971478 -0.0125057 0
0.00971478 -0.0122204 0
0.01 -0.0157901 0
0.00795909 -0.00673124 0
0.00929581 -0.00914165 0
0.00554868 -0.00222444 0
0.00862745 -0.00793645 0
0.00742225 -0.00568304 0
0.00675388 -0.00447784 0
0.00795909 -0.00666449 0
0.0100968 -0.0156017 0
0.00929581 -0.00880225 0
0.00902796 -0.0111331 0
0.00969633 -0.012202 0
0.00862745 -0.00773337 0
0.00792571 -0.00673124 0
0.00457747 -0.00222444 0
0.00577272 -0.00338299 0
0.00625159 -0.00447784 0
0.00517509 -0.00280372 0
0.00684922 -0.00505712 0
0.00792571 -0.00666449 0
0.00577272 -0.00305491 0
0.0115353 -0.0156017 0
0.00684922 -0.0048597 0
0.00865401 -0.00932833 0
0.0097305 -0.0111331 0
-6.28734e-05 0 0
0.00140059 0 0
0.0040982 -0.00146347 0
0.000668861 0 0
0.0027494 -0.000731734 0
0.00201766 -0.000731734 0
-6.28734e-05 0 0
0.0040982 -0.00124215 0
-0.00130502 0 0
0.00201766 -0.000621075 0
0.00139659 -0.000621075 0
-0.000683949 0 0
0.01 -0.0156689 0
0.00293051 -0.000295779 0
0.01 -0.00859941 0
0.00646526 -0.00798234 0
0.00646526 -0.00444759 0
0.01 -0.0121341 0
0.01 -0.0156689 0
0.01 -0.017137 0
0.00853185 -0.000295779 0
0.01 -0.016403 0
0.00926592 -0.00871641 0
0.00926592 -0.00798234 0

VECTORS disp float
-8.50943e-05 -8.97897e-05  0
6.47676e-05 0.000172198  0
0.00022854 0.00115942  0
-1.01634e-05 4.12041e-05  0
0.000146654 0.000665807  0
7.17228e-05 0.000534813  0
-3.03638e-05 8.34714e-06  0
0.000172978 0.000990404  0
-3.33551e-05 -7.43995e-05  0
7.13071e-05 0.000499376  0
6.98114e-05 0.000458002  0
-3.18595e-05 -3.30262e-05  0
9.62304e-05 0.000712785  0
0.000257333 0.00104296  0
0.000420925 0.00147344  0
0.000176782 0.000877874  0
0.000339129 0.0012582  0
0.000258578 0.00109311  0
0.000107411 0.000728957  0
-6.62655e-05 -6.66291e-05  0
0.000204557 0.000979534  0
2.05725e-05 0.000331164  0
6.91459e-05 0.000456453  0
0.000155984 0.000854246  0
0.00011403 0.00072934  0
0.000384506 0.00143312  0
3.99255e-05 0.000509734  0
0.000249268 0.00108123  0
0.000212216 0.000971428  0
7.69777e-05 0.000619537  0
9.92117e-05 0.000708765  0
6.54677e-05 0.000555925  0
-2.82479e-05 3.34994e-06  0
8.23397e-05 0.000632345  0
1.86099e-05 0.000279638  0
3.54819e-05 0.000356057  0
0.000806118 0.00164125  0
0.000132119 0.00106145  0
0.000226868 0.000401091  0
0.000469118 0.00135135  0
0.000179493 0.000731272  0
0.000516493 0.00102117  0
0.000790726 0.00158842  0
0.00125593 0.00233569  0
0.000192719 0.00107661  0
0.00102333 0.00196205  0
0.000724325 0.00170615  0
0.000491722 0.00133251  0
0.00070129 0.00185104  0
0.000406019 0.0014458  0
0.000275578 0.00108064  0
0.000553655 0.00164842  0
0.000340799 0.00126322  0
0.000488434 0.00146584  0
0.000709773 0.00185306  0
0.000244837 0.00109367  0
0.00121343 0.00231468  0
0.000477305 0.00147337  0
0.000729135 0.00170418  0
0.000961603 0.00208387  0
0.000711225 0.00185253  0
0.00113055 0.00249861  0
0.000382333 0.00144343  0
0.000920887 0.00217557  0
0.000756441 0.00197102  0
0.000546779 0.00164798  0
0.000709178 0.00185986  0
0.00122073 0.00229621  0
0.00113808 0.00249575  0
0.000964954 0.00207803  0
0.00117941 0.00239598  0
0.000923631 0.0021778  0
-6.36625e-06 -1.63106e-06  0
4.6268e-05 0.000503551  0
-8.27992e-06 -2.58625e-05  0
1.99509e-05 0.00025096  0
1.89941e-05 0.000238844  0
-7.32309e-06 -1.37468e-05  0
-8.79745e-06 -1.61509e-05  0
-5.87573e-06 1.36937e-05  0
4.92115e-05 0.000544675  0
-7.33659e-06 -1.22859e-06  0
2.16679e-05 0.000279184  0
2.0207e-05 0.000264262  0
4.22825e-05 0.000424662  0
-1.96333e-05 -3.54112e-05  0
5.81334e-05 0.000513543  0
1.13246e-05 0.000194626  0
1.92501e-05 0.000239066  0
5.02079e-05 0.000469103  0
3.86054e-05 0.000415262  0
6.99352e-05 0.000547501  0
0.00018106 0.00094014  0
5.42703e-05 0.000481382  0
0.000125498 0.000743821  0
0.000109833 0.000677701  0
4.09019e-05 0.000415379  0
3.1992e-05 0.000349051  0
-1.17338e-05 -5.44738e-06  0
3.6447e-05 0.000382215  0
1.01291e-05 0.000171802  0
1.45841e-05 0.000204966  0
4.40563e-05 0.000425068  0
0.000168797 0.000912906  0
2.32694e-05 0.000324959  0
0.000106427 0.000668987  0
9.60333e-05 0.000618933  0
3.36628e-05 0.000375014  0
0.000267211 0.00115079  0
3.56569e-05 0.000521146  0
0.000388617 0.00141929  0
0.000151434 0.000835967  0
0.000212137 0.00097022  0
0.000327914 0.00128504  0
0.000260233 0.00114201  0
0.000187129 0.000938952  0
6.18521e-05 0.000550064  0
0.000223681 0.00104048  0
0.00012449 0.000744508  0
0.000161043 0.000846037  0
0.000259897 0.00114457  0
0.0004176 0.00144435  0
0.000554165 0.00175533  0
0.000338748 0.00129446  0
0.000485883 0.00159984  0
0.000407031 0.00144995  0
0.000269217 0.00115167  0
0.000532003 0.00173655  0
0.000167168 0.000916873  0
0.00040061 0.00144411  0
0.000349586 0.00132671  0
0.000218193 0.00103427  0
0.000395267 0.00146859  0
0.000551643 0.00174064  0
0.000661962 0.00201125  0
0.000473455 0.00160461  0
0.000606802 0.00187594  0
0.000528615 0.00173992  0
0.000400557 0.0014721  0
0.000166912 0.000924212  0
0.00053229 0.00172795  0
0.000283734 0.00119816  0
0.000349601 0.00132608  0
0.000466423 0.00160003  0
0.000401378 0.00147237  0
0.000646002 0.00200089  0
0.000285502 0.00124576  0
0.00052369 0.00173663  0
0.000465752 0.00162333  0
0.00034344 0.00135906  0
0.000395152 0.00146739  0
0.000300704 0.00125824  0
0.000185384 0.000939339  0
0.000347928 0.00136281  0
0.000243044 0.00109879  0
0.000290268 0.00120336  0
0.000862097 0.0023019  0
0.000657585 0.00200399  0
0.000556191 0.00174938  0
0.000759841 0.00215294  0
0.000606888 0.00187669  0
0.000709144 0.00202564  0
0.000867404 0.00230308  0
0.000539085 0.00174722  0
0.00113468 0.00264247  0
0.000703244 0.00202515  0
0.000836885 0.00219485  0
0.00100104 0.00247278  0
0.000867654 0.00230319  0
0.00118019 0.00283492  0
0.000643336 0.00200081  0
0.00102392 0.00256905  0
0.000911762 0.00241786  0
0.000755495 0.002152  0
0.000863281 0.00230344  0
0.00114944 0.00264173  0
0.00119252 0.00283561  0
0.00100636 0.00247258  0
0.00117098 0.00273867  0
0.0010279 0.00256952  0
0.000777036 0.00208328  0
0.000547563 0.00174208  0
0.000424798 0.00146091  0
0.000662299 0.00191268  0
0.000486181 0.0016015  0
0.000600917 0.0017721  0
0.00078464 0.00208482  0
0.00114359 0.00265292  0
0.000529318 0.00173773  0
0.000964116 0.00236887  0
0.000836455 0.00219532  0
0.000656979 0.00191127  0
0.000784307 0.00208498  0
0.000401347 0.00146008  0
0.00111449 0.00247993  0
0.000592827 0.00177253  0
0.000757917 0.00197  0
0.000949397 0.00228245  0
0.000780014 0.00208643  0
0.00113182 0.00247482  0
0.00115711 0.00265246  0
0.000955915 0.00228062  0
0.00114446 0.00256364  0
0.000968564 0.00236944  0
0.000135222 0.000776576  0
0.000286661 0.00124363  0
9.27614e-05 0.000643663  0
0.000210942 0.0010101  0
0.000189711 0.000943646  0
0.000113992 0.000710119  0
0.000130309 0.000770456  0
0.000188206 0.000935895  0
0.000298624 0.00126052  0
0.000159257 0.000853176  0
0.000243415 0.00109821  0
0.000214466 0.00101549  0
0.000131381 0.000770171  0
0.000102615 0.000659881  0
2.74016e-05 0.000342715  0
0.000116998 0.000715026  0
6.50084e-05 0.000501298  0
7.93912e-05 0.000556443  0
0.000134064 0.000776376  0
1.6867e-05 0.000322654  0
0.000175242 0.000914942  0
7.54657e-05 0.000549515  0
9.60547e-05 0.000618798  0
0.000154653 0.000845659  0
0.000507707 0.00175964  0
0.000286604 0.00125015  0
0.00064493 0.00199584  0
0.000397156 0.0015049  0
0.000465767 0.001623  0
0.000576318 0.00187774  0
0.000503452 0.00175685  0
0.00039658 0.00155667  0
0.000300751 0.00125902  0
0.000450016 0.00165676  0
0.000348665 0.00140784  0
0.000402101 0.00150793  0
0.000503542 0.00175758  0
0.00065937 0.00200328  0
0.000744147 0.002272  0
0.000581456 0.00188043  0
0.000701759 0.00213764  0
0.000623845 0.00201479  0
0.000508165 0.00175982  0
0.000731675 0.00226574  0
0.000384383 0.00154913  0
0.00061992 0.00201278  0
0.000558029 0.00190744  0
0.000446274 0.00165447  0
0.000228532 0.0010888  0
8.95868e-05 0.000643212  0
0.00028981 0.00124372  0
0.00015906 0.000866004  0
0.000189699 0.000943463  0
0.000259171 0.00116626  0
0.000225118 0.00108508  0
0.000301445 0.00125664  0
0.000396263 0.00155831  0
0.000263282 0.00117086  0
0.000348854 0.00140747  0
0.000310691 0.00132169  0
0.000225582 0.00108477  0
0.000178582 0.000957016  0
9.98871e-05 0.0006562  0
0.000202082 0.00102089  0
0.000139234 0.000806608  0
0.000162734 0.000870485  0
0.000229176 0.00108893  0
0.000385676 0.00154767  0
0.000169179 0.000946285  0
0.000307426 0.0013183  0
0.000277428 0.00124698  0
0.000199178 0.00101761  0
-3.81184e-06 -9.78122e-06  0
-2.76478e-06 4.85228e-06  0
2.42638e-05 0.000339044  0
-3.28831e-06 -2.46447e-06  0
1.07495e-05 0.000171948  0
1.0226e-05 0.000164631  0
-3.05753e-06 -2.99423e-06  0
2.25823e-05 0.000318932  0
-4.10065e-06 -1.49341e-05  0
9.76237e-06 0.000157969  0
9.24081e-06 0.000151999  0
-3.57909e-06 -8.96415e-06  0
2.08138e-05 0.000277722  0
3.31072e-05 0.000347227  0
9.77091e-05 0.000655147  0
2.69605e-05 0.000312474  0
6.54081e-05 0.000501187  0
5.92615e-05 0.000466435  0
2.24804e-05 0.00028302  0
-9.7429e-06 -2.44604e-05  0
2.85008e-05 0.000328801  0
6.36873e-06 0.00012928  0
9.37893e-06 0.00015217  0
2.54906e-05 0.00030591  0
2.3228e-05 0.000283263  0
9.22597e-05 0.000639268  0
1.3902e-05 0.000227673  0
5.77439e-05 0.000461265  0
5.30808e-05 0.00043347  0
1.8565e-05 0.000255468  0
2.19823e-05 0.0002779  0
1.80339e-05 0.000241504  0
-6.47061e-06 -8.3868e-06  0
2.00081e-05 0.000259702  0
5.78166e-06 0.000116558  0
7.75583e-06 0.000134757  0
0.00163332 0.00288101  0
0.00200948 0.00340155  0
0.00113794 0.00249216  0
0.0018214 0.00314128  0
0.00157371 0.00294685  0
0.00138563 0.00268659  0
0.00163871 0.00288872  0
0.00112077 0.00248711  0
0.00124493 0.00230436  0
0.00137974 0.00268792  0
0.00118285 0.00239573  0
0.00144182 0.00259654  0
0.00153461 0.00302222  0
0.00114947 0.00249314  0
0.00199856 0.00339982  0
0.00134204 0.00275768  0
0.00157402 0.00294648  0
0.00176659 0.00321102  0
0.00153418 0.00302382  0
0.00114408 0.00264417  0
0.00114741 0.00248388  0
0.00133913 0.002834  0
0.00114575 0.00256402  0
0.00134079 0.00275385  0
0.00153558 0.00302373  0
0.00199512 0.00339251  0
0.00190262 0.00352389  0
0.00176535 0.00320812  0
0.00194887 0.0034582  0
0.0017191 0.00327381  0
0.00153466 0.00302068  0
0.00190225 0.00352866  0
0.00114207 0.00265013  0
0.00171845 0.00327467  0
0.00152216 0.00308939  0
0.00133836 0.0028354  0
0.00150925 0.00316758  0
0.00184518 0.00367255  0
0.00117683 0.00283325  0
0.00167721 0.00342007  0
0.001511 0.0032529  0
0.00134304 0.00300042  0
0.00150676 0.00316918  0
0.00118386 0.0028297  0
0.00115915 0.00264833  0
0.00134531 0.00299944  0
0.0011715 0.00273902  0
0.00133296 0.00290876  0
0.00150783 0.0031697  0
0.00189731 0.00351854  0
0.00185061 0.00366857  0
0.00170257 0.00334412  0
0.00187396 0.00359355  0
0.00167922 0.00341914  0
0.00150926 0.00316811  0
0.00115267 0.00265391  0
0.00189258 0.00352449  0
0.00133097 0.00291101  0
0.00152262 0.0030892  0
0.00170092 0.0033463  0
0.0009371 0.00253191  0
0.000649584 0.00200655  0
0.00117428 0.00282866  0
0.000793342 0.00226923  0
0.000911931 0.0024176  0
0.00105569 0.00268029  0
0.000933483 0.00253197  0
0.00118658 0.0028288  0
0.00122274 0.003051  0
0.00106003 0.00268038  0
0.00120466 0.0029399  0
0.00107811 0.00279148  0
0.000932906 0.00253114  0
0.000740658 0.00226776  0
0.000662925 0.00200835  0
0.000836782 0.00239945  0
0.000701792 0.00213806  0
0.000797916 0.00226974  0
0.000937273 0.00253199  0
0.00121199 0.00305037  0
0.000729022 0.00226565  0
0.00107463 0.00279118  0
0.000970506 0.00265801  0
0.000833147 0.00239882  0
0.00150434 0.00334693  0
0.00118499 0.00283664  0
0.0018375 0.00366891  0
0.00134466 0.00309179  0
0.00151125 0.00325277  0
0.00167092 0.00350792  0
0.0015015 0.00334767  0
0.00121642 0.00304707  0
0.00119337 0.00283323  0
0.00135896 0.00319737  0
0.0012049 0.00294015  0
0.00134744 0.00309045  0
0.00150212 0.00334815  0
0.00184469 0.00366486  0
0.00181201 0.00385394  0
0.0016734 0.0035065  0
0.00182835 0.0037594  0
0.00165706 0.00360104  0
0.00150437 0.00334677  0
0.001805 0.00385689  0
0.00120835 0.0030494  0
0.00165469 0.00360183  0
0.00150668 0.00345314  0
0.00135636 0.00319808  0
0.0023582 0.00387843  0
0.00189607 0.00352258  0
0.00200309 0.00339349  0
0.00212714 0.0037005  0
0.00194958 0.00345803  0
0.00218065 0.00363596  0
0.00235698 0.00387585  0
0.00270321 0.00434826  0
0.00189989 0.00352563  0
0.0025301 0.00411205  0
0.00230155 0.00393695  0
0.00212844 0.00370074  0
0.00225037 0.0040067  0
0.00184316 0.00366645  0
0.00190561 0.00352059  0
0.00204676 0.00383657  0
0.00187438 0.00359352  0
0.00207799 0.00376365  0
0.00225094 0.0040054  0
0.00190555 0.00352566  0
0.00269758 0.00434794  0
0.00207824 0.00376553  0
0.00230156 0.0039368  0
0.00247426 0.00417667  0
0.0022509 0.00400468  0
0.00258309 0.00448686  0
0.00184136 0.0036708  0
0.002417 0.00424577  0
0.00221223 0.00407883  0
0.00204613 0.00383774  0
0.00225077 0.00400634  0
0.00269792 0.00434358  0
0.00258501 0.00448302  0
0.00247434 0.00417496  0
0.00264146 0.0044133  0
0.00241789 0.00424468  0
-1.74059e-06 -3.35271e-06  0
1.28212e-05 0.000220965  0
-2.29929e-06 -1.01754e-05  0
5.54031e-06 0.000108806  0
5.26096e-06 0.000105395  0
-2.01994e-06 -6.76404e-06  0
-2.09213e-06 -7.16003e-06  0
-1.60657e-06 1.03221e-06  0
1.37e-05 0.000232348  0
-1.84935e-06 -3.06391e-06  0
6.0467e-06 0.00011669  0
5.80392e-06 0.000112594  0
1.31874e-05 0.00020344  0
-5.57229e-06 -1.89948e-05  0
1.62431e-05 0.000230016  0
3.80757e-06 9.22228e-05  0
5.33539e-06 0.000105511  0
1.47152e-05 0.000216728  0
1.22584e-05 0.000200262  0
1.861e-05 0.000240918  0
5.76674e-05 0.000489471  0
1.54342e-05 0.00022059  0
3.81387e-05 0.000365195  0
3.49629e-05 0.000344866  0
1.29271e-05 0.000200396  0
1.07278e-05 0.000178835  0
-3.83416e-06 -9.51665e-06  0
1.18275e-05 0.000189616  0
3.44682e-06 8.46594e-05  0
4.54647e-06 9.54397e-05  0
1.3567e-05 0.000203595  0
5.46872e-05 0.000479829  0
8.38924e-06 0.000170474  0
3.41271e-05 0.000341712  0
3.15382e-05 0.000325151  0
1.09781e-05 0.000187034  0
7.70768e-05 0.000564902  0
9.66134e-06 0.000222176  0
9.656e-05 0.000644807  0
4.33691e-05 0.000393539  0
5.31107e-05 0.000433491  0
8.68184e-05 0.000604854  0
7.57198e-05 0.000560944  0
6.08769e-05 0.000495678  0
1.49958e-05 0.000234711  0
6.82984e-05 0.000528311  0
3.79364e-05 0.000365194  0
4.53578e-05 0.000397828  0
7.50095e-05 0.000560928  0
0.000103137 0.000658401  0
0.000175837 0.000954459  0
8.90733e-05 0.000609665  0
0.000139487 0.00080643  0
0.000125423 0.000757694  0
7.76764e-05 0.000564997  0
0.000169191 0.000942925  0
5.53742e-05 0.000485085  0
0.000123434 0.000753961  0
0.000112283 0.000714005  0
6.65253e-05 0.000525041  0
0.00013603 0.000847618  0
0.000178883 0.000956016  0
0.000245237 0.00125761  0
0.000157457 0.000901817  0
0.00021206 0.00110681  0
0.000190633 0.00105261  0
0.000138197 0.000850415  0
5.27074e-05 0.000481487  0
0.000171869 0.000946441  0
9.54521e-05 0.000665951  0
0.000112288 0.000713964  0
0.000155033 0.000898428  0
0.00013862 0.000850492  0
0.000238446 0.00124952  0
0.000103352 0.000760269  0
0.000188533 0.00105001  0
0.000170899 0.0010049  0
0.000120986 0.00080538  0
0.000136462 0.000847549  0
0.000109319 0.000767955  0
5.88306e-05 0.000490614  0
0.00012289 0.000807752  0
8.40747e-05 0.000629285  0
9.76461e-05 0.000669082  0
0.000308052 0.00138992  0
0.000246549 0.00125937  0
0.00017724 0.000954574  0
0.000277301 0.00132465  0
0.000211895 0.00110697  0
0.000242646 0.00117225  0
0.000310834 0.00139256  0
0.000167894 0.00094608  0
0.000386937 0.00154759  0
0.000239364 0.00116932  0
0.000277415 0.00124683  0
0.000348885 0.00147007  0
0.000311241 0.00139267  0
0.000462245 0.00185502  0
0.00023799 0.00125228  0
0.000386743 0.00162384  0
0.000350117 0.00155365  0
0.000274615 0.00132247  0
0.000307808 0.00139019  0
0.000397028 0.00155583  0
0.000471481 0.00186188  0
0.000352418 0.00147301  0
0.000434254 0.00170885  0
0.000389645 0.00162603  0
4.55892e-05 0.000435418  0
3.67171e-05 0.00039574  0
8.83414e-06 0.000171953  0
4.11531e-05 0.000415579  0
2.27756e-05 0.000283847  0
2.72117e-05 0.000303685  0
4.63879e-05 0.000437922  0
5.6953e-06 0.000164095  0
5.74276e-05 0.000486294  0
2.60416e-05 0.000301008  0
3.15615e-05 0.000325194  0
5.19078e-05 0.000462108  0
4.67363e-05 0.000437987  0
0.000103133 0.000755947  0
3.33001e-05 0.000388987  0
7.49347e-05 0.000596967  0
6.82166e-05 0.000572467  0
4.00182e-05 0.000413487  0
4.51203e-05 0.000435362  0
6.12577e-05 0.000494989  0
0.000107206 0.000763473  0
5.3189e-05 0.000465175  0
8.42318e-05 0.000629231  0
7.61631e-05 0.000599418  0
-1.23874e-06 -5.7429e-06  0
-9.64977e-07 -8.82932e-07  0
8.14773e-06 0.000170384  0
-1.10186e-06 -3.31291e-06  0
3.59138e-06 8.47507e-05  0
3.45449e-06 8.23207e-05  0
-1.03749e-06 -3.48041e-06  0
7.63676e-06 0.000163609  0
-1.36832e-06 -7.54563e-06  0
3.29963e-06 8.00645e-05  0
3.13422e-06 7.80319e-05  0
-1.20291e-06 -5.51302e-06  0
7.3026e-06 0.000154125  0
1.11039e-05 0.000178596  0
3.46868e-05 0.000389143  0
9.20324e-06 0.000166361  0
2.28953e-05 0.000283869  0
2.09947e-05 0.000271634  0
7.88231e-06 0.000156053  0
-3.33074e-06 -1.5755e-05  0
9.68928e-06 0.000171974  0
2.27579e-06 7.01491e-05  0
3.17927e-06 7.81093e-05  0
8.7858e-06 0.000164013  0
8.10764e-06 0.000156155  0
3.28406e-05 0.000383253  0
4.85928e-06 0.000136327  0
2.04741e-05 0.000269704  0
1.88499e-05 0.00025979  0
6.48346e-06 0.000146241  0
7.72309e-06 0.000154219  0
6.3363e-06 0.000141368  0
-2.27138e-06 -1.00577e-05  0
7.02969e-06 0.000147793  0
2.03246e-06 6.56552e-05  0
2.72586e-06 7.20805e-05  0
0.000193478 0.00115185  0
0.000101882 0.000757574  0
0.000239913 0.00125211  0
0.00014768 0.000954711  0
0.000170898 0.00100484  0
0.000216695 0.00120198  0
0.000191635 0.00114984  0
0.000152795 0.00106614  0
0.000108115 0.000764001  0
0.000172215 0.00110799  0
0.000130455 0.00091507  0
0.000149875 0.00095692  0
0.000191354 0.00114993  0
0.000246763 0.00125872  0
0.000299361 0.00157998  0
0.000219058 0.00120433  0
0.000273062 0.00141935  0
0.000245358 0.00136496  0
0.000193787 0.00115191  0
0.000292808 0.00157444  0
0.000146814 0.00106077  0
0.000243297 0.00136318  0
0.000219811 0.0013176  0
0.0001703 0.00110634  0
8.42259e-05 0.000701149  0
3.14366e-05 0.000384083  0
0.000105021 0.000760854  0
5.78313e-05 0.000542616  0
6.82288e-05 0.000572468  0
9.46235e-05 0.000731001  0
8.2772e-05 0.00069925  0
0.000109562 0.000767367  0
0.000151585 0.00106264  0
9.61672e-05 0.000733309  0
0.000130573 0.000915002  0
0.000117178 0.000880943  0
8.3109e-05 0.000699247  0
6.56624e-05 0.000650285  0
3.54043e-05 0.000390094  0
7.43857e-05 0.000674766  0
5.05333e-05 0.000520189  0
5.92566e-05 0.000544671  0
8.45138e-05 0.0007012  0
0.000147003 0.0010571  0
6.1625e-05 0.000645214  0
0.000115759 0.000879149  0
0.000104314 0.000851155  0
7.30694e-05 0.000673207  0
0.0005861 0.00204681  0
0.000741685 0.00226732  0
0.000801694 0.00255429  0
0.000663892 0.00215706  0
0.000771689 0.0024108  0
0.000693897 0.00230055  0
0.00058955 0.00204807  0
0.000385953 0.00155174  0
0.000730126 0.00226275  0
0.000487751 0.0017999  0
0.000558039 0.00190724  0
0.000659838 0.00215541  0
0.000589834 0.0020482  0
0.000791396 0.00255043  0
0.00046075 0.0018563  0
0.000690615 0.00229931  0
0.000626073 0.00220337  0
0.000525292 0.00195225  0
0.000586043 0.00204634  0
0.000470915 0.00186098  0
0.000397374 0.00155722  0
0.000528479 0.00195366  0
0.000434144 0.0017091  0
0.000491708 0.00180178  0
0.00098376 0.00278494  0
0.000798659 0.00255179  0
0.000744733 0.00227033  0
0.00089121 0.00266837  0
0.000771696 0.00241106  0
0.000864246 0.00252764  0
0.000987236 0.0027854  0
0.000733719 0.00226917  0
0.00120745 0.00304653  0
0.000860477 0.00252729  0
0.000970587 0.00265785  0
0.00109734 0.00291597  0
0.000987372 0.00278549  0
0.00122922 0.00330488  0
0.00078877 0.00255058  0
0.0011083 0.00304518  0
0.001009 0.00292773  0
0.000888071 0.00266803  0
0.000984062 0.00278546  0
0.00121792 0.00304668  0
0.00123863 0.00330518  0
0.00110099 0.00291607  0
0.00122827 0.00317593  0
0.00111135 0.00304532  0
0.00037533 0.00170824  0
0.000237774 0.00125192  0
0.000462444 0.00185517  0
0.000306552 0.00148008  0
0.000350109 0.00155355  0
0.000418887 0.00178171  0
0.000372635 0.00170673  0
0.000471261 0.00186049  0
0.000523595 0.00218756  0
0.000421948 0.00178361  0
0.000497428 0.00202402  0
0.000448115 0.00194714  0
0.000372784 0.00170652  0
0.000299753 0.00158147  0
0.000246145 0.00125749  0
0.000336269 0.001644  0
0.000272949 0.00141948  0
0.000309465 0.001482  0
0.000375609 0.00170833  0
0.000515441 0.00218315  0
0.00029201 0.00157684  0
0.000445525 0.00194574  0
0.000403725 0.00187999  0
0.000333809 0.00164258  0
0.000646634 0.0023561  0
0.000462532 0.00185775  0
0.000789628 0.00254874  0
0.000554583 0.00210693  0
0.00062608 0.00220325  0
0.000718131 0.00245242  0
0.000643647 0.00235504  0
0.000522553 0.00218725  0
0.000472157 0.00186115  0
0.0005831 0.00227115  0
0.000497355 0.0020242  0
0.000557902 0.00210809  0
0.000643671 0.00235537  0
0.000799321 0.00255153  0
0.000835064 0.00286867  0
0.000721496 0.00245345  0
0.000817193 0.0027101  0
0.000739367 0.00261202  0
0.000646835 0.0023562  0
0.000826236 0.00286636  0
0.000513793 0.0021844  0
0.000736536 0.00261128  0
0.000670015 0.00252538  0
0.000580314 0.0022703  0
0.000676706 0.00269465  0
0.000832792 0.0028671  0
0.000844474 0.00322175  0
0.000754749 0.00278088  0
0.000838633 0.00304443  0
0.00076059 0.0029582  0
0.000679325 0.00269503  0
0.000515664 0.0021851  0
0.000824378 0.0028655  0
0.000597495 0.00244006  0
0.000670021 0.0025253  0
0.000751851 0.00278026  0
0.000679478 0.00269512  0
0.000836687 0.00322051  0
0.000543004 0.00254406  0
0.000758082 0.00295781  0
0.000689845 0.00288229  0
0.000611241 0.00261959  0
0.000676707 0.00269441  0
0.000550762 0.00254567  0
0.000524047 0.0021871  0
0.000613734 0.00262004  0
0.000537404 0.00236639  0
0.000600377 0.00244076  0
0.00101978 0.00340033  0
0.000841913 0.00322103  0
0.000835328 0.00286808  0
0.000930846 0.00331068  0
0.00083862 0.00304455  0
0.000927553 0.0031342  0
0.00102241 0.00340035  0
0.00082702 0.00286802  0
0.00122479 0.00360109  0
0.000924714 0.00313419  0
0.0010259 0.00323455  0
0.0011236 0.00350072  0
0.00102251 0.00340043  0
0.00120682 0.00394597  0
0.000834194 0.00322106  0
0.00111466 0.0036732  0
0.00102051 0.00358352  0
0.00092835 0.00331075  0
0.00101986 0.00340059  0
0.00123288 0.0036007  0
0.00121435 0.00394553  0
0.00112637 0.00350064  0
0.00122362 0.00377311  0
0.00111711 0.00367306  0
0.00101294 0.00307268  0
0.000832303 0.00286725  0
0.00080207 0.0025533  0
0.00092262 0.00296997  0
0.000817186 0.00271028  0
0.000907503 0.00281299  0
0.00101603 0.00307297  0
0.00122809 0.0036025  0
0.000823662 0.00286674  0
0.00112206 0.00333774  0
0.00102588 0.00323462  0
0.000919848 0.00296986  0
0.00101592 0.0030729  0
0.000792635 0.00255274  0
0.00122545 0.00330252  0
0.000904278 0.00281282  0
0.00100904 0.00292763  0
0.00112068 0.00318771  0
0.0010131 0.00307303  0
0.00123456 0.00330242  0
0.00123644 0.00360241  0
0.00112383 0.00318773  0
0.0012355 0.00345242  0
0.00112477 0.00333772  0
0.000419436 0.00204939  0
0.000544733 0.00254283  0
0.000327217 0.00193081  0
0.000482085 0.00229611  0
0.000435975 0.00223682  0
0.000373327 0.0019901  0
0.000416795 0.00204839  0
0.000522854 0.00218695  0
0.000552061 0.00254557  0
0.000469824 0.00211767  0
0.000537457 0.00236626  0
0.000484428 0.00229698  0
0.000416902 0.00204821  0
0.00033429 0.00193373  0
0.00029999 0.00157985  0
0.000375596 0.00199097  0
0.00031714 0.00175679  0
0.000358446 0.00181403  0
0.00041923 0.00204931  0
0.000292428 0.00157628  0
0.000515016 0.00218357  0
0.000355829 0.00181279  0
0.000403722 0.00187992  0
0.000467123 0.00211644  0
0.000687595 0.00307189  0
0.000544889 0.00254428  0
0.000834815 0.00322018  0
0.000616242 0.00280809  0
0.000689852 0.00288223  0
0.000761205 0.00314604  0
0.000685246 0.00307158  0
0.000554755 0.00294278  0
0.000552387 0.00254532  0
0.00062 0.00300718  0
0.000553571 0.00274405  0
0.000618816 0.00280845  0
0.000685227 0.00307177  0
0.000842315 0.00322095  0
0.000829801 0.00361767  0
0.000763771 0.00314636  0
0.000836058 0.00341931  0
0.000757514 0.00334472  0
0.00068772 0.00307197  0
0.000822774 0.00361718  0
0.000547727 0.00294204  0
0.000755247 0.00334457  0
0.00068525 0.00327961  0
0.000617724 0.00300701  0
0.000440702 0.00242468  0
0.000328008 0.0019301  0
0.000543945 0.00254344  0
0.000384355 0.00217739  0
0.000435977 0.00223677  0
0.000492324 0.00248406  0
0.000438462 0.00242416  0
0.000551052 0.00254549  0
0.000556173 0.00294242  0
0.000494757 0.00248482  0
0.000553612 0.00274395  0
0.000497318 0.00268329  0
0.000438551 0.00242401  0
0.000347317 0.0023234  0
0.000334948 0.00193227  0
0.000392934 0.00237371  0
0.000341133 0.00212784  0
0.00038675 0.00217814  0
0.000440865 0.00242475  0
0.000549463 0.00294084  0
0.000340759 0.0023217  0
0.000495164 0.0026828  0
0.000445111 0.00263127  0
0.000390812 0.00237323  0
0.00023381 0.00147854  0
0.000299957 0.00158104  0
0.000334485 0.00193233  0
0.000266884 0.00152979  0
0.000317221 0.00175669  0
0.000284148 0.00170544  0
0.000235852 0.0014798  0
0.000146186 0.00105853  0
0.000293435 0.00157659  0
0.000191019 0.00126916  0
0.00021981 0.00131756  0
0.000264643 0.00152819  0
0.000236089 0.00147986  0
0.000328248 0.00192867  0
0.000178524 0.0013942  0
0.000282168 0.00170426  0
0.000253386 0.00166143  0
0.000207306 0.00143703  0
0.000234009 0.00147844  0
0.000184367 0.00139779  0
0.000152286 0.0010629  0
0.000209188 0.00143811  0
0.000168326 0.00123034  0
0.000193147 0.00127067  0
0.00148072 0.00383324  0
0.0012309 0.00330621  0
0.00175954 0.00408678  0
0.00135581 0.00356973  0
0.00149522 0.00369649  0
0.00162013 0.00396001  0
0.00147814 0.00383376  0
0.00123223 0.00360078  0
0.00123889 0.00330431  0
0.00135518 0.00371727  0
0.00123556 0.00345255  0
0.00135851 0.00356904  0
0.00147835 0.00383405  0
0.00176703 0.00408443  0
0.0017224 0.00436864  0
0.00162269 0.00395924  0
0.00174472 0.00422653  0
0.00160037 0.00410134  0
0.00148078 0.00383326  0
0.00171532 0.00437067  0
0.0012247 0.00360239  0
0.00159805 0.00410197  0
0.00147001 0.00398653  0
0.00135274 0.00371783  0
0.00149807 0.00356726  0
0.00176463 0.0040887  0
0.00122566 0.00330441  0
0.00163135 0.00382798  0
0.00149515 0.00369655  0
0.00136187 0.00343584  0
0.00149526 0.00356788  0
0.00123362 0.00330261  0
0.00122316 0.0030496  0
0.00136444 0.00343525  0
0.00122839 0.00317611  0
0.00135921 0.00330874  0
0.00149562 0.00356825  0
0.00180655 0.00385121  0
0.0017719 0.00408636  0
0.00165109 0.00370973  0
0.00178923 0.00396878  0
0.00163376 0.0038273  0
0.00149803 0.0035673  0
0.00121473 0.00305196  0
0.00179888 0.00385415  0
0.00135638 0.00330963  0
0.00150681 0.00345306  0
0.00164845 0.00371072  0
0.00144795 0.00414712  0
0.00165243 0.00470379  0
0.00120362 0.00394611  0
0.00155019 0.00442546  0
0.00142803 0.00432495  0
0.00132579 0.00404662  0
0.0014455 0.00414759  0
0.00121067 0.00394454  0
0.00123661 0.00360189  0
0.00132809 0.00404606  0
0.00122364 0.00377321  0
0.00134106 0.00387474  0
0.00144563 0.00414781  0
0.00171806 0.00436733  0
0.00165916 0.0047019  0
0.00158184 0.00425757  0
0.00168861 0.00453461  0
0.00155239 0.00442485  0
0.0014479 0.00414708  0
0.00122916 0.0036036  0
0.00171095 0.00436938  0
0.00133853 0.00387534  0
0.00147005 0.00398649  0
0.00157942 0.00425823  0
0.00100625 0.00377154  0
0.000837195 0.00322177  0
0.00120386 0.00394517  0
0.000921725 0.00349666  0
0.00102053 0.00358347  0
0.00110506 0.00385836  0
0.00100393 0.00377186  0
0.00121118 0.00394452  0
0.00117127 0.00433616  0
0.00110755 0.00385819  0
0.00119122 0.00414034  0
0.0010876 0.00405401  0
0.00100389 0.00377166  0
0.000827417 0.00361738  0
0.000844669 0.00322142  0
0.000915653 0.00369452  0
0.000836043 0.0034194  0
0.000924279 0.00349654  0
0.00100634 0.00377162  0
0.00116439 0.00433689  0
0.000820398 0.00361783  0
0.00108537 0.00405425  0
0.000992396 0.00397736  0
0.00091337 0.00369472  0
0.00139714 0.00451003  0
0.00120753 0.00394689  0
0.00164859 0.00470296  0
0.00130233 0.00422846  0
0.00142806 0.00432492  0
0.00152286 0.00460649  0
0.00139492 0.00451055  0
0.00116799 0.00433559  0
0.00121447 0.00394524  0
0.00128146 0.00442307  0
0.00119123 0.00414042  0
0.00130469 0.00422789  0
0.00139499 0.00451073  0
0.00165527 0.00470105  0
0.00157964 0.00508632  0
0.00152513 0.00460589  0
0.00161746 0.00489369  0
0.00148732 0.00479853  0
0.00139719 0.00451008  0
0.00157329 0.00508816  0
0.0011614 0.00433719  0
0.00148524 0.00479912  0
0.00136735 0.00471267  0
0.0012793 0.00442364  0
0.0020278 0.00461682  0
0.00171739 0.00436745  0
0.00177222 0.00408576  0
0.00187259 0.00449213  0
0.0017448 0.00422661  0
0.00190001 0.00435129  0
0.00202987 0.0046158  0
0.00227713 0.00515534  0
0.00171133 0.00437042  0
0.0021535 0.00488557  0
0.00199423 0.00476288  0
0.0018706 0.00449311  0
0.00202985 0.00461584  0
0.00176608 0.00408909  0
0.00237365 0.00488126  0
0.00189796 0.00435247  0
0.00206986 0.00448517  0
0.00220175 0.00474855  0
0.00202798 0.00461698  0
0.00237939 0.00487776  0
0.00228281 0.0051522  0
0.00220368 0.00474737  0
0.0023311 0.00501498  0
0.00215539 0.00488459  0
0.00194757 0.00492011  0
0.00165474 0.00470107  0
0.00172258 0.00436828  0
0.00180116 0.00481059  0
0.00168866 0.00453468  0
0.00183508 0.00464419  0
0.00194962 0.00491922  0
0.00171632 0.00437119  0
0.00227224 0.00515453  0
0.00183297 0.00464521  0
0.00199428 0.00476286  0
0.00211093 0.00503687  0
0.00194965 0.00491923  0
0.00216724 0.00548158  0
0.00164867 0.00470376  0
0.00205844 0.0052004  0
0.00190795 0.00509267  0
0.00179916 0.00481149  0
0.00194769 0.00492026  0
0.00227817 0.00515144  0
0.002173 0.00547871  0
0.00211293 0.00503585  0
0.00222558 0.00531508  0
0.00206035 0.00519949  0
0.00209972 0.0043655  0
0.00176614 0.00408473  0
0.00181261 0.00385298  0
0.00193293 0.00422511  0
0.00178938 0.00396885  0
0.00195617 0.00410924  0
0.00210164 0.0043644  0
0.00180708 0.00385691  0
0.00247243 0.00465981  0
0.00195436 0.00411066  0
0.00213975 0.00425836  0
0.00228703 0.0045121  0
0.00210165 0.00436426  0
0.00237911 0.00488229  0
0.00176047 0.00408813  0
0.00224038 0.00462327  0
0.00206979 0.00448521  0
0.00193106 0.00422619  0
0.00209999 0.00436564  0
0.0024775 0.00465579  0
0.00238434 0.00487877  0
0.00228874 0.00451071  0
0.00243092 0.00476728  0
0.00224217 0.00462221  0
0.0021701 0.00416408  0
0.00180533 0.0038519  0
0.00185188 0.003667  0
0.00198771 0.00400799  0
0.0018286 0.00375945  0
0.00201099 0.00391554  0
0.00217161 0.0041625  0
0.00247848 0.00466097  0
0.00180081 0.00385585  0
0.00232505 0.00441174  0
0.00213965 0.00425841  0
0.00198621 0.00400918  0
0.00217163 0.00416284  0
0.00184802 0.00367168  0
0.00257671 0.00448583  0
0.00200983 0.00391726  0
0.00221237 0.00407875  0
0.00237417 0.00432433  0
0.00217048 0.00416411  0
0.00258019 0.00448128  0
0.00248261 0.00465709  0
0.00237533 0.0043227  0
0.0025314 0.00456919  0
0.00232655 0.0044106  0
0.000117495 0.000998306  0
0.000179026 0.00139102  0
8.47968e-05 0.000942381  0
0.00014826 0.00119466  0
0.000131912 0.0011667  0
0.000101146 0.000970344  0
0.000115711 0.000996936  0
0.000153002 0.00106568  0
0.00018383 0.00139488  0
0.000134357 0.00103131  0
0.000168416 0.00123028  0
0.000149771 0.00119591  0
0.000115962 0.000996903  0
8.91781e-05 0.000945934  0
6.48994e-05 0.000645571  0
0.00010257 0.000971419  0
7.70387e-05 0.000795752  0
9.04309e-05 0.000821237  0
0.000117256 0.000998262  0
6.04946e-05 0.000641248  0
0.000148151 0.00106103  0
8.88753e-05 0.000819755  0
0.000104323 0.00085114  0
0.000132703 0.00102965  0
0.000138558 0.00133481  0
8.42447e-05 0.000939061  0
0.000179598 0.0013943  0
0.000111401 0.00113694  0
0.000131921 0.00116668  0
0.000159078 0.00136456  0
0.00013696 0.00133396  0
0.000184592 0.00139743  0
0.000198807 0.00176663  0
0.000160776 0.0013657  0
0.000191699 0.00158203  0
0.000167884 0.0015503  0
0.000137158 0.00133391  0
0.000100473 0.00128685  0
8.89091e-05 0.000941958  0
0.000118815 0.00131038  0
9.46913e-05 0.0011144  0
0.000113033 0.00113793  0
0.00013876 0.00133486  0
0.000193889 0.00176413  0
9.58652e-05 0.00128457  0
0.000166325 0.00154949  0
0.000144877 0.00152435  0
0.000117313 0.00130971  0
0.000260641 0.00184247  0
0.000178464 0.00139223  0
0.000328313 0.00193056  0
0.000219553 0.00161735  0
0.000253389 0.00166139  0
0.000294477 0.00188651  0
0.000258831 0.0018416  0
0.000198877 0.00176912  0
0.000184385 0.00139506  0
0.000228854 0.00180536  0
0.000191631 0.00158209  0
0.000221608 0.00161833  0
0.000258678 0.00184169  0
0.000334516 0.00193344  0
0.00034787 0.00232207  0
0.000296597 0.00188757  0
0.000341193 0.00212775  0
0.000303274 0.00208188  0
0.000260832 0.00184253  0
0.000341914 0.00231978  0
0.000193184 0.00176689  0
0.000301373 0.00208115  0
0.000267549 0.00204333  0
0.000227008 0.00180471  0
4.75036e-05 0.000609213  0
6.59161e-05 0.000649894  0
8.83274e-05 0.000941551  0
5.67098e-05 0.000629554  0
7.71217e-05 0.000795722  0
6.79155e-05 0.000775382  0
4.8553e-05 0.000610375  0
1.76124e-05 0.000326355  0
6.27137e-05 0.0006458  0
3.30827e-05 0.000468365  0
4.0163e-05 0.000486077  0
5.56333e-05 0.000628087  0
4.87699e-05 0.000610409  0
8.49953e-05 0.000938138  0
3.23956e-05 0.000578497  0
6.68826e-05 0.000774273  0
5.86954e-05 0.000758317  0
4.05828e-05 0.000594453  0
4.77655e-05 0.000609224  0
3.53557e-05 0.000581461  0
2.04282e-05 0.00032998  0
4.15606e-05 0.000595342  0
2.78919e-05 0.00045572  0
3.40969e-05 0.000469602  0
2.66744e-05 0.000359242  0
3.7027e-05 0.000395365  0
6.42433e-05 0.000644986  0
3.18507e-05 0.000377304  0
5.06352e-05 0.000520176  0
4.54589e-05 0.000502114  0
2.77544e-05 0.000360868  0
6.15106e-05 0.000640303  0
1.87821e-05 0.000331828  0
4.46325e-05 0.000500585  0
4.01463e-05 0.000486066  0
2.32682e-05 0.000346348  0
2.75219e-05 0.000360823  0
3.19819e-06 0.000129719  0
3.45411e-05 0.000389938  0
1.53601e-05 0.000245271  0
1.88696e-05 0.000259828  0
3.10315e-05 0.000375381  0
2.70005e-05 0.000359291  0
2.11014e-05 0.000335905  0
5.25647e-06 0.000134506  0
2.4051e-05 0.000347598  0
1.3179e-05 0.000235205  0
1.61285e-05 0.000246899  0
0.000436081 0.00283978  0
0.000336312 0.0027553  0
0.000348226 0.0023221  0
0.000386196 0.00279754  0
0.000342269 0.0025387  0
0.000392153 0.00258094  0
0.000438097 0.00284013  0
0.000341745 0.00232091  0
0.000548488 0.00294157  0
0.000389921 0.00258052  0
0.000445117 0.00263124  0
0.000493292 0.00289085  0
0.000438232 0.00284021  0
0.000528693 0.00338131  0
0.000330135 0.00275447  0
0.000483463 0.00311076  0
0.000429414 0.00306789  0
0.000384183 0.00279734  0
0.000436001 0.00283991  0
0.000555053 0.00294268  0
0.000534945 0.00338207  0
0.000495527 0.00289129  0
0.000544999 0.00316238  0
0.000485473 0.00311099  0
0.000262268 0.00224536  0
0.00034758 0.00232321  0
0.00033705 0.00275406  0
0.000304924 0.00228428  0
0.000342315 0.00253864  0
0.000299659 0.00249971  0
0.000264173 0.00224578  0
0.000193482 0.00176515  0
0.00034163 0.00232147  0
0.000228828 0.00200546  0
0.000267556 0.00204331  0
0.000302902 0.00228362  0
0.000264333 0.00224584  0
0.000331307 0.00275277  0
0.000186363 0.00218354  0
0.00029782 0.0024993  0
0.000258835 0.00246815  0
0.000225348 0.00221469  0
0.000262394 0.00224526  0
0.000191948 0.00218477  0
0.000199257 0.00176683  0
0.000227171 0.00221502  0
0.000195603 0.0019758  0
0.000230826 0.00200605  0
0.000668857 0.00349107  0
0.000827778 0.00361736  0
0.000790624 0.00405874  0
0.000748317 0.00355421  0
0.000809201 0.00383805  0
0.00072974 0.0037749  0
0.000671038 0.003491  0
0.000549564 0.00294197  0
0.000820953 0.00361718  0
0.000610301 0.00321649  0
0.000685258 0.00327958  0
0.000745995 0.00355409  0
0.000671144 0.00349108  0
0.000784168 0.00405878  0
0.000527028 0.00338244  0
0.000727656 0.00377493  0
0.000655598 0.00372061  0
0.000599086 0.00343676  0
0.000668887 0.00349091  0
0.000533514 0.00338257  0
0.000556418 0.00294233  0
0.000601201 0.00343674  0
0.000544966 0.00316245  0
0.000612653 0.00321662  0
0.000964841 0.00418885  0
0.000788423 0.00405873  0
0.000829947 0.00361752  0
0.000876632 0.00412379  0
0.000809185 0.00383812  0
0.000897394 0.00390319  0
0.000967002 0.00418862  0
0.00082311 0.00361818  0
0.00116171 0.00433649  0
0.000895056 0.0039034  0
0.000992411 0.00397733  0
0.00106436 0.00426256  0
0.00096708 0.0041887  0
0.00110006 0.00477588  0
0.000781952 0.00405947  0
0.00103357 0.00448229  0
0.000941004 0.00441768  0
0.000874516 0.00412409  0
0.00096485 0.00418901  0
0.00116841 0.00433562  0
0.0011064 0.00477494  0
0.00106663 0.00426232  0
0.00113741 0.00455528  0
0.00103562 0.00448197  0
0.000409684 0.00329918  0
0.000331179 0.00275368  0
0.000527666 0.00338206  0
0.000370432 0.00302643  0
0.000429423 0.00306787  0
0.000468675 0.00334062  0
0.000407693 0.00329915  0
0.000533831 0.00338254  0
0.000487138 0.00386659  0
0.000470762 0.00334084  0
0.000510484 0.00362456  0
0.000447415 0.00358287  0
0.000407767 0.00329904  0
0.000298785 0.00323222  0
0.000337327 0.00275419  0
0.000353276 0.00326563  0
0.000318056 0.0029932  0
0.000372547 0.00302661  0
0.000409798 0.00329925  0
0.000481228 0.00386637  0
0.000292884 0.00323197  0
0.000445513 0.00358281  0
0.000387056 0.00354917  0
0.000351341 0.00326561  0
0.000628924 0.00395473  0
0.000528757 0.00338221  0
0.000782457 0.00405897  0
0.00057884 0.00366847  0
0.000655607 0.00372059  0
0.00070569 0.00400685  0
0.000626924 0.00395478  0
0.000485785 0.00386712  0
0.000535129 0.00338211  0
0.000556355 0.00391095  0
0.000510457 0.00362462  0
0.000581027 0.00366845  0
0.000626886 0.00395491  0
0.000788769 0.00405876  0
0.000726296 0.00454588  0
0.000707827 0.00400684  0
0.000757532 0.00430232  0
0.000676591 0.0042504  0
0.000629014 0.00395481  0
0.000720286 0.00454626  0
0.000479713 0.0038674  0
0.00067465 0.00425053  0
0.000599999 0.00420683  0
0.000554363 0.0039111  0
0.000141021 0.0017151  0
9.35315e-05 0.00167673  0
0.000100589 0.00128351  0
0.000117276 0.00169591  0
9.70605e-05 0.00148012  0
0.000120805 0.0014993  0
0.000142501 0.00171564  0
9.57244e-05 0.00128176  0
0.000194056 0.00176691  0
0.000119113 0.0014987  0
0.00014489 0.00152433  0
0.000168279 0.00174128  0
0.000142676 0.00171569  0
0.000187153 0.00218117  0
8.87259e-05 0.00167547  0
0.000164914 0.00194843  0
0.000137939 0.00192832  0
0.000115701 0.00169558  0
0.000140858 0.00171516  0
0.000199145 0.00176886  0
0.000192166 0.00218264  0
0.000170002 0.00174201  0
0.000195655 0.00197575  0
0.000166512 0.0019489  0
6.19432e-05 0.000906474  0
8.94383e-05 0.000945578  0
0.000100077 0.00128316  0
7.56907e-05 0.000926026  0
9.47578e-05 0.00111437  0
8.10103e-05 0.00109482  0
6.33485e-05 0.000907267  0
9.62967e-05 0.00128091  0
3.81792e-05 0.000878196  0
7.98226e-05 0.00109409  0
6.7238e-05 0.00107955  0
5.07638e-05 0.000892732  0
6.31488e-05 0.000907236  0
3.16957e-05 0.000573891  0
8.57296e-05 0.000942743  0
4.74223e-05 0.000740564  0
5.87127e-05 0.000758317  0
7.44392e-05 0.00092499  0
6.21595e-05 0.00090646  0
4.16557e-05 0.000880078  0
3.50852e-05 0.000576355  0
5.19076e-05 0.000893269  0
3.83705e-05 0.000728217  0
4.86223e-05 0.000741408  0
6.30305e-05 0.00125422  0
0.000100776 0.00128655  0
9.34503e-05 0.00167363  0
8.19031e-05 0.00127038  0
9.7113e-05 0.00148009  0
7.82404e-05 0.00146392  0
6.43763e-05 0.00125463  0
3.78623e-05 0.00087431  0
9.66544e-05 0.00128479  0
5.11193e-05 0.00106447  0
6.72583e-05 0.00107955  0
8.05153e-05 0.00126971  0
6.45595e-05 0.00125466  0
8.92803e-05 0.00167237  0
2.8937e-05 0.00123347  0
7.69199e-05 0.00146352  0
5.91087e-05 0.00145292  0
4.67482e-05 0.00124407  0
6.3216e-05 0.00125418  0
3.28847e-05 0.0012344  0
4.17467e-05 0.000875738  0
4.80504e-05 0.00124429  0
3.73157e-05 0.00105507  0
5.24813e-05 0.00106496  0
0.000243125 0.00269362  0
0.000186845 0.00218202  0
0.000330848 0.00275426  0
0.000214985 0.00243782  0
0.000258846 0.00246814  0
0.000286987 0.00272394  0
0.000241365 0.00269336  0
0.000159503 0.00264766  0
0.000192532 0.00218288  0
0.000200434 0.00267051  0
0.000176017 0.00241527  0
0.000216948 0.00243812  0
0.000241255 0.00269345  0
0.000336618 0.00275519  0
0.000299565 0.00323111  0
0.000288936 0.00272432  0
0.000318091 0.00299315  0
0.00027041 0.00296228  0
0.00024326 0.00269369  0
0.000293967 0.00323051  0
0.000153975 0.00264713  0
0.000268614 0.0029621  0
0.000223971 0.00293882  0
0.000198618 0.00267041  0
0.000124033 0.00214431  0
8.88314e-05 0.00167311  0
0.000187081 0.00218352  0
0.000106432 0.00190871  0
0.000137956 0.00192831  0
0.000155557 0.00216392  0
0.00012234 0.00214411  0
0.00019227 0.0021846  0
0.000159846 0.00264587  0
0.000157305 0.00216435  0
0.000176058 0.00241523  0
0.000141093 0.00239499  0
0.00012248 0.00214404  0
6.2667e-05 0.00211821  0
9.38937e-05 0.001674  0
9.25736e-05 0.00213113  0
7.82803e-05 0.00189611  0
0.000108187 0.00190902  0
0.000124185 0.00214437  0
0.000154725 0.00264516  0
5.76572e-05 0.0021177  0
0.000139455 0.00239476  0
0.000106191 0.00238143  0
9.09214e-05 0.00213103  0
-6.04135e-07 -3.54885e-06  0
4.47198e-06 0.000129455  0
-8.1784e-07 -5.91162e-06  0
1.93392e-06 6.29532e-05  0
1.82707e-06 6.17718e-05  0
-7.10988e-07 -4.73023e-06  0
-7.33169e-07 -4.87771e-06  0
-5.57972e-07 -2.00342e-06  0
4.80097e-06 0.000133436  0
-6.45571e-07 -3.44056e-06  0
2.1215e-06 6.57162e-05  0
2.0339e-06 6.4279e-05  0
4.48035e-06 0.000128108  0
-1.94902e-06 -1.36813e-05  0
5.66731e-06 0.000137324  0
1.26567e-06 5.72131e-05  0
1.85915e-06 6.18214e-05  0
5.07383e-06 0.000132716  0
4.09004e-06 0.000127001  0
6.62233e-06 0.000141218  0
1.98891e-05 0.000329235  0
5.35618e-06 0.000134109  0
1.32557e-05 0.000235227  0
1.19896e-05 0.000228118  0
4.37322e-06 0.000127059  0
3.40175e-06 0.000119931  0
-1.23072e-06 -1.04278e-05  0
3.88749e-06 0.000123495  0
1.08552e-06 5.47514e-05  0
1.57125e-06 5.83158e-05  0
4.64121e-06 0.000128171  0
1.86213e-05 0.000325836  0
2.38286e-06 0.000117131  0
1.16313e-05 0.000227004  0
1.05021e-05 0.000221484  0
3.51204e-06 0.000122651  0
1.48178e-05 0.000316487  0
3.24982e-05 0.000573248  0
8.11784e-06 0.000301699  0
2.3658e-05 0.000444868  0
2.0308e-05 0.000437473  0
1.14678e-05 0.000309093  0
1.40161e-05 0.000315601  0
2.13934e-05 0.00033563  0
3.45275e-05 0.000575806  0
1.77048e-05 0.000325616  0
2.79604e-05 0.000455718  0
2.42718e-05 0.000445703  0
1.42566e-05 0.000315634  0
9.85592e-06 0.000303763  0
2.95971e-06 0.000113071  0
1.20563e-05 0.000309699  0
6.40781e-06 0.000208417  0
8.60816e-06 0.000214352  0
1.46351e-05 0.000316462  0
1.45462e-06 0.000110487  0
1.95906e-05 0.000332534  0
8.04484e-06 0.000213474  0
1.05226e-05 0.00022151  0
1.71128e-05 0.000324498  0
2.23512e-05 0.000561389  0
7.52444e-06 0.000295977  0
3.31376e-05 0.000578992  0
1.49378e-05 0.000428683  0
2.0331e-05 0.000437485  0
2.77444e-05 0.000570191  0
2.1516e-05 0.000560842  0
3.56555e-05 0.000581137  0
4.12016e-05 0.000875268  0
2.85857e-05 0.000570989  0
3.84285e-05 0.000728202  0
3.13588e-05 0.000718055  0
2.17289e-05 0.000560848  0
1.17075e-05 0.000549355  0
9.76328e-06 0.00029768  0
1.67182e-05 0.000555101  0
1.07354e-05 0.000423518  0
1.57461e-05 0.000429264  0
2.25389e-05 0.000561408  0
3.85124e-05 0.000873647  0
9.28874e-06 0.000548166  0
3.05256e-05 0.000717528  0
2.39005e-05 0.000710906  0
1.59138e-05 0.000554787  0
-3.98111e-07 -4.32436e-06  0
-2.70022e-07 -2.76415e-06  0
2.55857e-06 0.00011234  0
-3.34067e-07 -3.54425e-06  0
1.14427e-06 5.47881e-05  0
1.08023e-06 5.4008e-05  0
-3.06051e-07 -3.6249e-06  0
2.32234e-06 0.000110245  0
-4.56442e-07 -4.81847e-06  0
1.00814e-06 5.331e-05  0
9.32949e-07 5.27132e-05  0
-3.81247e-07 -4.22168e-06  0
1.76354e-06 0.000112778  0
3.66454e-06 0.000119755  0
9.25389e-06 0.000297102  0
2.71404e-06 0.000116266  0
6.45922e-06 0.000208429  0
5.50872e-06 0.00020494  0
2.04744e-06 0.000113283  0
-9.97689e-07 -1.23174e-05  0
2.92046e-06 0.000117797  0
5.24877e-07 5.0483e-05  0
9.61386e-07 5.27398e-05  0
2.48395e-06 0.00011554  0
2.19099e-06 0.000113314  0
8.27016e-06 0.000295544  0
4.06017e-07 0.000108798  0
5.23057e-06 0.000204429  0
4.33809e-06 0.000202171  0
1.2985e-06 0.000111056  0
1.96633e-06 0.000112806  0
1.18673e-06 0.000109899  0
-4.45813e-07 -1.08349e-05  0
1.57653e-06 0.000111353  0
3.70457e-07 4.95322e-05  0
7.60257e-07 5.09855e-05  0
0.0030365 0.00481197  0
0.00336192 0.00528478  0
0.00257924 0.00448563  0
0.00319921 0.00504837  0
0.00297058 0.0048852  0
0.00280787 0.0046488  0
0.0030361 0.00481346  0
0.00258042 0.00448278  0
0.00270287 0.00434365  0
0.00280826 0.00464812  0
0.00264165 0.00441322  0
0.00286949 0.00457855  0
0.00290265 0.00496651  0
0.00258372 0.00448553  0
0.00335739 0.00528475  0
0.00274318 0.00472602  0
0.00297056 0.00488514  0
0.00313002 0.00512563  0
0.00290164 0.00496768  0
0.0024771 0.00465658  0
0.00258599 0.00448172  0
0.00268937 0.00481213  0
0.00253155 0.00456915  0
0.00274381 0.0047247  0
0.00290177 0.00496747  0
0.00336 0.00528118  0
0.00321136 0.00545503  0
0.00313088 0.00512432  0
0.00328568 0.0053681  0
0.00305656 0.00521125  0
0.00290261 0.0049662  0
0.00320812 0.00545853  0
0.00247412 0.00466027  0
0.00305536 0.00521237  0
0.00284112 0.0050594  0
0.00268837 0.00481323  0
0.00277417 0.00516352  0
0.0032067 0.00545445  0
0.00306009 0.00567412  0
0.00299043 0.00530899  0
0.00313339 0.00556429  0
0.00291713 0.00541882  0
0.00277543 0.00516235  0
0.00247939 0.00466039  0
0.00320292 0.00545833  0
0.00262741 0.00491137  0
0.00284116 0.00505936  0
0.00298918 0.00531034  0
0.00277542 0.00516218  0
0.00305598 0.00567778  0
0.00237466 0.00488189  0
0.0029157 0.00541998  0
0.00271532 0.00527984  0
0.00257504 0.00502204  0
0.00277403 0.00516356  0
0.00237885 0.00487816  0
0.00248322 0.00465641  0
0.00257644 0.00502086  0
0.00243103 0.00476728  0
0.00262862 0.00490998  0
0.00367766 0.00576416  0
0.00320704 0.00545502  0
0.00336441 0.0052811  0
0.00344235 0.00560959  0
0.00328573 0.00536806  0
0.00352103 0.00552263  0
0.00367873 0.00576294  0
0.00398381 0.00625493  0
0.0032038 0.00545806  0
0.00383127 0.00600893  0
0.0035938 0.00585649  0
0.00344127 0.0056105  0
0.00350265 0.00596019  0
0.00305521 0.00567407  0
0.00321167 0.00545446  0
0.00327893 0.00581713  0
0.00313344 0.00556427  0
0.00335716 0.00570732  0
0.00350393 0.00595904  0
0.00320817 0.00545796  0
0.00397938 0.00625497  0
0.00335605 0.0057085  0
0.00359378 0.00585646  0
0.00374166 0.00610701  0
0.00350391 0.00595892  0
0.00378543 0.00647501  0
0.00305144 0.00567759  0
0.00364467 0.00621696  0
0.00341844 0.0060763  0
0.00327768 0.00581825  0
0.00350269 0.00596008  0
0.0039831 0.00625155  0
0.00378937 0.00647155  0
0.0037429 0.00610581  0
0.00388623 0.00636155  0
0.00364603 0.00621582  0
0.00264922 0.00540766  0
0.00237997 0.00488215  0
0.00305076 0.00567748  0
0.0025146 0.0051449  0
0.00271536 0.00527982  0
0.00284999 0.00554257  0
0.00264761 0.00540881  0
0.00227765 0.00515162  0
0.0023847 0.00487838  0
0.00246263 0.00528022  0
0.00233117 0.005015  0
0.00251615 0.0051436  0
0.00264772 0.00540886  0
0.00305531 0.00567372  0
0.00290715 0.00594442  0
0.00285151 0.00554129  0
0.00298123 0.00580907  0
0.00277743 0.00567664  0
0.00264923 0.00540758  0
0.00290248 0.00594796  0
0.00227279 0.00515516  0
0.00277586 0.00567777  0
0.00258763 0.00555156  0
0.00246101 0.00528137  0
0.00251891 0.00570555  0
0.0027441 0.0062712  0
0.00216309 0.00548154  0
0.0026315 0.00598837  0
0.00245359 0.00587637  0
0.002341 0.00559355  0
0.00251717 0.00570666  0
0.00216825 0.00547824  0
0.00228301 0.00515198  0
0.00234271 0.00559245  0
0.00222563 0.00531511  0
0.00240009 0.00542932  0
0.00251725 0.00570674  0
0.00290247 0.00594411  0
0.00274905 0.00626785  0
0.00270986 0.00582543  0
0.00282576 0.00610598  0
0.00263315 0.0059873  0
0.00251889 0.00570557  0
0.00227784 0.00515546  0
0.00289751 0.00594763  0
0.00239836 0.00543052  0
0.00258767 0.00555155  0
0.0027082 0.0058266  0
0.00238049 0.00605691  0
0.00216778 0.00548183  0
0.00273947 0.0062709  0
0.00227414 0.00576937  0
0.00245362 0.00587636  0
0.00255998 0.0061639  0
0.00237875 0.00605793  0
0.00204726 0.00585792  0
0.00217312 0.00547862  0
0.002213 0.00595792  0
0.00211019 0.00566827  0
0.00227594 0.00576827  0
0.0023788 0.00605802  0
0.00274459 0.00626762  0
0.00258287 0.0066447  0
0.0025617 0.00616282  0
0.00266373 0.00645616  0
0.00248083 0.00635136  0
0.00238052 0.00605692  0
0.00257782 0.00664784  0
0.00204201 0.00586101  0
0.00247917 0.00635238  0
0.00230991 0.00625442  0
0.00221126 0.00595896  0
0.00185697 0.00527498  0
0.00165313 0.00470434  0
0.00216284 0.00548097  0
0.00175505 0.00498966  0
0.00190799 0.00509265  0
0.00200991 0.00537798  0
0.00185506 0.00527595  0
0.00216872 0.00547819  0
0.0020516 0.00585829  0
0.00201189 0.00537707  0
0.00211016 0.00566824  0
0.00195333 0.00556712  0
0.00185499 0.00527581  0
0.0015757 0.00508578  0
0.00165927 0.0047017  0
0.00171535 0.0051808  0
0.00161749 0.00489374  0
0.00175713 0.00498876  0
0.00185701 0.00527502  0
0.00204593 0.00586094  0
0.00156978 0.00508828  0
0.00195147 0.00556798  0
0.00180785 0.00547461  0
0.00171339 0.00518165  0
0.00314624 0.00650118  0
0.00274427 0.0062677  0
0.00290733 0.00594429  0
0.00294525 0.00638444  0
0.0028258 0.00610599  0
0.00302679 0.00622273  0
0.00314775 0.00650002  0
0.00290283 0.0059479  0
0.00357864 0.00674549  0
0.00302529 0.00622396  0
0.00324073 0.0063467  0
0.00336319 0.00662275  0
0.00314777 0.00649999  0
0.00337722 0.0070684  0
0.00273971 0.00627122  0
0.00326249 0.00678419  0
0.00305846 0.00666981  0
0.00294374 0.00638561  0
0.00314628 0.00650121  0
0.00358304 0.00674189  0
0.00338167 0.00706489  0
0.00336466 0.00662155  0
0.00348236 0.00690339  0
0.00326398 0.00678305  0
0.00332605 0.00620473  0
0.0029022 0.0059443  0
0.00306035 0.00567384  0
0.00311412 0.00607452  0
0.00298128 0.00580907  0
0.0031932 0.00593928  0
0.00332746 0.00620348  0
0.00358347 0.0067455  0
0.00289796 0.0059479  0
0.00345547 0.00647449  0
0.00324071 0.0063467  0
0.00311271 0.00607569  0
0.00332746 0.00620355  0
0.00305627 0.00567752  0
0.00378062 0.00647505  0
0.00319187 0.00594053  0
0.00341845 0.00607628  0
0.00355404 0.0063393  0
0.0033261 0.00620471  0
0.00378471 0.00647142  0
0.00358769 0.00674195  0
0.0035554 0.00633807  0
0.0036862 0.00660668  0
0.0034569 0.00647333  0
0.00132495 0.00492317  0
0.00157614 0.00508582  0
0.00148223 0.00552146  0
0.00145055 0.00500449  0
0.00152919 0.00530364  0
0.00140359 0.00522231  0
0.00132698 0.00492248  0
0.00116487 0.00433767  0
0.00156987 0.00508765  0
0.00124593 0.00463008  0
0.00136737 0.00471266  0
0.00144842 0.00500507  0
0.00132703 0.00492255  0
0.00147626 0.00552326  0
0.00109729 0.00477628  0
0.00140165 0.0052229  0
0.00128678 0.00514977  0
0.00121216 0.00484941  0
0.00132492 0.00492301  0
0.00110346 0.00477466  0
0.00117135 0.00433603  0
0.00121419 0.00484884  0
0.00113741 0.00455534  0
0.00124813 0.00462952  0
0.00174751 0.00568352  0
0.00147869 0.00552112  0
0.00157971 0.00508625  0
0.0016131 0.00560232  0
0.0015292 0.00530369  0
0.00166361 0.00538488  0
0.00174941 0.00568274  0
0.00157379 0.00508869  0
0.00204197 0.00586052  0
0.0016616 0.00538571  0
0.00180788 0.0054746  0
0.00189569 0.00577163  0
0.00174945 0.00568279  0
0.00191091 0.00629258  0
0.001473 0.00552348  0
0.00183018 0.00598768  0
0.00169195 0.00590803  0
0.00161123 0.00560313  0
0.00174755 0.00568365  0
0.00204766 0.00585794  0
0.00191639 0.00629009  0
0.00189761 0.0057708  0
0.00198203 0.00607402  0
0.00183197 0.00598687  0
0.00123643 0.00538411  0
0.00110039 0.00477654  0
0.0014732 0.00552297  0
0.00116841 0.00508033  0
0.00128679 0.00514976  0
0.00135482 0.00545354  0
0.00123451 0.00538465  0
0.00101645 0.00526152  0
0.00110645 0.00477493  0
0.00112548 0.00532308  0
0.00106145 0.00501822  0
0.00117048 0.00507979  0
0.00123452 0.00538478  0
0.00147908 0.00552121  0
0.00136587 0.00600623  0
0.0013568 0.005453  0
0.00142247 0.00576372  0
0.0013002 0.00569551  0
0.00123649 0.00538419  0
0.00136026 0.00600799  0
0.00101066 0.00526313  0
0.00129837 0.00569609  0
0.00118546 0.00563556  0
0.00112357 0.00532366  0
0.000904108 0.00465251  0
0.000784395 0.00405959  0
0.00109764 0.00477573  0
0.000844252 0.00435605  0
0.000941016 0.00441766  0
0.00100087 0.00471412  0
0.0009021 0.00465294  0
0.00110384 0.00477473  0
0.00101907 0.00526161  0
0.00100297 0.00471383  0
0.00106145 0.00501817  0
0.000960583 0.00495728  0
0.00090211 0.0046528  0
0.000724305 0.00454601  0
0.000790728 0.00405874  0
0.000813208 0.00459941  0
0.000757516 0.00430237  0
0.000846419 0.00435577  0
0.000904177 0.00465259  0
0.00101317 0.00526268  0
0.000718281 0.00454695  0
0.000958674 0.00495764  0
0.000865726 0.00490481  0
0.000811229 0.00459977  0
0.00222954 0.00646233  0
0.00257866 0.00664454  0
0.00240633 0.00707425  0
0.0024041 0.00655343  0
0.0024925 0.00685939  0
0.00231794 0.00676829  0
0.00223123 0.00646128  0
0.00204634 0.00586126  0
0.00257353 0.00664759  0
0.00213879 0.00616127  0
0.00230994 0.00625442  0
0.00240238 0.00655443  0
0.00223126 0.00646131  0
0.00240133 0.00707721  0
0.00190724 0.00629272  0
0.0023163 0.00676926  0
0.00215428 0.00668497  0
0.00206925 0.00637702  0
0.00222951 0.00646224  0
0.00191242 0.00628983  0
0.00205167 0.00585827  0
0.00207097 0.00637603  0
0.00198204 0.00607405  0
0.00214059 0.00616026  0
0.00296082 0.00685073  0
0.00257833 0.00664453  0
0.00274918 0.00626782  0
0.00276958 0.00674763  0
0.00266376 0.00645618  0
0.002855 0.00655928  0
0.0029624 0.00684962  0
0.00316497 0.00744418  0
0.00257361 0.00664791  0
0.00306368 0.0071469  0
0.00286929 0.00704605  0
0.002768 0.00674877  0
0.00296237 0.00684961  0
0.00274444 0.00627129  0
0.00337253 0.00706832  0
0.0028534 0.00656045  0
0.00305848 0.00666981  0
0.00316745 0.00695897  0
0.00296084 0.00685078  0
0.00337714 0.00706486  0
0.00316956 0.00744079  0
0.00316899 0.00695782  0
0.00327335 0.00725282  0
0.0030652 0.00714579  0
0.00276747 0.00725328  0
0.00240209 0.00707409  0
0.00258294 0.00664473  0
0.00258478 0.00716369  0
0.00249251 0.00685941  0
0.0026752 0.00694901  0
0.00276904 0.00725221  0
0.00257811 0.00664802  0
0.00316052 0.00744407  0
0.00267357 0.00695012  0
0.00286931 0.00704605  0
0.00296478 0.00734814  0
0.00276907 0.00725224  0
0.00294498 0.00787241  0
0.00239733 0.00707732  0
0.00285702 0.00756232  0
0.00267116 0.00747487  0
0.0025832 0.00716478  0
0.00276749 0.00725335  0
0.0031652 0.00744076  0
0.00294959 0.00786916  0
0.00296635 0.00734705  0
0.0030574 0.00765496  0
0.00285854 0.00756125  0
0.00162535 0.00614147  0
0.00147661 0.00552375  0
0.00190733 0.0062923  0
0.00155098 0.00583261  0
0.00169197 0.00590803  0
0.00176634 0.00621689  0
0.00162356 0.00614233  0
0.00191278 0.00628991  0
0.00176594 0.00677274  0
0.00176817 0.00621612  0
0.00183936 0.00653132  0
0.00169475 0.00645754  0
0.00162355 0.00614222  0
0.0013627 0.00600605  0
0.00148226 0.00552148  0
0.00149312 0.00607413  0
0.00142248 0.00576376  0
0.0015529 0.00583185  0
0.00162538 0.00614154  0
0.00176071 0.00677508  0
0.00135728 0.00600828  0
0.00169305 0.00645831  0
0.00155899 0.00639168  0
0.00149133 0.00607491  0
0.00206918 0.00691758  0
0.00191122 0.00629292  0
0.00239738 0.00707701  0
0.0019902 0.00660525  0
0.0021543 0.00668497  0
0.00223328 0.0069973  0
0.00206752 0.00691848  0
0.00176232 0.00677257  0
0.00191641 0.00629014  0
0.00191492 0.00684552  0
0.00183937 0.00653135  0
0.00199197 0.00660431  0
0.00206753 0.00691858  0
0.00240239 0.00707416  0
0.0022179 0.00755519  0
0.00223496 0.00699637  0
0.00231015 0.00731467  0
0.00214272 0.00723688  0
0.00206921 0.00691763  0
0.00221305 0.00755798  0
0.0017573 0.00677528  0
0.00214113 0.0072378  0
0.00198518 0.00716663  0
0.00191326 0.00684646  0
0.00428116 0.00675782  0
0.00456463 0.00727652  0
0.00378085 0.00647489  0
0.00442289 0.00701717  0
0.00417274 0.00687571  0
0.00403101 0.00661636  0
0.0042798 0.00675899  0
0.00378493 0.0064716  0
0.00398755 0.00625146  0
0.00403237 0.0066153  0
0.00388624 0.00636153  0
0.00413368 0.00650523  0
0.00405828 0.00700321  0
0.00378538 0.00647481  0
0.00456007 0.00727658  0
0.00392183 0.00673901  0
0.00417272 0.0068757  0
0.00430917 0.0071399  0
0.0040569 0.00700438  0
0.00358298 0.00674202  0
0.00378944 0.00647134  0
0.00381994 0.0068732  0
0.00368621 0.00660668  0
0.00392317 0.00673786  0
0.0040569 0.00700434  0
0.00456423 0.00727311  0
0.00432056 0.00754439  0
0.00431056 0.00713873  0
0.00444239 0.00740875  0
0.00418873 0.00727436  0
0.00405828 0.00700318  0
0.00431635 0.00754789  0
0.00357885 0.00674553  0
0.00418731 0.00727554  0
0.0039476 0.00714671  0
0.00381856 0.00687436  0
0.0038309 0.00730018  0
0.00406311 0.00787144  0
0.00337267 0.00706847  0
0.00394701 0.00758581  0
0.00371789 0.00746996  0
0.00360179 0.00718432  0
0.00382948 0.00730137  0
0.00337695 0.00706492  0
0.0035878 0.00674187  0
0.00360321 0.00718314  0
0.00348238 0.00690339  0
0.00370864 0.00702162  0
0.00382948 0.00730137  0
0.00431587 0.00754443  0
0.00406736 0.00786792  0
0.00407268 0.0074229  0
0.00419162 0.00770617  0
0.00394842 0.00758465  0
0.00383089 0.0073002  0
0.00358356 0.00674544  0
0.00431165 0.00754797  0
0.00370723 0.00702282  0
0.0039476 0.00714671  0
0.00407127 0.00742408  0
0.00359859 0.00764971  0
0.00337737 0.00706843  0
0.00405844 0.00787148  0
0.00348798 0.00735907  0
0.0037179 0.00746996  0
0.00382852 0.0077606  0
0.00359715 0.00765087  0
0.00316497 0.00744076  0
0.00338177 0.0070649  0
0.00338106 0.00754582  0
0.00327337 0.00725283  0
0.00348946 0.00735788  0
0.00359715 0.0076509  0
0.00406277 0.00786797  0
0.00380901 0.00824383  0
0.00382996 0.00775943  0
0.00393589 0.0080559  0
0.00370308 0.00794736  0
0.00359861 0.00764972  0
0.00380468 0.0082473  0
0.00316057 0.00744426  0
0.00370165 0.00794851  0
0.00348262 0.00784578  0
0.00337959 0.00754699  0
0.00483868 0.0078091  0
0.00431593 0.00754444  0
0.00456884 0.00727306  0
0.00457731 0.00767677  0
0.00444239 0.00740875  0
0.00470376 0.00754108  0
0.00484012 0.00780793  0
0.00510066 0.00835568  0
0.00431162 0.00754793  0
0.00497039 0.00808181  0
0.00470614 0.0079518  0
0.00457587 0.00767793  0
0.00456453 0.0081068  0
0.00406268 0.00786799  0
0.00432055 0.00754436  0
0.00431361 0.00798739  0
0.00419162 0.00770617  0
0.00444254 0.00782558  0
0.00456594 0.00810562  0
0.00431631 0.00754789  0
0.00509596 0.00835572  0
0.00444112 0.00782675  0
0.00470613 0.00795181  0
0.00483095 0.00823067  0
0.00456594 0.00810562  0
0.0048005 0.00867974  0
0.00405845 0.00787153  0
0.00468322 0.00839268  0
0.00442948 0.00827563  0
0.0043122 0.00798858  0
0.00456452 0.0081068  0
0.00510021 0.00835219  0
0.00480472 0.00867619  0
0.00483237 0.0082295  0
0.00495246 0.00851419  0
0.00468462 0.0083915  0
-7.18484e-08 -3.75244e-06  0
6.632e-07 0.00010183  0
-1.90851e-07 -4.02972e-06  0
2.95676e-07 4.9039e-05  0
2.36175e-07 4.89004e-05  0
-1.3135e-07 -3.89108e-06  0
-1.47875e-07 -3.97065e-06  0
-3.61902e-08 -3.38938e-06  0
8.59424e-07 0.000102484  0
-9.20326e-08 -3.68002e-06  0
4.11617e-07 4.95474e-05  0
3.55775e-07 4.92568e-05  0
3.65755e-08 0.000108502  0
-2.50738e-07 -1.14212e-05  0
7.86238e-07 0.000109233  0
-1.07081e-07 4.85405e-05  0
2.6775e-07 4.89058e-05  0
4.11407e-07 0.000108868  0
-1.95007e-07 0.000108504  0
1.48055e-06 0.000109625  0
4.48755e-07 0.000286528  0
6.42773e-07 0.000109064  0
9.64654e-07 0.000198077  0
1.26874e-07 0.000197516  0
-3.65755e-08 0.000108502  0
-7.86238e-07 0.000109233  0
2.50738e-07 -1.14212e-05  0
-4.11407e-07 0.000108868  0
-2.6775e-07 4.89058e-05  0
1.07081e-07 4.85405e-05  0
1.95007e-07 0.000108504  0
-4.48755e-07 0.000286528  0
-1.48055e-06 0.000109625  0
-1.26874e-07 0.000197516  0
-9.64654e-07 0.000198077  0
-6.42773e-07 0.000109064  0
4.68123e-06 0.000296057  0
5.23769e-08 0.000102157  0
8.67506e-06 0.000302212  0
2.3668e-06 0.000199107  0
4.36372e-06 0.000202185  0
6.67814e-06 0.000299134  0
4.36481e-06 0.000295795  0
5.40138e-07 0.00029318  0
1.31821e-06 0.000102974  0
2.45248e-06 0.000294487  0
9.29176e-07 0.000198077  0
2.84151e-06 0.000199385  0
4.17302e-06 0.000295781  0
1.01791e-05 0.000303475  0
1.13857e-05 0.000543556  0
7.17608e-06 0.000299628  0
1.07824e-05 0.000423515  0
7.77936e-06 0.000419668  0
4.8536e-06 0.000296063  0
9.66396e-06 0.000542742  0
-9.47082e-07 0.000292807  0
7.25878e-06 0.000419403  0
4.35844e-06 0.000417775  0
1.95326e-06 0.000294435  0
-4.73933e-07 0.000545756  0
1.20932e-05 0.000549018  0
1.2452e-06 0.000853701  0
5.80964e-06 0.000547387  0
6.66921e-06 0.000701359  0
3.85633e-07 0.000699729  0
2.8591e-07 0.000545751  0
-1.0312e-06 0.000286995  0
9.8134e-06 0.000548568  0
-3.72644e-07 0.000416373  0
4.3911e-06 0.000417782  0
5.04966e-06 0.000547159  0
4.73933e-07 0.000545756  0
-1.2452e-06 0.000853701  0
-1.20932e-05 0.000549018  0
-3.85633e-07 0.000699729  0
-6.66921e-06 0.000701359  0
-5.80964e-06 0.000547387  0
-2.8591e-07 0.000545751  0
-9.8134e-06 0.000548568  0
1.0312e-06 0.000286995  0
-5.04966e-06 0.000547159  0
-4.3911e-06 0.000417782  0
3.72644e-07 0.000416373  0
1.9329e-05 0.000864524  0
1.30852e-06 0.000858665  0
1.19493e-05 0.00054407  0
1.03188e-05 0.000861595  0
6.62891e-06 0.000701368  0
1.56392e-05 0.000704297  0
2.0182e-05 0.000864776  0
9.01514e-06 0.000543272  0
3.88404e-05 0.000878551  0
1.45986e-05 0.000704024  0
2.39278e-05 0.000710912  0
2.95112e-05 0.000871664  0
2.03681e-05 0.000864796  0
2.94129e-05 0.00122962  0
-1.78433e-06 0.000858337  0
2.48905e-05 0.00104721  0
1.38143e-05 0.00104398  0
9.29188e-06 0.000861566  0
1.91361e-05 0.000864537  0
4.20033e-05 0.000879758  0
3.27234e-05 0.00123035  0
3.05697e-05 0.000872148  0
3.73634e-05 0.00105505  0
2.59298e-05 0.00104744  0
-4.68123e-06 0.000296057  0
-8.67506e-06 0.000302212  0
-5.23769e-08 0.000102157  0
-6.67814e-06 0.000299134  0
-4.36372e-06 0.000202185  0
-2.3668e-06 0.000199107  0
-4.36481e-06 0.000295795  0
-1.31821e-06 0.000102974  0
-5.40138e-07 0.00029318  0
-2.84151e-06 0.000199385  0
-9.29176e-07 0.000198077  0
-2.45248e-06 0.000294487  0
-4.17302e-06 0.000295781  0
-1.13857e-05 0.000543556  0
-1.01791e-05 0.000303475  0
-7.77936e-06 0.000419668  0
-1.07824e-05 0.000423515  0
-7.17608e-06 0.000299628  0
-4.8536e-06 0.000296063  0
9.47082e-07 0.000292807  0
-9.66396e-06 0.000542742  0
-1.95326e-06 0.000294435  0
-4.35844e-06 0.000417775  0
-7.25878e-06 0.000419403  0
7.18484e-08 -3.75244e-06  0
1.90851e-07 -4.02972e-06  0
-6.632e-07 0.00010183  0
1.3135e-07 -3.89108e-06  0
-2.36175e-07 4.89004e-05  0
-2.95676e-07 4.9039e-05  0
1.47875e-07 -3.97065e-06  0
-8.59424e-07 0.000102484  0
3.61902e-08 -3.38938e-06  0
-3.55775e-07 4.92568e-05  0
-4.11617e-07 4.95474e-05  0
9.20326e-08 -3.68002e-06  0
-2.19099e-06 0.000113314  0
-4.06017e-07 0.000108798  0
-8.27016e-06 0.000295544  0
-1.2985e-06 0.000111056  0
-4.33809e-06 0.000202171  0
-5.23057e-06 0.000204429  0
-1.96633e-06 0.000112806  0
4.45813e-07 -1.08349e-05  0
-1.18673e-06 0.000109899  0
-7.60257e-07 5.09855e-05  0
-3.70457e-07 4.95322e-05  0
-1.57653e-06 0.000111353  0
-1.76354e-06 0.000112778  0
-9.25389e-06 0.000297102  0
-3.66454e-06 0.000119755  0
-5.50872e-06 0.00020494  0
-6.45922e-06 0.000208429  0
-2.71404e-06 0.000116266  0
-2.04744e-06 0.000113283  0
-2.92046e-06 0.000117797  0
9.97689e-07 -1.23174e-05  0
-2.48395e-06 0.00011554  0
-9.61386e-07 5.27398e-05  0
-5.24877e-07 5.0483e-05  0
-1.9329e-05 0.000864524  0
-1.19493e-05 0.00054407  0
-1.30852e-06 0.000858665  0
-1.56392e-05 0.000704297  0
-6.62891e-06 0.000701368  0
-1.03188e-05 0.000861595  0
-2.0182e-05 0.000864776  0
-3.88404e-05 0.000878551  0
-9.01514e-06 0.000543272  0
-2.95112e-05 0.000871664  0
-2.39278e-05 0.000710912  0
-1.45986e-05 0.000704024  0
-2.03681e-05 0.000864796  0
1.78433e-06 0.000858337  0
-2.94129e-05 0.00122962  0
-9.29188e-06 0.000861566  0
-1.38143e-05 0.00104398  0
-2.48905e-05 0.00104721  0
-1.91361e-05 0.000864537  0
-3.27234e-05 0.00123035  0
-4.20033e-05 0.000879758  0
-2.59298e-05 0.00104744  0
-3.73634e-05 0.00105505  0
-3.05697e-05 0.000872148  0
-2.17289e-05 0.000560848  0
-9.76328e-06 0.00029768  0
-1.17075e-05 0.000549355  0
-1.57461e-05 0.000429264  0
-1.07354e-05 0.000423518  0
-1.67182e-05 0.000555101  0
-2.25389e-05 0.000561408  0
-9.28874e-06 0.000548166  0
-3.85124e-05 0.000873647  0
-1.59138e-05 0.000554787  0
-2.39005e-05 0.000710906  0
-3.05256e-05 0.000717528  0
-2.23512e-05 0.000561389  0
-3.31376e-05 0.000578992  0
-7.52444e-06 0.000295977  0
-2.77444e-05 0.000570191  0
-2.0331e-05 0.000437485  0
-1.49378e-05 0.000428683  0
-2.1516e-05 0.000560842  0
-4.12016e-05 0.000875268  0
-3.56555e-05 0.000581137  0
-3.13588e-05 0.000718055  0
-3.84285e-05 0.000728202  0
-2.85857e-05 0.000570989  0
5.42249e-07 0.00122886  0
-1.81885e-06 0.000854237  0
2.95127e-05 0.00123373  0
-6.38303e-07 0.00104155  0
1.38469e-05 0.00104398  0
1.50275e-05 0.0012313  0
-7.20868e-07 0.00122889  0
3.33026e-05 0.00123413  0
1.9645e-06 0.00164331  0
1.62909e-05 0.00123151  0
1.76336e-05 0.00143872  0
6.21818e-07 0.0014361  0
-5.42249e-07 0.00122886  0
-2.95127e-05 0.00123373  0
1.81885e-06 0.000854237  0
-1.50275e-05 0.0012313  0
-1.38469e-05 0.00104398  0
6.38303e-07 0.00104155  0
7.20868e-07 0.00122889  0
-1.9645e-06 0.00164331  0
-3.33026e-05 0.00123413  0
-6.21818e-07 0.0014361  0
-1.76336e-05 0.00143872  0
-1.62909e-05 0.00123151  0
4.56998e-05 0.00165542  0
2.88755e-05 0.00123024  0
8.93909e-05 0.00167561  0
3.72877e-05 0.00144283  0
5.91332e-05 0.00145292  0
6.75454e-05 0.00166552  0
4.4379e-05 0.00165524  0
1.95893e-06 0.00164664  0
3.32329e-05 0.00123083  0
2.3169e-05 0.00165094  0
1.75959e-05 0.00143873  0
3.88059e-05 0.00144303  0
4.42152e-05 0.00165529  0
9.38941e-05 0.0016765  0
6.27481e-05 0.00211566  0
6.90546e-05 0.00166589  0
7.83211e-05 0.00189608  0
5.34816e-05 0.00188547  0
4.5866e-05 0.00165547  0
5.82036e-05 0.00211516  0
-2.45404e-06 0.00164644  0
5.20348e-05 0.00188531  0
2.78748e-05 0.0018808  0
2.1706e-05 0.00165096  0
-8.8568e-07 0.00211145  0
6.30931e-05 0.00211807  0
2.45463e-06 0.00261042  0
3.11037e-05 0.00211476  0
3.27739e-05 0.00236424  0
7.84476e-07 0.00236094  0
7.38808e-07 0.0021114  0
-2.41245e-06 0.00164384  0
5.82191e-05 0.00211778  0
-8.36823e-07 0.00187762  0
2.79033e-05 0.00188081  0
2.94789e-05 0.00211459  0
8.8568e-07 0.00211145  0
-2.45463e-06 0.00261042  0
-6.30931e-05 0.00211807  0
-7.84476e-07 0.00236094  0
-3.27739e-05 0.00236424  0
-3.11037e-05 0.00211476  0
-7.38808e-07 0.0021114  0
-5.82191e-05 0.00211778  0
2.41245e-06 0.00164384  0
-2.94789e-05 0.00211459  0
-2.79033e-05 0.00188081  0
8.36823e-07 0.00187762  0
7.67244e-05 0.00262278  0
2.37025e-06 0.00261244  0
6.31157e-05 0.00211609  0
3.95473e-05 0.00261761  0
3.2743e-05 0.00236427  0
6.992e-05 0.00236944  0
7.83505e-05 0.00262287  0
5.78471e-05 0.00211578  0
0.000154576 0.00264708  0
6.80988e-05 0.00236933  0
0.000106212 0.00238143  0
0.000116463 0.00263498  0
7.84815e-05 0.00262294  0
9.26851e-05 0.00315735  0
-2.85021e-06 0.0026124  0
8.55833e-05 0.00289014  0
4.49174e-05 0.00288488  0
3.78157e-05 0.00261767  0
7.66005e-05 0.00262285  0
0.000159878 0.00264758  0
9.79259e-05 0.00315757  0
0.000118239 0.00263521  0
0.000128902 0.00290257  0
8.72632e-05 0.00289021  0
-4.42152e-05 0.00165529  0
-6.27481e-05 0.00211566  0
-9.38941e-05 0.0016765  0
-5.34816e-05 0.00188547  0
-7.83211e-05 0.00189608  0
-6.90546e-05 0.00166589  0
-4.5866e-05 0.00165547  0
2.45404e-06 0.00164644  0
-5.82036e-05 0.00211516  0
-2.1706e-05 0.00165096  0
-2.78748e-05 0.0018808  0
-5.20348e-05 0.00188531  0
-4.56998e-05 0.00165542  0
-8.93909e-05 0.00167561  0
-2.88755e-05 0.00123024  0
-6.75454e-05 0.00166552  0
-5.91332e-05 0.00145292  0
-3.72877e-05 0.00144283  0
-4.4379e-05 0.00165524  0
-3.32329e-05 0.00123083  0
-1.95893e-06 0.00164664  0
-3.88059e-05 0.00144303  0
-1.75959e-05 0.00143873  0
-2.3169e-05 0.00165094  0
-7.67244e-05 0.00262278  0
-6.31157e-05 0.00211609  0
-2.37025e-06 0.00261244  0
-6.992e-05 0.00236944  0
-3.2743e-05 0.00236427  0
-3.95473e-05 0.00261761  0
-7.83505e-05 0.00262287  0
-0.000154576 0.00264708  0
-5.78471e-05 0.00211578  0
-0.000116463 0.00263498  0
-0.000106212 0.00238143  0
-6.80988e-05 0.00236933  0
-7.84815e-05 0.00262294  0
2.85021e-06 0.0026124  0
-9.26851e-05 0.00315735  0
-3.78157e-05 0.00261767  0
-4.49174e-05 0.00288488  0
-8.55833e-05 0.00289014  0
-7.66005e-05 0.00262285  0
-9.79259e-05 0.00315757  0
-0.000159878 0.00264758  0
-8.72632e-05 0.00289021  0
-0.000128902 0.00290257  0
-0.000118239 0.00263521  0
-0.00012248 0.00214404  0
-9.38937e-05 0.001674  0
-6.2667e-05 0.00211821  0
-0.000108187 0.00190902  0
-7.82803e-05 0.00189611  0
-9.25736e-05 0.00213113  0
-0.000124185 0.00214437  0
-5.76572e-05 0.0021177  0
-0.000154725 0.00264516  0
-9.09214e-05 0.00213103  0
-0.000106191 0.00238143  0
-0.000139455 0.00239476  0
-0.000124033 0.00214431  0
-0.000187081 0.00218352  0
-8.88314e-05 0.00167311  0
-0.000155557 0.00216392  0
-0.000137956 0.00192831  0
-0.000106432 0.00190871  0
-0.00012234 0.00214411  0
-0.000159846 0.00264587  0
-0.00019227 0.0021846  0
-0.000141093 0.00239499  0
-0.000176058 0.00241523  0
-0.000157305 0.00216435  0
-6.45595e-05 0.00125466  0
-2.8937e-05 0.00123347  0
-8.92803e-05 0.00167237  0
-4.67482e-05 0.00124407  0
-5.91087e-05 0.00145292  0
-7.69199e-05 0.00146352  0
-6.3216e-05 0.00125418  0
-4.17467e-05 0.000875738  0
-3.28847e-05 0.0012344  0
-5.24813e-05 0.00106496  0
-3.73157e-05 0.00105507  0
-4.80504e-05 0.00124429  0
-6.30305e-05 0.00125422  0
-9.34503e-05 0.00167363  0
-0.000100776 0.00128655  0
-7.82404e-05 0.00146392  0
-9.7113e-05 0.00148009  0
-8.19031e-05 0.00127038  0
-6.43763e-05 0.00125463  0
-9.66544e-05 0.00128479  0
-3.78623e-05 0.00087431  0
-8.05153e-05 0.00126971  0
-6.72583e-05 0.00107955  0
-5.11193e-05 0.00106447  0
0.000194393 0.00318812  0
0.000227425 0.00375407  0
9.21017e-05 0.00315893  0
0.000210909 0.0034711  0
0.000159763 0.0034565  0
0.000143247 0.00317353  0
0.000192525 0.00318796  0
9.76089e-05 0.00315902  0
0.000160133 0.00264618  0
0.000145067 0.00317349  0
0.000128871 0.0029026  0
0.000176329 0.00291707  0
0.000192428 0.00318805  0
0.000299131 0.00323219  0
0.000232924 0.00375424  0
0.000245779 0.00321012  0
0.000266027 0.00349322  0
0.000212676 0.00347115  0
0.000194278 0.00318805  0
0.000154488 0.00264586  0
0.000293484 0.00323178  0
0.000174383 0.00291695  0
0.000223986 0.00293882  0
0.000243881 0.00320992  0
8.47622e-07 0.00315168  0
-2.73365e-06 0.00261092  0
9.26144e-05 0.00315886  0
-9.43012e-07 0.0028813  0
4.49404e-05 0.00288489  0
4.6731e-05 0.00315527  0
-9.5696e-07 0.00315176  0
9.80286e-05 0.00315903  0
2.67495e-06 0.00371728  0
4.85358e-05 0.0031554  0
5.03518e-05 0.00343815  0
8.58993e-07 0.00343452  0
-8.47622e-07 0.00315168  0
-9.26144e-05 0.00315886  0
2.73365e-06 0.00261092  0
-4.6731e-05 0.00315527  0
-4.49404e-05 0.00288489  0
9.43012e-07 0.0028813  0
9.5696e-07 0.00315176  0
-2.67495e-06 0.00371728  0
-9.80286e-05 0.00315903  0
-8.58993e-07 0.00343452  0
-5.03518e-05 0.00343815  0
-4.85358e-05 0.0031554  0
0.000114503 0.0037294  0
9.25079e-05 0.00315791  0
0.000227053 0.0037551  0
0.000103506 0.00344365  0
0.00015978 0.00345651  0
0.000170778 0.00374225  0
0.000112753 0.00372939  0
2.52368e-06 0.00371839  0
9.81332e-05 0.00315796  0
5.76382e-05 0.00372389  0
5.03285e-05 0.00343818  0
0.000105443 0.00344367  0
0.000112666 0.00372948  0
0.000232608 0.00375524  0
0.000134696 0.00432288  0
0.000172637 0.00374236  0
0.000183652 0.00403906  0
0.000123681 0.00402618  0
0.000114599 0.00372948  0
0.000129279 0.00432289  0
-2.97237e-06 0.00371849  0
0.000121939 0.00402619  0
6.31535e-05 0.00402069  0
5.58131e-05 0.00372399  0
0.000351763 0.00380343  0
0.000232227 0.00375518  0
0.000299772 0.00323133  0
0.000291995 0.0037793  0
0.000266 0.00349326  0
0.000325767 0.00351738  0
0.000353605 0.00380344  0
0.00029387 0.00323125  0
0.000480265 0.00386708  0
0.000323737 0.00351734  0
0.000387067 0.00354916  0
0.000416935 0.00383526  0
0.000353701 0.00380352  0
0.00040571 0.00439652  0
0.000226536 0.00375529  0
0.000379705 0.00410002  0
0.000316123 0.00407591  0
0.000290118 0.0037794  0
0.000351693 0.00380353  0
0.000486124 0.00386716  0
0.000411351 0.00439642  0
0.000418909 0.00383535  0
0.000448737 0.00413179  0
0.000381522 0.00409998  0
-6.31488e-05 0.000907236  0
-8.57296e-05 0.000942743  0
-3.16957e-05 0.000573891  0
-7.44392e-05 0.00092499  0
-5.87127e-05 0.000758317  0
-4.74223e-05 0.000740564  0
-6.21595e-05 0.00090646  0
-3.50852e-05 0.000576355  0
-4.16557e-05 0.000880078  0
-4.86223e-05 0.000741408  0
-3.83705e-05 0.000728217  0
-5.19076e-05 0.000893269  0
-6.19432e-05 0.000906474  0
-0.000100077 0.00128316  0
-8.94383e-05 0.000945578  0
-8.10103e-05 0.00109482  0
-9.47578e-05 0.00111437  0
-7.56907e-05 0.000926026  0
-6.33485e-05 0.000907267  0
-3.81792e-05 0.000878196  0
-9.62967e-05 0.00128091  0
-5.07638e-05 0.000892732  0
-6.7238e-05 0.00107955  0
-7.98226e-05 0.00109409  0
-4.87699e-05 0.000610409  0
-3.23956e-05 0.000578497  0
-8.49953e-05 0.000938138  0
-4.05828e-05 0.000594453  0
-5.86954e-05 0.000758317  0
-6.68826e-05 0.000774273  0
-4.77655e-05 0.000609224  0
-2.04282e-05 0.00032998  0
-3.53557e-05 0.000581461  0
-3.40969e-05 0.000469602  0
-2.78919e-05 0.00045572  0
-4.15606e-05 0.000595342  0
-4.75036e-05 0.000609213  0
-8.83274e-05 0.000941551  0
-6.59161e-05 0.000649894  0
-6.79155e-05 0.000775382  0
-7.71217e-05 0.000795722  0
-5.67098e-05 0.000629554  0
-4.8553e-05 0.000610375  0
-6.27137e-05 0.0006458  0
-1.76124e-05 0.000326355  0
-5.56333e-05 0.000628087  0
-4.0163e-05 0.000486077  0
-3.30827e-05 0.000468365  0
-1.48178e-05 0.000316487  0
-8.11784e-06 0.000301699  0
-3.24982e-05 0.000573248  0
-1.14678e-05 0.000309093  0
-2.0308e-05 0.000437473  0
-2.3658e-05 0.000444868  0
-1.40161e-05 0.000315601  0
-3.45275e-05 0.000575806  0
-2.13934e-05 0.00033563  0
-2.42718e-05 0.000445703  0
-2.79604e-05 0.000455718  0
-1.77048e-05 0.000325616  0
-1.42566e-05 0.000315634  0
-2.95971e-06 0.000113071  0
-9.85592e-06 0.000303763  0
-8.60816e-06 0.000214352  0
-6.40781e-06 0.000208417  0
-1.20563e-05 0.000309699  0
-1.46351e-05 0.000316462  0
-1.95906e-05 0.000332534  0
-1.45462e-06 0.000110487  0
-1.71128e-05 0.000324498  0
-1.05226e-05 0.00022151  0
-8.04484e-06 0.000213474  0
-0.000137158 0.00133391  0
-8.89091e-05 0.000941958  0
-0.000100473 0.00128685  0
-0.000113033 0.00113793  0
-9.46913e-05 0.0011144  0
-0.000118815 0.00131038  0
-0.00013876 0.00133486  0
-9.58652e-05 0.00128457  0
-0.000193889 0.00176413  0
-0.000117313 0.00130971  0
-0.000144877 0.00152435  0
-0.000166325 0.00154949  0
-0.000138558 0.00133481  0
-0.000179598 0.0013943  0
-8.42447e-05 0.000939061  0
-0.000159078 0.00136456  0
-0.000131921 0.00116668  0
-0.000111401 0.00113694  0
-0.00013696 0.00133396  0
-0.000198807 0.00176663  0
-0.000184592 0.00139743  0
-0.000167884 0.0015503  0
-0.000191699 0.00158203  0
-0.000160776 0.0013657  0
-0.000141021 0.0017151  0
-0.000100589 0.00128351  0
-9.35315e-05 0.00167673  0
-0.000120805 0.0014993  0
-9.70605e-05 0.00148012  0
-0.000117276 0.00169591  0
-0.000142501 0.00171564  0
-0.000194056 0.00176691  0
-9.57244e-05 0.00128176  0
-0.000168279 0.00174128  0
-0.00014489 0.00152433  0
-0.000119113 0.0014987  0
-0.000142676 0.00171569  0
-8.87259e-05 0.00167547  0
-0.000187153 0.00218117  0
-0.000115701 0.00169558  0
-0.000137939 0.00192832  0
-0.000164914 0.00194843  0
-0.000140858 0.00171516  0
-0.000192166 0.00218264  0
-0.000199145 0.00176886  0
-0.000166512 0.0019489  0
-0.000195655 0.00197575  0
-0.000170002 0.00174201  0
3.98111e-07 -4.32436e-06  0
-2.55857e-06 0.00011234  0
2.70022e-07 -2.76415e-06  0
-1.08023e-06 5.4008e-05  0
-1.14427e-06 5.47881e-05  0
3.34067e-07 -3.54425e-06  0
3.06051e-07 -3.6249e-06  0
4.56442e-07 -4.81847e-06  0
-2.32234e-06 0.000110245  0
3.81247e-07 -4.22168e-06  0
-9.32949e-07 5.27132e-05  0
-1.00814e-06 5.331e-05  0
-4.37322e-06 0.000127059  0
1.23072e-06 -1.04278e-05  0
-3.40175e-06 0.000119931  0
-1.57125e-06 5.83158e-05  0
-1.08552e-06 5.47514e-05  0
-3.88749e-06 0.000123495  0
-4.64122e-06 0.000128171  0
-2.38286e-06 0.000117131  0
-1.86213e-05 0.000325836  0
-3.51204e-06 0.000122651  0
-1.05021e-05 0.000221484  0
-1.16313e-05 0.000227004  0
-4.48035e-06 0.000128108  0
-5.66731e-06 0.000137324  0
1.94902e-06 -1.36813e-05  0
-5.07383e-06 0.000132716  0
-1.85915e-06 6.18214e-05  0
-1.26567e-06 5.72131e-05  0
-4.09004e-06 0.000127001  0
-1.98891e-05 0.000329235  0
-6.62233e-06 0.000141218  0
-1.19896e-05 0.000228118  0
-1.32557e-05 0.000235227  0
-5.35618e-06 0.000134109  0
-2.66744e-05 0.000359242  0
-6.42433e-05 0.000644986  0
-3.7027e-05 0.000395365  0
-4.54589e-05 0.000502114  0
-5.06352e-05 0.000520176  0
-3.18507e-05 0.000377304  0
-2.77544e-05 0.000360868  0
-1.87821e-05 0.000331828  0
-6.15106e-05 0.000640303  0
-2.32682e-05 0.000346348  0
-4.01463e-05 0.000486066  0
-4.46325e-05 0.000500585  0
-2.75219e-05 0.000360823  0
-3.45411e-05 0.000389938  0
-3.19819e-06 0.000129719  0
-3.10315e-05 0.000375381  0
-1.88696e-05 0.000259828  0
-1.53601e-05 0.000245271  0
-2.70005e-05 0.000359291  0
-5.25647e-06 0.000134506  0
-2.11014e-05 0.000335905  0
-1.61285e-05 0.000246899  0
-1.3179e-05 0.000235205  0
-2.4051e-05 0.000347598  0
-0.000115962 0.000996903  0
-6.48994e-05 0.000645571  0
-8.91781e-05 0.000945934  0
-9.04309e-05 0.000821237  0
-7.70387e-05 0.000795752  0
-0.00010257 0.000971419  0
-0.000117256 0.000998262  0
-0.000148151 0.00106103  0
-6.04946e-05 0.000641248  0
-0.000132703 0.00102965  0
-0.000104323 0.00085114  0
-8.88753e-05 0.000819755  0
-0.000117495 0.000998306  0
-8.47968e-05 0.000942381  0
-0.000179026 0.00139102  0
-0.000101146 0.000970344  0
-0.000131912 0.0011667  0
-0.00014826 0.00119466  0
-0.000115711 0.000996936  0
-0.00018383 0.00139488  0
-0.000153002 0.00106568  0
-0.000149771 0.00119591  0
-0.000168416 0.00123028  0
-0.000134357 0.00103131  0
-8.3109e-05 0.000699247  0
-3.54043e-05 0.000390094  0
-6.56624e-05 0.000650285  0
-5.92566e-05 0.000544671  0
-5.05333e-05 0.000520189  0
-7.43857e-05 0.000674766  0
-8.45138e-05 0.0007012  0
-6.1625e-05 0.000645214  0
-0.000147003 0.0010571  0
-7.30694e-05 0.000673207  0
-0.000104314 0.000851155  0
-0.000115759 0.000879149  0
-8.42259e-05 0.000701149  0
-0.000105021 0.000760854  0
-3.14366e-05 0.000384083  0
-9.46235e-05 0.000731001  0
-6.82288e-05 0.000572468  0
-5.78313e-05 0.000542616  0
-8.2772e-05 0.00069925  0
-0.000151585 0.00106264  0
-0.000109562 0.000767367  0
-0.000117178 0.000880943  0
-0.000130573 0.000915002  0
-9.61672e-05 0.000733309  0
6.04135e-07 -3.54885e-06  0
8.1784e-07 -5.91162e-06  0
-4.47198e-06 0.000129455  0
7.10988e-07 -4.73023e-06  0
-1.82707e-06 6.17718e-05  0
-1.93392e-06 6.29532e-05  0
7.33169e-07 -4.87771e-06  0
-4.80097e-06 0.000133436  0
5.57972e-07 -2.00342e-06  0
-2.0339e-06 6.4279e-05  0
-2.1215e-06 6.57162e-05  0
6.45571e-07 -3.44056e-06  0
-8.10764e-06 0.000156155  0
-4.85928e-06 0.000136327  0
-3.28406e-05 0.000383253  0
-6.48346e-06 0.000146241  0
-1.88499e-05 0.00025979  0
-2.04741e-05 0.000269704  0
-7.72309e-06 0.000154219  0
2.27138e-06 -1.00577e-05  0
-6.3363e-06 0.000141368  0
-2.72586e-06 7.20805e-05  0
-2.03246e-06 6.56552e-05  0
-7.02969e-06 0.000147793  0
-7.3026e-06 0.000154125  0
-3.46868e-05 0.000389143  0
-1.11039e-05 0.000178596  0
-2.09947e-05 0.000271634  0
-2.28953e-05 0.000283869  0
-9.20324e-06 0.000166361  0
-7.88231e-06 0.000156053  0
-9.68928e-06 0.000171974  0
3.33074e-06 -1.5755e-05  0
-8.7858e-06 0.000164013  0
-3.17927e-06 7.81093e-05  0
-2.27579e-06 7.01491e-05  0
-0.000243125 0.00269362  0
-0.000330848 0.00275426  0
-0.000186845 0.00218202  0
-0.000286987 0.00272394  0
-0.000258846 0.00246814  0
-0.000214985 0.00243782  0
-0.000241365 0.00269336  0
-0.000192532 0.00218288  0
-0.000159503 0.00264766  0
-0.000216948 0.00243812  0
-0.000176017 0.00241527  0
-0.000200434 0.00267051  0
-0.000241255 0.00269345  0
-0.000299565 0.00323111  0
-0.000336618 0.00275519  0
-0.00027041 0.00296228  0
-0.000318091 0.00299315  0
-0.000288936 0.00272432  0
-0.00024326 0.00269369  0
-0.000153975 0.00264713  0
-0.000293967 0.00323051  0
-0.000198618 0.00267041  0
-0.000223971 0.00293882  0
-0.000268614 0.0029621  0
-0.000264333 0.00224584  0
-0.000186363 0.00218354  0
-0.000331307 0.00275277  0
-0.000225348 0.00221469  0
-0.000258835 0.00246815  0
-0.00029782 0.0024993  0
-0.000262394 0.00224526  0
-0.000199257 0.00176683  0
-0.000191948 0.00218477  0
-0.000230826 0.00200605  0
-0.000195603 0.0019758  0
-0.000227171 0.00221502  0
-0.000262268 0.00224536  0
-0.00033705 0.00275406  0
-0.00034758 0.00232321  0
-0.000299659 0.00249971  0
-0.000342315 0.00253864  0
-0.000304924 0.00228428  0
-0.000264173 0.00224578  0
-0.00034163 0.00232147  0
-0.000193482 0.00176515  0
-0.000302902 0.00228362  0
-0.000267556 0.00204331  0
-0.000228828 0.00200546  0
-0.000194393 0.00318812  0
-9.21017e-05 0.00315893  0
-0.000227425 0.00375407  0
-0.000143247 0.00317353  0
-0.000159763 0.0034565  0
-0.000210909 0.0034711  0
-0.000192525 0.00318796  0
-0.000160133 0.00264618  0
-9.76089e-05 0.00315902  0
-0.000176329 0.00291707  0
-0.000128871 0.0029026  0
-0.000145067 0.00317349  0
-0.000192428 0.00318805  0
-0.000232924 0.00375424  0
-0.000299131 0.00323219  0
-0.000212676 0.00347115  0
-0.000266027 0.00349322  0
-0.000245779 0.00321012  0
-0.000194278 0.00318805  0
-0.000293484 0.00323178  0
-0.000154488 0.00264586  0
-0.000243881 0.00320992  0
-0.000223986 0.00293882  0
-0.000174383 0.00291695  0
-0.000114503 0.0037294  0
-0.000227053 0.0037551  0
-9.25079e-05 0.00315791  0
-0.000170778 0.00374225  0
-0.00015978 0.00345651  0
-0.000103506 0.00344365  0
-0.000112753 0.00372939  0
-9.81332e-05 0.00315796  0
-2.52368e-06 0.00371839  0
-0.000105443 0.00344367  0
-5.03285e-05 0.00343818  0
-5.76382e-05 0.00372389  0
-0.000112666 0.00372948  0
-0.000134696 0.00432288  0
-0.000232608 0.00375524  0
-0.000123681 0.00402618  0
-0.000183652 0.00403906  0
-0.000172637 0.00374236  0
-0.000114599 0.00372948  0
2.97237e-06 0.00371849  0
-0.000129279 0.00432289  0
-5.58131e-05 0.00372399  0
-6.31535e-05 0.00402069  0
-0.000121939 0.00402619  0
-0.000407767 0.00329904  0
-0.000337327 0.00275419  0
-0.000298785 0.00323222  0
-0.000372547 0.00302661  0
-0.000318056 0.0029932  0
-0.000353276 0.00326563  0
-0.000409798 0.00329925  0
-0.000292884 0.00323197  0
-0.000481228 0.00386637  0
-0.000351341 0.00326561  0
-0.000387056 0.00354917  0
-0.000445513 0.00358281  0
-0.000409684 0.00329918  0
-0.000527666 0.00338206  0
-0.000331179 0.00275368  0
-0.000468675 0.00334062  0
-0.000429423 0.00306787  0
-0.000370432 0.00302643  0
-0.000407693 0.00329915  0
-0.000487138 0.00386659  0
-0.000533831 0.00338254  0
-0.000447415 0.00358287  0
-0.000510484 0.00362456  0
-0.000470762 0.00334084  0
-0.000351763 0.00380343  0
-0.000299772 0.00323133  0
-0.000232227 0.00375518  0
-0.000325767 0.00351738  0
-0.000266 0.00349326  0
-0.000291995 0.0037793  0
-0.000353605 0.00380344  0
-0.000480265 0.00386708  0
-0.00029387 0.00323125  0
-0.000416935 0.00383526  0
-0.000387067 0.00354916  0
-0.000323737 0.00351734  0
-0.000353701 0.00380352  0
-0.000226536 0.00375529  0
-0.00040571 0.00439652  0
-0.000290118 0.0037794  0
-0.000316123 0.00407591  0
-0.000379705 0.00410002  0
-0.000351693 0.00380353  0
-0.000411351 0.00439642  0
-0.000486124 0.00386716  0
-0.000381522 0.00409998  0
-0.000448737 0.00413179  0
-0.000418909 0.00383535  0
-0.000260641 0.00184247  0
-0.000328313 0.00193056  0
-0.000178464 0.00139223  0
-0.000294477 0.00188651  0
-0.000253389 0.00166139  0
-0.000219553 0.00161735  0
-0.000258831 0.0018416  0
-0.000184385 0.00139506  0
-0.000198877 0.00176912  0
-0.000221608 0.00161833  0
-0.000191631 0.00158209  0
-0.000228854 0.00180536  0
-0.000258678 0.00184169  0
-0.00034787 0.00232207  0
-0.000334516 0.00193344  0
-0.000303274 0.00208188  0
-0.000341193 0.00212775  0
-0.000296597 0.00188757  0
-0.000260832 0.00184253  0
-0.000193184 0.00176689  0
-0.000341914 0.00231978  0
-0.000227008 0.00180471  0
-0.000267549 0.00204333  0
-0.000301373 0.00208115  0
-0.000236089 0.00147986  0
-0.000178524 0.0013942  0
-0.000328248 0.00192867  0
-0.000207306 0.00143703  0
-0.000253386 0.00166143  0
-0.000282168 0.00170426  0
-0.000234009 0.00147844  0
-0.000152286 0.0010629  0
-0.000184367 0.00139779  0
-0.000193147 0.00127067  0
-0.000168326 0.00123034  0
-0.000209188 0.00143811  0
-0.00023381 0.00147854  0
-0.000334485 0.00193233  0
-0.000299957 0.00158104  0
-0.000284148 0.00170544  0
-0.000317221 0.00175669  0
-0.000266884 0.00152979  0
-0.000235852 0.0014798  0
-0.000293435 0.00157659  0
-0.000146186 0.00105853  0
-0.000264643 0.00152819  0
-0.00021981 0.00131756  0
-0.000191019 0.00126916  0
-0.000436081 0.00283978  0
-0.000348226 0.0023221  0
-0.000336312 0.0027553  0
-0.000392153 0.00258094  0
-0.000342269 0.0025387  0
-0.000386196 0.00279754  0
-0.000438097 0.00284013  0
-0.000548488 0.00294157  0
-0.000341745 0.00232091  0
-0.000493292 0.00289085  0
-0.000445117 0.00263124  0
-0.000389921 0.00258052  0
-0.000438232 0.00284021  0
-0.000330135 0.00275447  0
-0.000528693 0.00338131  0
-0.000384183 0.00279734  0
-0.000429414 0.00306789  0
-0.000483463 0.00311076  0
-0.000436001 0.00283991  0
-0.000534945 0.00338207  0
-0.000555053 0.00294268  0
-0.000485473 0.00311099  0
-0.000544999 0.00316238  0
-0.000495527 0.00289129  0
-0.000438551 0.00242401  0
-0.000334948 0.00193227  0
-0.000347317 0.0023234  0
-0.00038675 0.00217814  0
-0.000341133 0.00212784  0
-0.000392934 0.00237371  0
-0.000440865 0.00242475  0
-0.000340759 0.0023217  0
-0.000549463 0.00294084  0
-0.000390812 0.00237323  0
-0.000445111 0.00263127  0
-0.000495164 0.0026828  0
-0.000440702 0.00242468  0
-0.000543945 0.00254344  0
-0.000328008 0.0019301  0
-0.000492324 0.00248406  0
-0.000435977 0.00223677  0
-0.000384355 0.00217739  0
-0.000438462 0.00242416  0
-0.000556173 0.00294242  0
-0.000551052 0.00254549  0
-0.000497318 0.00268329  0
-0.000553612 0.00274395  0
-0.000494757 0.00248482  0
0.000558379 0.00446413  0
0.000724649 0.0045461  0
0.000636053 0.00507876  0
0.000641514 0.00450511  0
0.000680351 0.00481243  0
0.000597216 0.00477144  0
0.000560301 0.00446387  0
0.000481271 0.0038671  0
0.000718748 0.00454654  0
0.000520786 0.00416549  0
0.00060001 0.00420682  0
0.000639525 0.00450521  0
0.000560379 0.00446396  0
0.000630411 0.00507932  0
0.000404424 0.00439743  0
0.000595395 0.00477164  0
0.000517418 0.00473837  0
0.000482402 0.00443069  0
0.000558422 0.00446401  0
0.000410164 0.00439694  0
0.000487266 0.00386673  0
0.000484293 0.00443047  0
0.000448715 0.00413183  0
0.000522844 0.00416537  0
0.00081511 0.00516332  0
0.000634313 0.00507897  0
0.000726359 0.00454598  0
0.000724711 0.00512114  0
0.000680336 0.00481247  0
0.000770734 0.00485465  0
0.00081697 0.00516299  0
0.000720447 0.00454693  0
0.00101103 0.00526269  0
0.000768708 0.00485496  0
0.000865737 0.00490481  0
0.000913999 0.00521284  0
0.000817031 0.00516308  0
0.000903207 0.00579619  0
0.000628672 0.00507997  0
0.000860119 0.00547964  0
0.00076594 0.00543808  0
0.000722852 0.00512153  0
0.000815088 0.00516344  0
0.0010168 0.00526163  0
0.000908705 0.00579509  0
0.000915943 0.00521254  0
0.000962751 0.00552836  0
0.000861897 0.00547927  0
0.000464122 0.0050179  0
0.000405746 0.00439713  0
0.000629112 0.00507963  0
0.000434934 0.00470751  0
0.000517429 0.00473838  0
0.000546617 0.00504876  0
0.000462344 0.00501807  0
0.000305218 0.0049711  0
0.000411426 0.00439665  0
0.000383781 0.00499459  0
0.000358322 0.00468388  0
0.000436885 0.00470736  0
0.000462299 0.00501818  0
0.000634662 0.0050791  0
0.000519123 0.00565595  0
0.000548481 0.00504864  0
0.000576892 0.00536753  0
0.000490711 0.00533707  0
0.000464188 0.00501799  0
0.000513807 0.00565655  0
0.000299768 0.00497165  0
0.000488998 0.00533727  0
0.000406788 0.0053141  0
0.000381978 0.00499482  0
0.000267953 0.00435293  0
0.000227357 0.00375467  0
0.000404915 0.00439715  0
0.000247655 0.0040538  0
0.000316136 0.00407591  0
0.000336434 0.00437504  0
0.000266107 0.00435309  0
0.000410523 0.00439703  0
0.000306157 0.00497065  0
0.000338315 0.00437506  0
0.00035834 0.00468384  0
0.000286132 0.00466187  0
0.000266172 0.00435298  0
0.000134198 0.00432363  0
0.000233062 0.00375454  0
0.000200185 0.00433831  0
0.00018363 0.00403909  0
0.000249617 0.00405376  0
0.000268034 0.00435302  0
0.000300746 0.00497088  0
0.000128682 0.00432387  0
0.00028439 0.00466195  0
0.000214714 0.00464737  0
0.000198358 0.00433845  0
0.00112485 0.00589395  0
0.00122466 0.00654066  0
0.00090099 0.00579666  0
0.00117476 0.00621731  0
0.00106283 0.00616866  0
0.00101292 0.00584531  0
0.00112301 0.00589439  0
0.000906406 0.00579511  0
0.00101908 0.0052617  0
0.00101471 0.00584475  0
0.000962743 0.0055284  0
0.00107105 0.00557804  0
0.001123 0.00589451  0
0.00136304 0.00600619  0
0.00122991 0.00653899  0
0.00124302 0.00595035  0
0.00129647 0.00627259  0
0.00117645 0.00621675  0
0.0011248 0.00589387  0
0.00101341 0.00526326  0
0.00135754 0.00600786  0
0.0010691 0.00557856  0
0.00118548 0.00563556  0
0.00124117 0.00595086  0
0.000704996 0.0057189  0
0.000630534 0.00507988  0
0.000901366 0.00579629  0
0.000667765 0.00539939  0
0.00076595 0.00543809  0
0.000803181 0.00575759  0
0.00070323 0.00571933  0
0.000906746 0.00579527  0
0.000774882 0.00637343  0
0.000804988 0.0057573  0
0.000840814 0.00608435  0
0.000739056 0.00604638  0
0.000703258 0.00571922  0
0.000517683 0.00565618  0
0.000636074 0.00507894  0
0.000610471 0.0056877  0
0.000576878 0.00536756  0
0.000669666 0.00539908  0
0.000705049 0.00571899  0
0.000769753 0.00637448  0
0.000512392 0.00565715  0
0.000737401 0.00604674  0
0.000641072 0.00601582  0
0.000608721 0.00568807  0
0.000991621 0.00644998  0
0.000903385 0.0057967  0
0.00122229 0.00654064  0
0.000947503 0.00612334  0
0.00106284 0.00616867  0
0.00110696 0.00649531  0
0.000989955 0.00645046  0
0.000772924 0.00637352  0
0.000908685 0.00579525  0
0.000881439 0.00641199  0
0.000840804 0.00608439  0
0.00094932 0.00612286  0
0.000989937 0.00645057  0
0.00122741 0.0065391  0
0.00107403 0.00711743  0
0.00110867 0.00649484  0
0.00115072 0.00682826  0
0.00103198 0.006784  0
0.000991662 0.00645007  0
0.00106915 0.00711896  0
0.000767871 0.00637495  0
0.00103041 0.00678451  0
0.000918513 0.00674695  0
0.000879767 0.00641251  0
0.0014821 0.00665035  0
0.00122708 0.00653892  0
0.00136586 0.00600633  0
0.00135459 0.00659463  0
0.00129647 0.00627262  0
0.00142398 0.00632834  0
0.00148379 0.00664965  0
0.00136052 0.00600845  0
0.00175749 0.00677492  0
0.00142216 0.00632905  0
0.00155901 0.00639168  0
0.00162064 0.00671228  0
0.00148383 0.00664972  0
0.00159452 0.00730651  0
0.00122198 0.006541  0
0.00153918 0.00697812  0
0.00140825 0.00692376  0
0.0013529 0.00659536  0
0.0014821 0.00665046  0
0.00176264 0.0067727  0
0.00159945 0.00730433  0
0.00162237 0.00671158  0
0.00168105 0.00703852  0
0.00154078 0.00697739  0
-9.48729e-07 0.00431649  0
0.000134603 0.00432376  0
2.66101e-06 0.00493499  0
6.68271e-05 0.00432012  0
6.86319e-05 0.00462937  0
8.5614e-07 0.00462574  0
8.72044e-07 0.00431639  0
-2.79782e-06 0.00371773  0
0.00012914 0.00432369  0
-9.62888e-07 0.00401706  0
6.31712e-05 0.00402071  0
6.50061e-05 0.00432004  0
9.48729e-07 0.00431649  0
-2.66101e-06 0.00493499  0
-0.000134603 0.00432376  0
-8.56141e-07 0.00462574  0
-6.86319e-05 0.00462937  0
-6.68271e-05 0.00432012  0
-8.72044e-07 0.00431639  0
-0.00012914 0.00432369  0
2.79782e-06 0.00371773  0
-6.50061e-05 0.00432004  0
-6.31712e-05 0.00402071  0
9.62888e-07 0.00401706  0
0.000149176 0.00494632  0
2.46287e-06 0.00493555  0
0.000134767 0.00432324  0
7.58196e-05 0.00494094  0
6.86149e-05 0.0046294  0
0.000141972 0.00463478  0
0.0001509 0.00494627  0
0.000129242 0.00432338  0
0.000300215 0.00497139  0
0.000140071 0.00463482  0
0.000214728 0.00464739  0
0.000225557 0.00495883  0
0.000150966 0.00494636  0
0.000165044 0.00558729  0
-2.87891e-06 0.00493575  0
0.000158005 0.00526683  0
8.10828e-05 0.00526152  0
7.40437e-05 0.00494106  0
0.000149117 0.00494642  0
0.000305594 0.00497126  0
0.000170234 0.0055871  0
0.000227355 0.00495884  0
0.000237914 0.00527918  0
0.000159676 0.00526676  0
-0.000149176 0.00494632  0
-0.000134767 0.00432324  0
-2.46287e-06 0.00493555  0
-0.000141972 0.00463478  0
-6.86149e-05 0.0046294  0
-7.58196e-05 0.00494094  0
-0.0001509 0.00494627  0
-0.000300215 0.00497139  0
-0.000129242 0.00432338  0
-0.000225557 0.00495883  0
-0.000214728 0.00464739  0
-0.000140071 0.00463482  0
-0.000150966 0.00494636  0
2.87891e-06 0.00493575  0
-0.000165044 0.00558729  0
-7.40437e-05 0.00494106  0
-8.10828e-05 0.00526152  0
-0.000158005 0.00526683  0
-0.000149117 0.00494642  0
-0.000170234 0.0055871  0
-0.000305594 0.00497126  0
-0.000159676 0.00526676  0
-0.000237914 0.00527918  0
-0.000227355 0.00495884  0
-0.000266172 0.00435298  0
-0.000233062 0.00375454  0
-0.000134198 0.00432363  0
-0.000249617 0.00405376  0
-0.00018363 0.00403909  0
-0.000200185 0.00433831  0
-0.000268034 0.00435302  0
-0.000128682 0.00432387  0
-0.000300746 0.00497088  0
-0.000198358 0.00433845  0
-0.000214714 0.00464737  0
-0.00028439 0.00466195  0
-0.000267953 0.00435293  0
-0.000404915 0.00439715  0
-0.000227357 0.00375467  0
-0.000336434 0.00437504  0
-0.000316136 0.00407591  0
-0.000247655 0.0040538  0
-0.000266107 0.00435309  0
-0.000306157 0.00497065  0
-0.000410523 0.00439703  0
-0.000286132 0.00466187  0
-0.00035834 0.00468384  0
-0.000338315 0.00437506  0
0.000337634 0.00561536  0
0.00051804 0.00565637  0
0.000374823 0.00627504  0
0.000427837 0.00563586  0
0.000446431 0.0059657  0
0.000356228 0.0059452  0
0.000339362 0.0056151  0
0.000300787 0.00497138  0
0.000512811 0.00565684  0
0.000320074 0.00529324  0
0.000406799 0.00531411  0
0.000426086 0.00563597  0
0.000339418 0.0056152  0
0.000369817 0.00627554  0
0.000164444 0.00558794  0
0.000354617 0.00594537  0
0.000267131 0.00593174  0
0.000251931 0.00560157  0
0.000337678 0.00561525  0
0.000169618 0.00558748  0
0.00030618 0.00497094  0
0.000253648 0.00560136  0
0.000237899 0.00527921  0
0.000321929 0.00529309  0
0.000566055 0.00631837  0
0.000373735 0.00627526  0
0.000519102 0.0056562  0
0.000469895 0.00629682  0
0.000446418 0.00596573  0
0.000542578 0.00598729  0
0.000567676 0.00631809  0
0.000513911 0.00565703  0
0.000768253 0.00637462  0
0.000540793 0.00598756  0
0.000641082 0.00601583  0
0.000667965 0.00634636  0
0.000567722 0.00631819  0
0.000612557 0.00699481  0
0.000368782 0.00627609  0
0.000590139 0.0066565  0
0.000490669 0.00663545  0
0.000468252 0.00629714  0
0.000566022 0.00631848  0
0.000773263 0.00637373  0
0.000617326 0.00699392  0
0.000669643 0.00634611  0
0.000695294 0.00668382  0
0.000591674 0.0066562  0
8.31062e-07 0.00558078  0
-2.66614e-06 0.00493539  0
0.000164859 0.00558769  0
-9.17539e-07 0.00525808  0
8.10964e-05 0.00526154  0
8.2845e-05 0.00558423  0
-8.84146e-07 0.00558088  0
0.000170005 0.00558769  0
2.47737e-06 0.00624257  0
8.45603e-05 0.00558429  0
8.6241e-05 0.00591513  0
7.96614e-07 0.00591173  0
-8.31062e-07 0.00558078  0
-0.000164859 0.00558769  0
2.66614e-06 0.00493539  0
-8.2845e-05 0.00558423  0
-8.10964e-05 0.00526154  0
9.17539e-07 0.00525808  0
8.84146e-07 0.00558088  0
-2.47737e-06 0.00624257  0
-0.000170005 0.00558769  0
-7.96615e-07 0.00591173  0
-8.6241e-05 0.00591513  0
-8.45603e-05 0.00558429  0
0.000185133 0.00625269  0
0.000165098 0.00558771  0
0.000369185 0.0062758  0
0.000175115 0.0059202  0
0.000267142 0.00593176  0
0.000277159 0.00626424  0
0.000183542 0.00625278  0
2.25029e-06 0.00624287  0
0.000170206 0.00558745  0
9.28964e-05 0.00624782  0
8.62282e-05 0.00591516  0
0.000176874 0.00592011  0
0.0001835 0.00625289  0
0.000374099 0.0062755  0
0.000202627 0.0069327  0
0.0002788 0.00626419  0
0.000288363 0.0066041  0
0.000193063 0.0065928  0
0.000185179 0.00625279  0
0.000197932 0.006933  0
-2.64166e-06 0.00624313  0
0.000191556 0.00659289  0
9.76454e-05 0.00658806  0
9.12686e-05 0.00624796  0
-7.84966e-07 0.00692713  0
0.000202312 0.00693318  0
2.18624e-06 0.00762492  0
0.000100763 0.00693016  0
0.000102249 0.00727905  0
7.00635e-07 0.00727602  0
7.46176e-07 0.00692702  0
-2.40598e-06 0.00624294  0
0.000197718 0.00693322  0
-8.29901e-07 0.00658498  0
9.76562e-05 0.00658808  0
9.92323e-05 0.00693012  0
7.84966e-07 0.00692713  0
-2.18624e-06 0.00762492  0
-0.000202312 0.00693318  0
-7.00635e-07 0.00727602  0
-0.000102249 0.00727905  0
-0.000100763 0.00693016  0
-7.46176e-07 0.00692702  0
-0.000197718 0.00693322  0
2.40598e-06 0.00624294  0
-9.92323e-05 0.00693012  0
-9.76562e-05 0.00658808  0
8.29901e-07 0.00658498  0
0.000214264 0.00763378  0
1.9423e-06 0.00762511  0
0.000202535 0.00693304  0
0.000108103 0.00762944  0
0.000102238 0.00727907  0
0.0002084 0.00728341  0
0.000215654 0.00763367  0
0.000198036 0.00693338  0
0.000430835 0.0076539  0
0.000206845 0.00728352  0
0.000314436 0.00729364  0
0.000323245 0.00764378  0
0.000215689 0.00763378  0
0.000226697 0.00834713  0
-2.32212e-06 0.0076254  0
0.000221193 0.00799045  0
0.000112187 0.00798626  0
0.000106683 0.00762959  0
0.000214231 0.00763389  0
0.000435113 0.0076535  0
0.000230738 0.00834678  0
0.000324672 0.0076437  0
0.000332925 0.00800014  0
0.000222484 0.00799034  0
0.00040313 0.0069578  0
0.000201939 0.00693291  0
0.000374763 0.00627534  0
0.000302534 0.00694536  0
0.000288351 0.00660413  0
0.000388946 0.00661657  0
0.000404675 0.0069577  0
0.000431526 0.00765372  0
0.000197327 0.00693351  0
0.0004181 0.00730571  0
0.000314427 0.00729362  0
0.000301001 0.0069456  0
0.000404636 0.00695759  0
0.000369916 0.00627596  0
0.000611441 0.00699497  0
0.000387276 0.00661678  0
0.000490679 0.00663547  0
0.000508038 0.00697628  0
0.000403096 0.00695791  0
0.000616085 0.00699429  0
0.000435933 0.00765307  0
0.00050959 0.0069761  0
0.000526009 0.00732368  0
0.000419514 0.00730549  0
-0.0001835 0.00625289  0
-0.000202627 0.0069327  0
-0.000374099 0.0062755  0
-0.000193063 0.0065928  0
-0.000288363 0.0066041  0
-0.0002788 0.00626419  0
-0.000185179 0.00625279  0
2.64166e-06 0.00624313  0
-0.000197932 0.006933  0
-9.12686e-05 0.00624796  0
-9.76454e-05 0.00658806  0
-0.000191556 0.00659289  0
-0.000185133 0.00625269  0
-0.000369185 0.0062758  0
-0.000165098 0.00558771  0
-0.000277159 0.00626424  0
-0.000267142 0.00593176  0
-0.000175115 0.0059202  0
-0.000183542 0.00625278  0
-0.000170206 0.00558745  0
-2.25029e-06 0.00624287  0
-0.000176874 0.00592011  0
-8.62282e-05 0.00591516  0
-9.28964e-05 0.00624782  0
-0.000214264 0.00763378  0
-0.000202535 0.00693304  0
-1.9423e-06 0.00762511  0
-0.0002084 0.00728341  0
-0.000102238 0.00727907  0
-0.000108103 0.00762944  0
-0.000215654 0.00763367  0
-0.000430835 0.0076539  0
-0.000198036 0.00693338  0
-0.000323245 0.00764378  0
-0.000314436 0.00729364  0
-0.000206845 0.00728352  0
-0.000215689 0.00763378  0
2.32212e-06 0.0076254  0
-0.000226697 0.00834713  0
-0.000106683 0.00762959  0
-0.000112187 0.00798626  0
-0.000221193 0.00799045  0
-0.000214231 0.00763389  0
-0.000230738 0.00834678  0
-0.000435113 0.0076535  0
-0.000222484 0.00799034  0
-0.000332925 0.00800014  0
-0.000324672 0.0076437  0
-0.00040313 0.0069578  0
-0.000374763 0.00627534  0
-0.000201939 0.00693291  0
-0.000388946 0.00661657  0
-0.000288351 0.00660413  0
-0.000302534 0.00694536  0
-0.000404675 0.0069577  0
-0.000197327 0.00693351  0
-0.000431526 0.00765372  0
-0.000301001 0.0069456  0
-0.000314427 0.00729362  0
-0.0004181 0.00730571  0
-0.000404636 0.00695759  0
-0.000611441 0.00699497  0
-0.000369916 0.00627596  0
-0.000508038 0.00697628  0
-0.000490679 0.00663547  0
-0.000387276 0.00661678  0
-0.000403096 0.00695791  0
-0.000435933 0.00765307  0
-0.000616085 0.00699429  0
-0.000419514 0.00730549  0
-0.000526009 0.00732368  0
-0.00050959 0.0069761  0
-0.000339418 0.0056152  0
-0.000164444 0.00558794  0
-0.000369817 0.00627554  0
-0.000251931 0.00560157  0
-0.000267131 0.00593174  0
-0.000354617 0.00594537  0
-0.000337678 0.00561525  0
-0.00030618 0.00497094  0
-0.000169618 0.00558748  0
-0.000321929 0.00529309  0
-0.000237899 0.00527921  0
-0.000253648 0.00560136  0
-0.000337634 0.00561536  0
-0.000374823 0.00627504  0
-0.00051804 0.00565637  0
-0.000356228 0.0059452  0
-0.000446431 0.0059657  0
-0.000427837 0.00563586  0
-0.000339362 0.0056151  0
-0.000512811 0.00565684  0
-0.000300787 0.00497138  0
-0.000426086 0.00563597  0
-0.000406799 0.00531411  0
-0.000320074 0.00529324  0
0.000659894 0.00769058  0
0.000612683 0.00699521  0
0.000892116 0.00773999  0
0.000636289 0.0073429  0
0.000752399 0.0073676  0
0.000776005 0.00771528  0
0.000658482 0.00769092  0
0.000434759 0.00765322  0
0.000617237 0.0069942  0
0.00054662 0.00767207  0
0.000525998 0.00732371  0
0.000637859 0.00734256  0
0.000658453 0.00769103  0
0.000896461 0.0077389  0
0.00070271 0.00839876  0
0.000777457 0.00771496  0
0.000799586 0.00806883  0
0.000680582 0.00804489  0
0.000659927 0.00769068  0
0.000698608 0.00839981  0
0.000430447 0.0076542  0
0.000679267 0.00804525  0
0.000564528 0.008027  0
0.000545187 0.00767244  0
0.000836696 0.00705005  0
0.000893729 0.00773988  0
0.000611055 0.00699528  0
0.000865212 0.00739497  0
0.000752392 0.00736758  0
0.000723875 0.00702267  0
0.000835119 0.00705038  0
0.000615741 0.00699404  0
0.000774826 0.00637366  0
0.00072543 0.00702221  0
0.000695284 0.00668385  0
0.000804973 0.00671202  0
0.000835095 0.00705049  0
0.00107188 0.00711766  0
0.000898222 0.00773856  0
0.000953489 0.00708407  0
0.000985052 0.00742811  0
0.000866658 0.00739452  0
0.000836659 0.00704995  0
0.000769897 0.00637493  0
0.00106715 0.00711901  0
0.000803278 0.00671244  0
0.000918521 0.00674697  0
0.000951903 0.00708448  0
0.0004615 0.0083681  0
0.00048415 0.0090945  0
0.000226079 0.0083476  0
0.000472825 0.0087313  0
0.000355114 0.00872105  0
0.000343789 0.00835785  0
0.000460187 0.00836823  0
0.00023001 0.00834694  0
0.000435819 0.00765339  0
0.000345098 0.00835758  0
0.000332915 0.00800016  0
0.000448003 0.00801081  0
0.000460155 0.00836834  0
0.000701374 0.00839917  0
0.000487856 0.00909377  0
0.000580765 0.00838375  0
0.000594615 0.00874647  0
0.000474006 0.00873105  0
0.000461469 0.00836799  0
0.000431646 0.0076541  0
0.000697424 0.00839995  0
0.000446557 0.00801104  0
0.000564535 0.00802702  0
0.000579447 0.00838397  0
6.35334e-07 0.008342  0
-2.07299e-06 0.00762527  0
0.000226467 0.0083473  0
-7.1883e-07 0.00798364  0
0.000112197 0.00798629  0
0.000113551 0.00834465  0
-6.68204e-07 0.00834212  0
0.000230377 0.00834724  0
1.83695e-06 0.00907046  0
0.000114855 0.00834468  0
0.000116107 0.00870885  0
5.84371e-07 0.00870629  0
-6.35334e-07 0.008342  0
-0.000226467 0.0083473  0
2.07299e-06 0.00762527  0
-0.000113551 0.00834465  0
-0.000112197 0.00798629  0
7.1883e-07 0.00798364  0
6.68203e-07 0.00834212  0
-1.83695e-06 0.00907046  0
-0.000230377 0.00834724  0
-5.84371e-07 0.00870629  0
-0.000116107 0.00870885  0
-0.000114855 0.00834468  0
0.000241611 0.00907776  0
0.000226818 0.00834749  0
0.000483427 0.00909466  0
0.000234214 0.00871262  0
0.000355122 0.00872107  0
0.000362519 0.00908621  0
0.000240458 0.00907788  0
1.58324e-06 0.00907063  0
0.000230611 0.00834712  0
0.000121021 0.00907426  0
0.000116097 0.00870887  0
0.000235535 0.0087125  0
0.000240425 0.00907799  0
0.000486984 0.00909424  0
0.000254032 0.00981889  0
0.000363705 0.00908612  0
0.000370508 0.00945656  0
0.000247228 0.00944844  0
0.000241642 0.00907787  0
0.000250718 0.00981926  0
-1.96742e-06 0.00907094  0
0.00024618 0.00944856  0
0.000124375 0.0094451  0
0.000119837 0.00907441  0
0.000949891 0.00844705  0
0.000701042 0.00839887  0
0.000898108 0.00773883  0
0.000825467 0.00842296  0
0.000799575 0.00806885  0
0.000923999 0.00809294  0
0.000951231 0.00844667  0
0.000999381 0.00916629  0
0.000697038 0.00840025  0
0.000975306 0.00880648  0
0.00084821 0.00878327  0
0.000824134 0.00842346  0
0.000951205 0.00844657  0
0.000893862 0.00774025  0
0.00121141 0.00850564  0
0.000922534 0.00809341  0
0.00105264 0.00812294  0
0.00108131 0.0084761  0
0.000949864 0.00844715  0
0.00121545 0.00850413  0
0.00100318 0.00916484  0
0.00108266 0.00847564  0
0.00110931 0.00883449  0
0.00097652 0.00880599  0
0.00073722 0.00912545  0
0.000486633 0.00909392  0
0.000702574 0.00839907  0
0.000611926 0.00910968  0
0.000594603 0.00874649  0
0.000719897 0.00876226  0
0.000738396 0.00912508  0
0.000698728 0.00840016  0
0.000997702 0.00916641  0
0.000718562 0.00876262  0
0.000848215 0.00878329  0
0.000868049 0.00914575  0
0.000738421 0.00912519  0
0.00077034 0.00986217  0
0.00048303 0.00909495  0
0.000754381 0.00949368  0
0.000626685 0.00947856  0
0.000610725 0.00911007  0
0.000737188 0.00912555  0
0.00100132 0.00916525  0
0.000773719 0.00986106  0
0.000869256 0.0091454  0
0.000887522 0.00951316  0
0.000755454 0.00949331  0
0.0011452 0.00780582  0
0.000896142 0.00773863  0
0.00107394 0.00711765  0
0.00102067 0.00777223  0
0.000985043 0.00742814  0
0.00110957 0.00746174  0
0.00114665 0.00780525  0
0.00106931 0.00711935  0
0.00140957 0.00788439  0
0.00110798 0.0074623  0
0.00123944 0.00750187  0
0.00127811 0.00784482  0
0.00114667 0.00780535  0
0.00121352 0.00850556  0
0.000891746 0.00774029  0
0.00118009 0.00815545  0
0.00105263 0.00812293  0
0.00101921 0.00777282  0
0.00114518 0.00780593  0
0.001414 0.0078826  0
0.00121772 0.00850381  0
0.00127959 0.00784426  0
0.00131586 0.00819321  0
0.00118145 0.00815487  0
0.00132268 0.0072058  0
0.00107157 0.00711743  0
0.00122986 0.00653915  0
0.00119712 0.00716162  0
0.00115071 0.00682829  0
0.00127627 0.00687248  0
0.00132429 0.00720524  0
0.00141207 0.00788438  0
0.0010668 0.00711933  0
0.00136818 0.00754481  0
0.00123943 0.00750186  0
0.00119554 0.00716229  0
0.00132426 0.00720515  0
0.00122486 0.00654109  0
0.00159166 0.00730645  0
0.00127456 0.00687312  0
0.00140826 0.00692377  0
0.00145796 0.0072558  0
0.00132267 0.0072059  0
0.00159647 0.00730442  0
0.00141665 0.00788239  0
0.00145957 0.00725516  0
0.00150656 0.0075934  0
0.00136966 0.00754415  0
-0.000462299 0.00501818  0
-0.000519123 0.00565595  0
-0.000634662 0.0050791  0
-0.000490711 0.00533707  0
-0.000576892 0.00536753  0
-0.000548481 0.00504864  0
-0.000464188 0.00501799  0
-0.000299768 0.00497165  0
-0.000513807 0.00565655  0
-0.000381978 0.00499482  0
-0.000406788 0.0053141  0
-0.000488998 0.00533727  0
-0.000464122 0.0050179  0
-0.000629112 0.00507963  0
-0.000405746 0.00439713  0
-0.000546617 0.00504876  0
-0.000517429 0.00473838  0
-0.000434934 0.00470751  0
-0.000462344 0.00501807  0
-0.000411426 0.00439665  0
-0.000305218 0.0049711  0
-0.000436885 0.00470736  0
-0.000358322 0.00468388  0
-0.000383781 0.00499459  0
-0.000703258 0.00571922  0
-0.000636074 0.00507894  0
-0.000517683 0.00565618  0
-0.000669666 0.00539908  0
-0.000576878 0.00536756  0
-0.000610471 0.0056877  0
-0.000705049 0.00571899  0
-0.000512392 0.00565715  0
-0.000769753 0.00637448  0
-0.000608721 0.00568807  0
-0.000641072 0.00601582  0
-0.000737401 0.00604674  0
-0.000704996 0.0057189  0
-0.000901366 0.00579629  0
-0.000630534 0.00507988  0
-0.000803181 0.00575759  0
-0.00076595 0.00543809  0
-0.000667765 0.00539939  0
-0.00070323 0.00571933  0
-0.000774882 0.00637343  0
-0.000906746 0.00579527  0
-0.000739056 0.00604638  0
-0.000840814 0.00608435  0
-0.000804988 0.0057573  0
-0.000566055 0.00631837  0
-0.000519102 0.0056562  0
-0.000373735 0.00627526  0
-0.000542578 0.00598729  0
-0.000446418 0.00596573  0
-0.000469895 0.00629682  0
-0.000567676 0.00631809  0
-0.000768253 0.00637462  0
-0.000513911 0.00565703  0
-0.000667965 0.00634636  0
-0.000641082 0.00601583  0
-0.000540793 0.00598756  0
-0.000567722 0.00631819  0
-0.000368782 0.00627609  0
-0.000612557 0.00699481  0
-0.000468252 0.00629714  0
-0.000490669 0.00663545  0
-0.000590139 0.0066565  0
-0.000566022 0.00631848  0
-0.000617326 0.00699392  0
-0.000773263 0.00637373  0
-0.000591674 0.0066562  0
-0.000695294 0.00668382  0
-0.000669643 0.00634611  0
-0.000560379 0.00446396  0
-0.000404424 0.00439743  0
-0.000630411 0.00507932  0
-0.000482402 0.00443069  0
-0.000517418 0.00473837  0
-0.000595395 0.00477164  0
-0.000558422 0.00446401  0
-0.000487266 0.00386673  0
-0.000410164 0.00439694  0
-0.000522844 0.00416537  0
-0.000448715 0.00413183  0
-0.000484293 0.00443047  0
-0.000558379 0.00446413  0
-0.000636053 0.00507876  0
-0.000724649 0.0045461  0
-0.000597216 0.00477144  0
-0.000680351 0.00481243  0
-0.000641514 0.00450511  0
-0.000560301 0.00446387  0
-0.000718748 0.00454654  0
-0.000481271 0.0038671  0
-0.000639525 0.00450521  0
-0.00060001 0.00420682  0
-0.000520786 0.00416549  0
-0.000659894 0.00769058  0
-0.000892116 0.00773999  0
-0.000612683 0.00699521  0
-0.000776005 0.00771528  0
-0.000752399 0.0073676  0
-0.000636289 0.0073429  0
-0.000658482 0.00769092  0
-0.000617237 0.0069942  0
-0.000434759 0.00765322  0
-0.000637859 0.00734256  0
-0.000525998 0.00732371  0
-0.00054662 0.00767207  0
-0.000658453 0.00769103  0
-0.00070271 0.00839876  0
-0.000896461 0.0077389  0
-0.000680582 0.00804489  0
-0.000799586 0.00806883  0
-0.000777457 0.00771496  0
-0.000659927 0.00769068  0
-0.000430447 0.0076542  0
-0.000698608 0.00839981  0
-0.000545187 0.00767244  0
-0.000564528 0.008027  0
-0.000679267 0.00804525  0
-0.000836696 0.00705005  0
-0.000611055 0.00699528  0
-0.000893729 0.00773988  0
-0.000723875 0.00702267  0
-0.000752392 0.00736758  0
-0.000865212 0.00739497  0
-0.000835119 0.00705038  0
-0.000774826 0.00637366  0
-0.000615741 0.00699404  0
-0.000804973 0.00671202  0
-0.000695284 0.00668385  0
-0.00072543 0.00702221  0
-0.000835095 0.00705049  0
-0.000898222 0.00773856  0
-0.00107188 0.00711766  0
-0.000866658 0.00739452  0
-0.000985052 0.00742811  0
-0.000953489 0.00708407  0
-0.000836659 0.00704995  0
-0.00106715 0.00711901  0
-0.000769897 0.00637493  0
-0.000951903 0.00708448  0
-0.000918521 0.00674697  0
-0.000803278 0.00671244  0
-0.0004615 0.0083681  0
-0.000226079 0.0083476  0
-0.00048415 0.0090945  0
-0.000343789 0.00835785  0
-0.000355114 0.00872105  0
-0.000472825 0.0087313  0
-0.000460187 0.00836823  0
-0.000435819 0.00765339  0
-0.00023001 0.00834694  0
-0.000448003 0.00801081  0
-0.000332915 0.00800016  0
-0.000345098 0.00835758  0
-0.000460155 0.00836834  0
-0.000487856 0.00909377  0
-0.000701374 0.00839917  0
-0.000474006 0.00873105  0
-0.000594615 0.00874647  0
-0.000580765 0.00838375  0
-0.000461469 0.00836799  0
-0.000697424 0.00839995  0
-0.000431646 0.0076541  0
-0.000579447 0.00838397  0
-0.000564535 0.00802702  0
-0.000446557 0.00801104  0
-0.000241611 0.00907776  0
-0.000483427 0.00909466  0
-0.000226818 0.00834749  0
-0.000362519 0.00908621  0
-0.000355122 0.00872107  0
-0.000234214 0.00871262  0
-0.000240458 0.00907788  0
-0.000230611 0.00834712  0
-1.58324e-06 0.00907063  0
-0.000235535 0.0087125  0
-0.000116097 0.00870887  0
-0.000121021 0.00907426  0
-0.000240425 0.00907799  0
-0.000254032 0.00981889  0
-0.000486984 0.00909424  0
-0.000247228 0.00944844  0
-0.000370508 0.00945656  0
-0.000363705 0.00908612  0
-0.000241642 0.00907787  0
1.96742e-06 0.00907094  0
-0.000250718 0.00981926  0
-0.000119837 0.00907441  0
-0.000124375 0.0094451  0
-0.00024618 0.00944856  0
-0.000949891 0.00844705  0
-0.000898108 0.00773883  0
-0.000701042 0.00839887  0
-0.000923999 0.00809294  0
-0.000799575 0.00806885  0
-0.000825467 0.00842296  0
-0.000951231 0.00844667  0
-0.000697038 0.00840025  0
-0.000999381 0.00916629  0
-0.000824134 0.00842346  0
-0.00084821 0.00878327  0
-0.000975306 0.00880648  0
-0.000951205 0.00844657  0
-0.00121141 0.00850564  0
-0.000893862 0.00774025  0
-0.00108131 0.0084761  0
-0.00105264 0.00812294  0
-0.000922534 0.00809341  0
-0.000949864 0.00844715  0
-0.00100318 0.00916484  0
-0.00121545 0.00850413  0
-0.00097652 0.00880599  0
-0.00110931 0.00883449  0
-0.00108266 0.00847564  0
-0.00073722 0.00912545  0
-0.000702574 0.00839907  0
-0.000486633 0.00909392  0
-0.000719897 0.00876226  0
-0.000594603 0.00874649  0
-0.000611926 0.00910968  0
-0.000738396 0.00912508  0
-0.000997702 0.00916641  0
-0.000698728 0.00840016  0
-0.000868049 0.00914575  0
-0.000848215 0.00878329  0
-0.000718562 0.00876262  0
-0.000738421 0.00912519  0
-0.00048303 0.00909495  0
-0.00077034 0.00986217  0
-0.000610725 0.00911007  0
-0.000626685 0.00947856  0
-0.000754381 0.00949368  0
-0.000737188 0.00912555  0
-0.000773719 0.00986106  0
-0.00100132 0.00916525  0
-0.000755454 0.00949331  0
-0.000887522 0.00951316  0
-0.000869256 0.0091454  0
-0.000991621 0.00644998  0
-0.00122229 0.00654064  0
-0.000903385 0.0057967  0
-0.00110696 0.00649531  0
-0.00106284 0.00616867  0
-0.000947503 0.00612334  0
-0.000989955 0.00645046  0
-0.000908685 0.00579525  0
-0.000772924 0.00637352  0
-0.00094932 0.00612286  0
-0.000840804 0.00608439  0
-0.000881439 0.00641199  0
-0.000989937 0.00645057  0
-0.00107403 0.00711743  0
-0.00122741 0.0065391  0
-0.00103198 0.006784  0
-0.00115072 0.00682826  0
-0.00110867 0.00649484  0
-0.000991662 0.00645007  0
-0.000767871 0.00637495  0
-0.00106915 0.00711896  0
-0.000879767 0.00641251  0
-0.000918513 0.00674695  0
-0.00103041 0.00678451  0
-0.000817031 0.00516308  0
-0.000628672 0.00507997  0
-0.000903207 0.00579619  0
-0.000722852 0.00512153  0
-0.00076594 0.00543808  0
-0.000860119 0.00547964  0
-0.000815088 0.00516344  0
-0.000908705 0.00579509  0
-0.0010168 0.00526163  0
-0.000861897 0.00547927  0
-0.000962751 0.00552836  0
-0.000915943 0.00521254  0
-0.00081511 0.00516332  0
-0.000726359 0.00454598  0
-0.000634313 0.00507897  0
-0.000770734 0.00485465  0
-0.000680336 0.00481247  0
-0.000724711 0.00512114  0
-0.00081697 0.00516299  0
-0.00101103 0.00526269  0
-0.000720447 0.00454693  0
-0.000913999 0.00521284  0
-0.000865737 0.00490481  0
-0.000768708 0.00485496  0
-0.00112485 0.00589395  0
-0.00090099 0.00579666  0
-0.00122466 0.00654066  0
-0.00101292 0.00584531  0
-0.00106283 0.00616866  0
-0.00117476 0.00621731  0
-0.00112301 0.00589439  0
-0.00101908 0.0052617  0
-0.000906406 0.00579511  0
-0.00107105 0.00557804  0
-0.000962743 0.0055284  0
-0.00101471 0.00584475  0
-0.001123 0.00589451  0
-0.00122991 0.00653899  0
-0.00136304 0.00600619  0
-0.00117645 0.00621675  0
-0.00129647 0.00627259  0
-0.00124302 0.00595035  0
-0.0011248 0.00589387  0
-0.00135754 0.00600786  0
-0.00101341 0.00526326  0
-0.00124117 0.00595086  0
-0.00118548 0.00563556  0
-0.0010691 0.00557856  0
-0.0011452 0.00780582  0
-0.00107394 0.00711765  0
-0.000896142 0.00773863  0
-0.00110957 0.00746174  0
-0.000985043 0.00742814  0
-0.00102067 0.00777223  0
-0.00114665 0.00780525  0
-0.00140957 0.00788439  0
-0.00106931 0.00711935  0
-0.00127811 0.00784482  0
-0.00123944 0.00750187  0
-0.00110798 0.0074623  0
-0.00114667 0.00780535  0
-0.000891746 0.00774029  0
-0.00121352 0.00850556  0
-0.00101921 0.00777282  0
-0.00105263 0.00812293  0
-0.00118009 0.00815545  0
-0.00114518 0.00780593  0
-0.00121772 0.00850381  0
-0.001414 0.0078826  0
-0.00118145 0.00815487  0
-0.00131586 0.00819321  0
-0.00127959 0.00784426  0
-0.00132268 0.0072058  0
-0.00122986 0.00653915  0
-0.00107157 0.00711743  0
-0.00127627 0.00687248  0
-0.00115071 0.00682829  0
-0.00119712 0.00716162  0
-0.00132429 0.00720524  0
-0.0010668 0.00711933  0
-0.00141207 0.00788438  0
-0.00119554 0.00716229  0
-0.00123943 0.00750186  0
-0.00136818 0.00754481  0
-0.00132426 0.00720515  0
-0.00159166 0.00730645  0
-0.00122486 0.00654109  0
-0.00145796 0.0072558  0
-0.00140826 0.00692377  0
-0.00127456 0.00687312  0
-0.00132267 0.0072059  0
-0.00141665 0.00788239  0
-0.00159647 0.00730442  0
-0.00136966 0.00754415  0
-0.00150656 0.0075934  0
-0.00145957 0.00725516  0
-0.000626886 0.00395491  0
-0.000726296 0.00454588  0
-0.000788769 0.00405876  0
-0.000676591 0.0042504  0
-0.000757532 0.00430232  0
-0.000707827 0.00400684  0
-0.000629014 0.00395481  0
-0.000479713 0.0038674  0
-0.000720286 0.00454626  0
-0.000554363 0.0039111  0
-0.000599999 0.00420683  0
-0.00067465 0.00425053  0
-0.000628924 0.00395473  0
-0.000782457 0.00405897  0
-0.000528757 0.00338221  0
-0.00070569 0.00400685  0
-0.000655607 0.00372059  0
-0.00057884 0.00366847  0
-0.000626924 0.00395478  0
-0.000535129 0.00338211  0
-0.000485785 0.00386712  0
-0.000581027 0.00366845  0
-0.000510457 0.00362462  0
-0.000556355 0.00391095  0
-0.00090211 0.0046528  0
-0.000790728 0.00405874  0
-0.000724305 0.00454601  0
-0.000846419 0.00435577  0
-0.000757516 0.00430237  0
-0.000813208 0.00459941  0
-0.000904177 0.00465259  0
-0.000718281 0.00454695  0
-0.00101317 0.00526268  0
-0.000811229 0.00459977  0
-0.000865726 0.00490481  0
-0.000958674 0.00495764  0
-0.000904108 0.00465251  0
-0.00109764 0.00477573  0
-0.000784395 0.00405959  0
-0.00100087 0.00471412  0
-0.000941016 0.00441766  0
-0.000844252 0.00435605  0
-0.0009021 0.00465294  0
-0.00101907 0.00526161  0
-0.00110384 0.00477473  0
-0.000960583 0.00495728  0
-0.00106145 0.00501817  0
-0.00100297 0.00471383  0
-0.000671144 0.00349108  0
-0.000527028 0.00338244  0
-0.000784168 0.00405878  0
-0.000599086 0.00343676  0
-0.000655598 0.00372061  0
-0.000727656 0.00377493  0
-0.000668887 0.00349091  0
-0.000556418 0.00294233  0
-0.000533514 0.00338257  0
-0.000612653 0.00321662  0
-0.000544966 0.00316245  0
-0.000601201 0.00343674  0
-0.000668857 0.00349107  0
-0.000790624 0.00405874  0
-0.000827778 0.00361736  0
-0.00072974 0.0037749  0
-0.000809201 0.00383805  0
-0.000748317 0.00355421  0
-0.000671038 0.003491  0
-0.000820953 0.00361718  0
-0.000549564 0.00294197  0
-0.000745995 0.00355409  0
-0.000685258 0.00327958  0
-0.000610301 0.00321649  0
0.00170266 0.00797882  0
0.0015947 0.00730686  0
0.00200881 0.00808819  0
0.00164868 0.00764284  0
0.00180176 0.00769752  0
0.00185574 0.00803351  0
0.00170118 0.00797961  0
0.00141372 0.00788236  0
0.00159938 0.0073045  0
0.00155745 0.00793099  0
0.00150655 0.00759343  0
0.00165028 0.00764205  0
0.00170117 0.0079797  0
0.00201332 0.00808574  0
0.0018026 0.00866322  0
0.00185725 0.00803272  0
0.00190796 0.00837448  0
0.00175189 0.00832146  0
0.00170269 0.0079789  0
0.0017983 0.00866562  0
0.00140925 0.00788468  0
0.00175049 0.00832226  0
0.00160378 0.00827515  0
0.00155597 0.00793179  0
0.0018932 0.00742422  0
0.00201211 0.00808826  0
0.00159139 0.00730677  0
0.00195266 0.00775624  0
0.00180175 0.00769752  0
0.0017423 0.0073655  0
0.00189159 0.00742501  0
0.00159617 0.00730423  0
0.00176592 0.00677285  0
0.00174388 0.00736462  0
0.00168105 0.00703854  0
0.00182875 0.00709893  0
0.00189159 0.0074251  0
0.00221423 0.00755518  0
0.00201672 0.00808565  0
0.00205291 0.00749014  0
0.00211548 0.00782041  0
0.00195416 0.00775537  0
0.00189317 0.00742415  0
0.00176095 0.00677543  0
0.00220943 0.00755784  0
0.00182706 0.00709979  0
0.00198519 0.00716664  0
0.0020513 0.007491  0
0.00149632 0.0085796  0
0.0017995 0.00866343  0
0.00157594 0.00928481  0
0.00164791 0.00862152  0
0.00168772 0.00897412  0
0.00153613 0.00893221  0
0.00149769 0.0085788  0
0.00141221 0.00788471  0
0.00179535 0.00866562  0
0.00145495 0.00823176  0
0.00160378 0.00827517  0
0.00164652 0.00862221  0
0.00149771 0.00857889  0
0.00157202 0.00928696  0
0.00121105 0.00850591  0
0.00153486 0.00893292  0
0.00139153 0.00889644  0
0.00135438 0.0085424  0
0.00149634 0.00857951  0
0.00121516 0.00850385  0
0.00141654 0.0078826  0
0.00135575 0.00854168  0
0.00131585 0.00819323  0
0.00145644 0.00823106  0
0.00212507 0.00876699  0
0.00179926 0.00866319  0
0.00201665 0.00808582  0
0.00196216 0.00871509  0
0.00190795 0.0083745  0
0.00207086 0.0084264  0
0.00212648 0.00876616  0
0.00222776 0.00945824  0
0.00179505 0.00866587  0
0.00217712 0.0091122  0
0.0020114 0.00906205  0
0.00196076 0.00871601  0
0.00212646 0.00876608  0
0.00201225 0.00808853  0
0.00247311 0.00888129  0
0.00206936 0.00842731  0
0.00224268 0.00848491  0
0.00229979 0.00882368  0
0.00212505 0.00876707  0
0.00247735 0.0088785  0
0.00223182 0.00945549  0
0.0023012 0.00882278  0
0.00235459 0.009167  0
0.00217844 0.00911128  0
0.00188856 0.00936672  0
0.00157294 0.00928484  0
0.00180248 0.00866343  0
0.00173075 0.00932578  0
0.00168771 0.00897414  0
0.00184552 0.00901508  0
0.00188983 0.00936589  0
0.00179841 0.0086659  0
0.00222439 0.00945824  0
0.00184412 0.00901589  0
0.0020114 0.00906207  0
0.00205711 0.00941206  0
0.00188984 0.00936598  0
0.00196948 0.0100797  0
0.00156908 0.00928726  0
0.00192966 0.00972285  0
0.00176928 0.0096835  0
0.00172946 0.00932662  0
0.00188853 0.0093668  0
0.00222829 0.0094557  0
0.00197317 0.0100772  0
0.00205841 0.00941125  0
0.00210073 0.00976647  0
0.00193085 0.00972202  0
0.00127876 0.00922062  0
0.00121364 0.00850588  0
0.00156944 0.00928703  0
0.0012462 0.00886325  0
0.00139154 0.00889645  0
0.0014241 0.00925382  0
0.00127755 0.00922123  0
0.00100102 0.00916493  0
0.00121758 0.00850408  0
0.00113928 0.00919308  0
0.0011093 0.00883451  0
0.00124756 0.00886266  0
0.00127752 0.00922133  0
0.00157318 0.00928514  0
0.00133761 0.00994661  0
0.00142535 0.00925324  0
0.00145539 0.00961587  0
0.00130756 0.00958397  0
0.00127878 0.00922073  0
0.0013341 0.00994844  0
0.000997313 0.00916669  0
0.00130644 0.00958458  0
0.00116571 0.00955756  0
0.00113805 0.00919371  0
0.00235042 0.00821317  0
0.00201307 0.00808556  0
0.00221788 0.00755531  0
0.00218175 0.00814937  0
0.00211547 0.00782044  0
0.00228415 0.00788424  0
0.00235191 0.0082122  0
0.00221324 0.00755824  0
0.0027119 0.0083519  0
0.00228257 0.00788522  0
0.00246257 0.00795507  0
0.0025319 0.00828205  0
0.00235193 0.00821226  0
0.00247677 0.00888135  0
0.00200858 0.00808845  0
0.00241435 0.0085468  0
0.00224268 0.0084849  0
0.00218025 0.00815035  0
0.00235042 0.00821324  0
0.0027164 0.00834892  0
0.00248112 0.00887841  0
0.00253341 0.00828108  0
0.00259876 0.00861366  0
0.00241577 0.00854582  0
0.0025644 0.00770792  0
0.00221395 0.00755506  0
0.00240635 0.00707433  0
0.00238918 0.00763149  0
0.00231015 0.00731469  0
0.00248538 0.00739113  0
0.00256597 0.00770694  0
0.00271584 0.00835201  0
0.00220928 0.00755812  0
0.0026409 0.00802947  0
0.00246256 0.00795506  0
0.00238762 0.00763253  0
0.00256594 0.0077069  0
0.00240157 0.00707745  0
0.00294078 0.00787229  0
0.00248375 0.00739217  0
0.00267117 0.00747487  0
0.00275336 0.00778959  0
0.0025644 0.00770799  0
0.00294542 0.00786914  0
0.00272037 0.0083489  0
0.00275491 0.00778856  0
0.0028329 0.00810902  0
0.00264239 0.00802845  0
0.0010467 0.00990026  0
0.00108561 0.0106455  0
0.00076871 0.00986259  0
0.00106615 0.0102729  0
0.000927158 0.010254  0
0.000907704 0.00988143  0
0.0010456 0.00990064  0
0.000772003 0.0098612  0
0.00100302 0.00916515  0
0.000908804 0.00988092  0
0.000887509 0.00951318  0
0.00102431 0.0095329  0
0.00104557 0.00990074  0
0.00133525 0.00994704  0
0.00108868 0.010644  0
0.00119041 0.00992389  0
0.00121196 0.0102955  0
0.00106712 0.0102724  0
0.00104668 0.00990014  0
0.000999484 0.00916661  0
0.00133193 0.00994856  0
0.00102308 0.00953337  0
0.00116571 0.00955758  0
0.00118931 0.00992435  0
0.000802313 0.0106126  0
0.00077043 0.00986249  0
0.00108389 0.0106456  0
0.000786372 0.0102375  0
0.000927162 0.0102541  0
0.000943104 0.0106291  0
0.000801384 0.0106129  0
0.000528768 0.0105877  0
0.000773553 0.00986142  0
0.000665076 0.0106003  0
0.00065116 0.0102246  0
0.000787469 0.0102372  0
0.000801341 0.010613  0
0.00108678 0.0106445  0
0.000830199 0.0113718  0
0.000944063 0.0106288  0
0.000958492 0.0110082  0
0.00081577 0.0109924  0
0.000802338 0.0106127  0
0.000827545 0.0113729  0
0.000525882 0.0105887  0
0.000814942 0.0109928  0
0.000676713 0.0109808  0
0.00066411 0.0106007  0
0.000508751 0.0098362  0
0.000484263 0.00909485  0
0.000769119 0.00986232  0
0.000496507 0.00946552  0
0.000626691 0.00947859  0
0.000638935 0.00984926  0
0.000507676 0.00983655  0
0.000772334 0.00986154  0
0.000530014 0.0105875  0
0.000640005 0.00984904  0
0.000651174 0.0102245  0
0.000518845 0.0102121  0
0.000507713 0.00983644  0
0.000253282 0.00981905  0
0.000487712 0.00909412  0
0.000380498 0.00982775  0
0.000370497 0.00945658  0
0.000497712 0.00946528  0
0.000508779 0.00983631  0
0.000527042 0.0105883  0
0.000250076 0.00981972  0
0.000517911 0.0102123  0
0.000388559 0.010204  0
0.000379428 0.00982802  0
0.00138576 0.0106893  0
0.00108648 0.0106442  0
0.00133741 0.00994694  0
0.00123612 0.0106667  0
0.00121195 0.0102955  0
0.00136159 0.0103181  0
0.00138675 0.0106887  0
0.00133417 0.00994871  0
0.0017006 0.0107421  0
0.00136046 0.0103187  0
0.00151738 0.0103454  0
0.00154367 0.0107154  0
0.00138676 0.0106888  0
0.00143059 0.0114403  0
0.00108347 0.0106459  0
0.00140867 0.0110646  0
0.00125703 0.0110431  0
0.00123511 0.0106674  0
0.00138572 0.0106894  0
0.00170363 0.0107403  0
0.00143338 0.0114385  0
0.00154468 0.0107149  0
0.00156851 0.0110894  0
0.00140955 0.011064  0
0.00164172 0.0100089  0
0.00133498 0.0099467  0
0.00157578 0.00928508  0
0.00148835 0.00997781  0
0.00145538 0.00961589  0
0.00160875 0.009647  0
0.00164286 0.0100083  0
0.00170323 0.010742  0
0.00133154 0.00994879  0
0.00167305 0.0103751  0
0.00151738 0.0103454  0
0.0014872 0.00997854  0
0.00164285 0.0100082  0
0.00157211 0.00928723  0
0.00196646 0.0100798  0
0.00160748 0.00964771  0
0.00176928 0.00968352  0
0.00180465 0.010044  0
0.00164168 0.010009  0
0.00196994 0.0100776  0
0.00170649 0.0107398  0
0.00180581 0.0100433  0
0.00183821 0.0104087  0
0.00167408 0.0103744  0
-5.47489e-07 0.00981521  0
0.000253659 0.00981937  0
1.4695e-06 0.0105691  0
0.000126556 0.00981729  0
0.000127564 0.0101942  0
4.61005e-07 0.0101922  0
5.12596e-07 0.0098151  0
-1.71053e-06 0.00907082  0
0.000250479 0.00981942  0
-5.98967e-07 0.00944296  0
0.000124384 0.00944512  0
0.000125496 0.00981726  0
5.47489e-07 0.00981521  0
-1.4695e-06 0.0105691  0
-0.000253659 0.00981937  0
-4.61005e-07 0.0101922  0
-0.000127564 0.0101942  0
-0.000126556 0.00981729  0
-5.12596e-07 0.0098151  0
-0.000250479 0.00981942  0
1.71053e-06 0.00907082  0
-0.000125496 0.00981726  0
-0.000124384 0.00944512  0
5.98967e-07 0.00944296  0
0.000261795 0.0105751  0
1.21104e-06 0.0105693  0
0.000253895 0.00981926  0
0.000131503 0.0105722  0
0.000127553 0.0101943  0
0.000257845 0.0101972  0
0.0002627 0.0105749  0
0.000250828 0.00981961  0
0.000526306 0.0105884  0
0.000256764 0.0101973  0
0.000388567 0.010204  0
0.000394503 0.0105817  0
0.000262735 0.0105751  0
0.000269897 0.0113394  0
-1.61731e-06 0.0105696  0
0.000266316 0.0109572  0
0.00013414 0.0109545  0
0.000130559 0.0105723  0
0.000261754 0.0105752  0
0.000529135 0.010588  0
0.000272487 0.011339  0
0.000395444 0.0105816  0
0.000400811 0.0109635  0
0.000267121 0.0109571  0
-0.000261795 0.0105751  0
-0.000253895 0.00981926  0
-1.21104e-06 0.0105693  0
-0.000257845 0.0101972  0
-0.000127553 0.0101943  0
-0.000131503 0.0105722  0
-0.0002627 0.0105749  0
-0.000526306 0.0105884  0
-0.000250828 0.00981961  0
-0.000394503 0.0105817  0
-0.000388567 0.010204  0
-0.000256764 0.0101973  0
-0.000262735 0.0105751  0
1.61731e-06 0.0105696  0
-0.000269897 0.0113394  0
-0.000130559 0.0105723  0
-0.00013414 0.0109545  0
-0.000266316 0.0109572  0
-0.000261754 0.0105752  0
-0.000272487 0.011339  0
-0.000529135 0.010588  0
-0.000267121 0.0109571  0
-0.000400811 0.0109635  0
-0.000395444 0.0105816  0
-0.000507713 0.00983644  0
-0.000487712 0.00909412  0
-0.000253282 0.00981905  0
-0.000497712 0.00946528  0
-0.000370497 0.00945658  0
-0.000380498 0.00982775  0
-0.000508779 0.00983631  0
-0.000250076 0.00981972  0
-0.000527042 0.0105883  0
-0.000379428 0.00982802  0
-0.000388559 0.010204  0
-0.000517911 0.0102123  0
-0.000508751 0.0098362  0
-0.000769119 0.00986232  0
-0.000484263 0.00909485  0
-0.000638935 0.00984926  0
-0.000626691 0.00947859  0
-0.000496507 0.00946552  0
-0.000507676 0.00983655  0
-0.000530014 0.0105875  0
-0.000772334 0.00986154  0
-0.000518845 0.0102121  0
-0.000651174 0.0102245  0
-0.000640005 0.00984904  0
0.00054553 0.0113529  0
0.000828822 0.0113723  0
0.000562839 0.0121243  0
0.000687176 0.0113626  0
0.000695831 0.0117483  0
0.000554185 0.0117386  0
0.000546374 0.0113526  0
0.000527121 0.0105886  0
0.000826319 0.011373  0
0.000536748 0.0109706  0
0.00067672 0.0109808  0
0.000686346 0.0113628  0
0.000546409 0.0113527  0
0.000560566 0.0121249  0
0.000269223 0.0113398  0
0.000553487 0.0117388  0
0.000414894 0.0117324  0
0.000407816 0.0113462  0
0.000545582 0.0113528  0
0.000271733 0.0113392  0
0.000529862 0.010588  0
0.000408657 0.011346  0
0.000400797 0.0109636  0
0.000537722 0.0109704  0
0.00112202 0.0114029  0
0.000828468 0.011372  0
0.00108848 0.0106444  0
0.000975242 0.0113874  0
0.000958476 0.0110082  0
0.00110525 0.0110236  0
0.00112286 0.0114025  0
0.00115303 0.0121689  0
0.000825872 0.0113732  0
0.00113795 0.0117857  0
0.000989453 0.0117711  0
0.000974368 0.0113879  0
0.00112285 0.0114024  0
0.00108566 0.0106458  0
0.0014284 0.0114404  0
0.00110425 0.0110241  0
0.00125703 0.0110431  0
0.00127562 0.0114214  0
0.00112196 0.011403  0
0.00143099 0.011439  0
0.0011554 0.0121675  0
0.00127648 0.011421  0
0.00129319 0.0118033  0
0.00113868 0.0117853  0
0.000851527 0.0121438  0
0.000561605 0.0121244  0
0.000830023 0.0113723  0
0.000706566 0.0121341  0
0.000695814 0.0117483  0
0.000840775 0.011758  0
0.000852218 0.0121435  0
0.000827579 0.0113732  0
0.00115134 0.012169  0
0.000839899 0.0117583  0
0.000989458 0.0117711  0
0.00100178 0.0121563  0
0.00085225 0.0121436  0
0.000871567 0.0129215  0
0.000559377 0.0121252  0
0.000861909 0.0125326  0
0.000715472 0.0125234  0
0.000705813 0.0121344  0
0.000851464 0.0121439  0
0.00115354 0.0121681  0
0.000873558 0.0129207  0
0.0010025 0.012156  0
0.00101355 0.0125444  0
0.000862511 0.0125323  0
3.90808e-07 0.0113361  0
-1.35784e-06 0.0105695  0
0.000269659 0.0113395  0
-4.83515e-07 0.0109528  0
0.000134151 0.0109545  0
0.000135025 0.0113378  0
-4.36378e-07 0.0113362  0
0.000272141 0.0113395  0
1.12411e-06 0.0121102  0
0.000135852 0.0113379  0
0.000136632 0.0117248  0
3.43868e-07 0.0117232  0
-3.90808e-07 0.0113361  0
-0.000269659 0.0113395  0
1.35784e-06 0.0105695  0
-0.000135025 0.0113378  0
-0.000134151 0.0109545  0
4.83515e-07 0.0109528  0
4.36378e-07 0.0113362  0
-1.12411e-06 0.0121102  0
-0.000272141 0.0113395  0
-3.43868e-07 0.0117232  0
-0.000136632 0.0117248  0
-0.000135852 0.0113379  0
0.000279146 0.0121146  0
0.000269967 0.0113398  0
0.000559842 0.012125  0
0.000274557 0.0117272  0
0.000414904 0.0117324  0
0.000419494 0.0121198  0
0.000278474 0.0121147  0
8.67261e-07 0.0121102  0
0.00027237 0.0113395  0
0.000139671 0.0121125  0
0.000136618 0.0117248  0
0.000275422 0.0117271  0
0.000278415 0.0121148  0
0.000562014 0.0121247  0
0.00028665 0.0128956  0
0.000420214 0.0121198  0
0.000424332 0.0125102  0
0.000282533 0.0125052  0
0.000279194 0.0121147  0
0.000284697 0.0128959  0
-1.31454e-06 0.0121105  0
0.000281946 0.0125053  0
0.000141691 0.0125032  0
0.00013894 0.0121126  0
0.00232332 0.0101626  0
0.0024065 0.0108802  0
0.0019661 0.01008  0
0.00236491 0.0105214  0
0.0021863 0.0104801  0
0.00214471 0.0101213  0
0.0023221 0.0101634  0
0.00196976 0.0100773  0
0.00223168 0.0094557  0
0.00214593 0.0101203  0
0.00210072 0.00976648  0
0.00227689 0.00980956  0
0.00232208 0.0101635  0
0.00270064 0.0102558  0
0.00241002 0.0108774  0
0.00251136 0.0102096  0
0.00255533 0.0105666  0
0.00236605 0.0105205  0
0.00232332 0.0101625  0
0.00222782 0.00945846  0
0.00269693 0.0102586  0
0.00227557 0.00981047  0
0.00246237 0.00985853  0
0.00251012 0.0102105  0
0.00204401 0.0108053  0
0.00196953 0.0100799  0
0.00240306 0.0108803  0
0.00200677 0.0104426  0
0.00218629 0.0104801  0
0.00222353 0.0108428  0
0.00204294 0.0108061  0
0.00170342 0.0107399  0
0.00197297 0.0100775  0
0.00187318 0.010773  0
0.0018382 0.0104087  0
0.00200796 0.0104418  0
0.0020429 0.0108062  0
0.00240633 0.0108778  0
0.00211067 0.0115409  0
0.00222462 0.010842  0
0.0022585 0.0112093  0
0.00207679 0.0111735  0
0.002044 0.0108054  0
0.00210762 0.0115434  0
0.00170019 0.0107423  0
0.00207581 0.0111744  0
0.0019039 0.0111428  0
0.0018721 0.0107738  0
0.00259547 0.00956286  0
0.00247686 0.00888156  0
0.00298424 0.00968216  0
0.00253616 0.00922221  0
0.00273055 0.00928186  0
0.00278985 0.00962251  0
0.00259413 0.00956387  0
0.00222812 0.00945546  0
0.00248104 0.00887857  0
0.00241112 0.00950966  0
0.00235458 0.00916701  0
0.00253759 0.00922122  0
0.00259411 0.00956393  0
0.0029883 0.00967911  0
0.00270456 0.0102556  0
0.00279121 0.00962152  0
0.00284643 0.00996734  0
0.00264934 0.00990975  0
0.00259547 0.00956293  0
0.00270066 0.0102586  0
0.0022241 0.00945842  0
0.00264807 0.00991077  0
0.00246238 0.00985851  0
0.00240979 0.00951068  0
0.00285919 0.00900977  0
0.00298821 0.00968223  0
0.00247289 0.00888148  0
0.0029237 0.009346  0
0.00273055 0.00928185  0
0.00266604 0.00894562  0
0.00285776 0.00901078  0
0.00247717 0.00887833  0
0.00272035 0.00834903  0
0.00266746 0.00894455  0
0.00259876 0.00861368  0
0.00278905 0.0086799  0
0.00285774 0.00901083  0
0.00326818 0.00915046  0
0.00299239 0.00967904  0
0.00306296 0.00908065  0
0.00313028 0.00941475  0
0.00292506 0.00934493  0
0.00285917 0.00900972  0
0.00271595 0.0083522  0
0.00326389 0.00915367  0
0.00278756 0.00868096  0
0.00298992 0.00875294  0
0.00306153 0.00908169  0
0.00279765 0.0109663  0
0.00240623 0.0108774  0
0.00270439 0.0102558  0
0.00260194 0.0109219  0
0.00255531 0.0105666  0
0.00275102 0.010611  0
0.00279883 0.0109653  0
0.00270067 0.0102588  0
0.00321369 0.0110639  0
0.00274975 0.010612  0
0.00295718 0.0106613  0
0.00300626 0.0110146  0
0.00279882 0.0109654  0
0.00288415 0.0116855  0
0.00240268 0.0108804  0
0.00284149 0.0113255  0
0.00264342 0.011283  0
0.00260075 0.0109229  0
0.00279762 0.0109664  0
0.0032173 0.0110608  0
0.00288759 0.0116825  0
0.00300746 0.0110136  0
0.00305245 0.0113716  0
0.0028426 0.0113244  0
0.00310862 0.0103671  0
0.00270055 0.0102555  0
0.00299229 0.00967918  0
0.00290458 0.0103113  0
0.00284642 0.00996735  0
0.00305046 0.0100231  0
0.00310993 0.0103661  0
0.00321775 0.0110639  0
0.00269663 0.0102587  0
0.00316384 0.010715  0
0.00295719 0.0106613  0
0.00290328 0.0103124  0
0.00310993 0.010366  0
0.00298824 0.00968239  0
0.00354246 0.0104882  0
0.00304908 0.0100242  0
0.00326535 0.0100853  0
0.00332619 0.0104271  0
0.0031086 0.0103671  0
0.00354644 0.0104849  0
0.00322159 0.0110606  0
0.00332752 0.010426  0
0.00338401 0.0107728  0
0.00316509 0.0107139  0
0.00175934 0.0114871  0
0.00180632 0.012243  0
0.00142795 0.0114406  0
0.00178283 0.011865  0
0.00161714 0.0118418  0
0.00159365 0.0114638  0
0.00175844 0.0114876  0
0.00143072 0.0114386  0
0.00170625 0.0107402  0
0.00159458 0.0114631  0
0.00156849 0.0110894  0
0.00173235 0.0111139  0
0.00175839 0.0114877  0
0.00210732 0.0115414  0
0.00180888 0.0122409  0
0.00193286 0.0115146  0
0.0019581 0.0118912  0
0.00178364 0.0118643  0
0.00175934 0.0114869  0
0.00170326 0.0107422  0
0.00210453 0.0115435  0
0.0017313 0.0111146  0
0.0019039 0.0111429  0
0.00193194 0.0115152  0
0.00147128 0.012202  0
0.00143059 0.0114405  0
0.00180367 0.0122431  0
0.00145094 0.0118212  0
0.00161713 0.0118418  0
0.00163748 0.0122226  0
0.00147054 0.0122025  0
0.0011532 0.0121677  0
0.00143315 0.0114389  0
0.00131187 0.0121851  0
0.00129318 0.0118033  0
0.00145184 0.0118207  0
0.00147048 0.0122026  0
0.001806 0.0122416  0
0.0015069 0.0129713  0
0.00163824 0.0122221  0
0.00165645 0.0126064  0
0.00148869 0.0125869  0
0.00147129 0.0122021  0
0.00150479 0.0129728  0
0.00115087 0.0121692  0
0.00148804 0.0125875  0
0.00132783 0.012571  0
0.00131108 0.0121856  0
0.00248217 0.0116096  0
0.00210718 0.011541  0
0.00240978 0.0108777  0
0.00229468 0.0115753  0
0.00225848 0.0112093  0
0.00244598 0.0112436  0
0.00248318 0.0116087  0
0.00254857 0.0123497  0
0.0021041 0.0115436  0
0.00251588 0.0119792  0
0.00232634 0.0119466  0
0.00229364 0.0115762  0
0.0024832 0.0116086  0
0.00240649 0.0108804  0
0.00288032 0.0116856  0
0.00244485 0.0112445  0
0.00264341 0.011283  0
0.00268176 0.0116471  0
0.00248214 0.0116096  0
0.00288345 0.0116829  0
0.00255149 0.012347  0
0.00268279 0.0116462  0
0.00271747 0.0120149  0
0.00251681 0.0119783  0
0.0021648 0.0122923  0
0.00180578 0.0122411  0
0.00211038 0.0115413  0
0.00198529 0.0122667  0
0.00195808 0.0118912  0
0.00213759 0.0119168  0
0.00216565 0.0122916  0
0.00210759 0.0115435  0
0.00254506 0.0123498  0
0.00213662 0.0119175  0
0.00232632 0.0119467  0
0.00235535 0.0123207  0
0.00216563 0.0122917  0
0.00221432 0.0130509  0
0.0018032 0.0122433  0
0.00218998 0.0126713  0
0.00200876 0.0126471  0
0.00198442 0.0122675  0
0.00216475 0.0122924  0
0.00254765 0.0123475  0
0.00221669 0.0130487  0
0.0023562 0.01232  0
0.00238217 0.0126981  0
0.00219072 0.0126706  0
0.00311393 0.00850542  0
0.00294512 0.00787257  0
0.00353565 0.00867496  0
0.00302953 0.008189  0
0.00324039 0.00827376  0
0.00332479 0.00859019  0
0.00311248 0.00850652  0
0.00271618 0.00834881  0
0.00294962 0.00786926  0
0.00291433 0.00842766  0
0.0028329 0.00810903  0
0.00303105 0.00818789  0
0.00311247 0.00850657  0
0.00354005 0.00867163  0
0.00327239 0.00915046  0
0.00332626 0.0085891  0
0.00340622 0.00891104  0
0.00319243 0.00882851  0
0.00311395 0.00850546  0
0.00326806 0.00915376  0
0.00271176 0.0083521  0
0.00319101 0.00882961  0
0.00298991 0.00875293  0
0.00291286 0.00842878  0
0.0033601 0.00805171  0
0.00354002 0.00867503  0
0.00294073 0.00787249  0
0.00345006 0.00836337  0
0.00324038 0.00827376  0
0.00315041 0.0079621  0
0.00335861 0.00805282  0
0.00294519 0.00786909  0
0.00316963 0.00744085  0
0.0031519 0.00796095  0
0.00305741 0.00765497  0
0.00326412 0.00774684  0
0.00335861 0.00805286  0
0.00380454 0.00824385  0
0.00354438 0.00867163  0
0.00358158 0.00814836  0
0.00367446 0.00845774  0
0.0034515 0.00836224  0
0.00336007 0.00805169  0
0.00316513 0.00744429  0
0.00380014 0.00824728  0
0.0032626 0.00774799  0
0.00348264 0.00784578  0
0.00358011 0.00814948  0
0.00371073 0.00931157  0
0.00326803 0.00915037  0
0.00354441 0.00867173  0
0.00348938 0.00923097  0
0.00340622 0.00891105  0
0.00362757 0.00899165  0
0.00371215 0.00931046  0
0.0038694 0.00996091  0
0.00326376 0.00915379  0
0.00379078 0.00963568  0
0.00356658 0.00955735  0
0.00348796 0.00923212  0
0.00371214 0.00931043  0
0.00354008 0.00867515  0
0.00418106 0.00948304  0
0.00362611 0.00899279  0
0.00386057 0.0090791  0
0.0039466 0.00939674  0
0.00371072 0.0093116  0
0.00418533 0.00947962  0
0.00387361 0.00995749  0
0.00394802 0.00939561  0
0.00402947 0.00971856  0
0.00379216 0.00963455  0
0.00341325 0.00981484  0
0.00298819 0.00967895  0
0.00327236 0.00915057  0
0.00320072 0.0097469  0
0.00313028 0.00941476  0
0.00334281 0.00948271  0
0.00341463 0.00981373  0
0.00326811 0.00915391  0
0.00386505 0.0099608  0
0.00334137 0.00948382  0
0.00356658 0.00955735  0
0.00363984 0.00988727  0
0.00341464 0.00981377  0
0.00354668 0.0104883  0
0.00298403 0.00968228  0
0.00348066 0.010151  0
0.00326535 0.0100853  0
0.00319933 0.00974802  0
0.00341324 0.00981488  0
0.00386923 0.00995745  0
0.00355078 0.0104849  0
0.00364124 0.00988616  0
0.00371001 0.0102212  0
0.00348201 0.0101499  0
0.0040012 0.00885856  0
0.00353988 0.00867159  0
0.00380905 0.0082439  0
0.00377054 0.00876508  0
0.00367447 0.00845775  0
0.00390513 0.00855123  0
0.00400261 0.00885741  0
0.00380474 0.00824739  0
0.00449102 0.00905579  0
0.00390368 0.0085524  0
0.00414788 0.00865159  0
0.00424681 0.0089566  0
0.00400263 0.00885743  0
0.00418554 0.00948311  0
0.0035356 0.00867507  0
0.00409408 0.00917027  0
0.00386057 0.00907909  0
0.00376911 0.00876625  0
0.00400119 0.00885859  0
0.00449527 0.00905232  0
0.00418977 0.00947965  0
0.00424823 0.00895546  0
0.00434252 0.00926598  0
0.00409548 0.00916912  0
0.00428549 0.00845675  0
0.00380438 0.00824385  0
0.00406741 0.00786796  0
0.00404494 0.0083503  0
0.00393589 0.0080559  0
0.00417645 0.00816235  0
0.0042869 0.00845559  0
0.00449561 0.0090558  0
0.00380013 0.00824738  0
0.00439126 0.00875569  0
0.00414787 0.00865159  0
0.00404352 0.00835148  0
0.00428689 0.00845558  0
0.00406315 0.00787149  0
0.00479581 0.00867978  0
0.00417502 0.00816354  0
0.00442948 0.00827564  0
0.00454135 0.00856768  0
0.00428548 0.00845677  0
0.00480003 0.00867627  0
0.00449982 0.00905229  0
0.00454276 0.00856652  0
0.00464992 0.00886428  0
0.00439265 0.00875453  0
-0.000685227 0.00307177  0
-0.000829801 0.00361767  0
-0.000842315 0.00322095  0
-0.000757514 0.00334472  0
-0.000836058 0.00341931  0
-0.000763771 0.00314636  0
-0.00068772 0.00307197  0
-0.000547727 0.00294204  0
-0.000822774 0.00361718  0
-0.000617724 0.00300701  0
-0.00068525 0.00327961  0
-0.000755247 0.00334457  0
-0.000687595 0.00307189  0
-0.000834815 0.00322018  0
-0.000544889 0.00254428  0
-0.000761205 0.00314604  0
-0.000689852 0.00288223  0
-0.000616242 0.00280809  0
-0.000685246 0.00307158  0
-0.000552387 0.00254532  0
-0.000554755 0.00294278  0
-0.000618816 0.00280845  0
-0.000553571 0.00274405  0
-0.00062 0.00300718  0
-0.00100389 0.00377166  0
-0.000844669 0.00322142  0
-0.000827417 0.00361738  0
-0.000924279 0.00349654  0
-0.000836043 0.0034194  0
-0.000915653 0.00369452  0
-0.00100634 0.00377162  0
-0.000820398 0.00361783  0
-0.00116439 0.00433689  0
-0.00091337 0.00369472  0
-0.000992396 0.00397736  0
-0.00108537 0.00405425  0
-0.00100625 0.00377154  0
-0.00120386 0.00394517  0
-0.000837195 0.00322177  0
-0.00110506 0.00385836  0
-0.00102053 0.00358347  0
-0.000921725 0.00349666  0
-0.00100393 0.00377186  0
-0.00117127 0.00433616  0
-0.00121118 0.00394452  0
-0.0010876 0.00405401  0
-0.00119122 0.00414034  0
-0.00110755 0.00385819  0
-0.000964841 0.00418885  0
-0.000829947 0.00361752  0
-0.000788423 0.00405873  0
-0.000897394 0.00390319  0
-0.000809185 0.00383812  0
-0.000876632 0.00412379  0
-0.000967002 0.00418862  0
-0.00116171 0.00433649  0
-0.00082311 0.00361818  0
-0.00106436 0.00426256  0
-0.000992411 0.00397733  0
-0.000895056 0.0039034  0
-0.00096708 0.0041887  0
-0.000781952 0.00405947  0
-0.00110006 0.00477588  0
-0.000874516 0.00412409  0
-0.000941004 0.00441768  0
-0.00103357 0.00448229  0
-0.00096485 0.00418901  0
-0.0011064 0.00477494  0
-0.00116841 0.00433562  0
-0.00103562 0.00448197  0
-0.00113741 0.00455528  0
-0.00106663 0.00426232  0
-0.000679478 0.00269512  0
-0.000543004 0.00254406  0
-0.000836687 0.00322051  0
-0.000611241 0.00261959  0
-0.000689845 0.00288229  0
-0.000758082 0.00295781  0
-0.000676707 0.00269441  0
-0.000524047 0.0021871  0
-0.000550762 0.00254567  0
-0.000600377 0.00244076  0
-0.000537404 0.00236639  0
-0.000613734 0.00262004  0
-0.000676706 0.00269465  0
-0.000844474 0.00322175  0
-0.000832792 0.0028671  0
-0.00076059 0.0029582  0
-0.000838633 0.00304443  0
-0.000754749 0.00278088  0
-0.000679325 0.00269503  0
-0.000824378 0.0028655  0
-0.000515664 0.0021851  0
-0.000751851 0.00278026  0
-0.000670021 0.0025253  0
-0.000597495 0.00244006  0
-0.000419436 0.00204939  0
-0.000327217 0.00193081  0
-0.000544733 0.00254283  0
-0.000373327 0.0019901  0
-0.000435975 0.00223682  0
-0.000482085 0.00229611  0
-0.000416795 0.00204839  0
-0.000552061 0.00254557  0
-0.000522854 0.00218695  0
-0.000484428 0.00229698  0
-0.000537457 0.00236626  0
-0.000469824 0.00211767  0
-0.000416902 0.00204821  0
-0.00029999 0.00157985  0
-0.00033429 0.00193373  0
-0.000358446 0.00181403  0
-0.00031714 0.00175679  0
-0.000375596 0.00199097  0
-0.00041923 0.00204931  0
-0.000515016 0.00218357  0
-0.000292428 0.00157628  0
-0.000467123 0.00211644  0
-0.000403722 0.00187992  0
-0.000355829 0.00181279  0
-0.00132703 0.00492255  0
-0.00109729 0.00477628  0
-0.00147626 0.00552326  0
-0.00121216 0.00484941  0
-0.00128678 0.00514977  0
-0.00140165 0.0052229  0
-0.00132492 0.00492301  0
-0.00117135 0.00433603  0
-0.00110346 0.00477466  0
-0.00124813 0.00462952  0
-0.00113741 0.00455534  0
-0.00121419 0.00484884  0
-0.00132495 0.00492317  0
-0.00148223 0.00552146  0
-0.00157614 0.00508582  0
-0.00140359 0.00522231  0
-0.00152919 0.00530364  0
-0.00145055 0.00500449  0
-0.00132698 0.00492248  0
-0.00156987 0.00508765  0
-0.00116487 0.00433767  0
-0.00144842 0.00500507  0
-0.00136737 0.00471266  0
-0.00124593 0.00463008  0
-0.00123643 0.00538411  0
-0.0014732 0.00552297  0
-0.00110039 0.00477654  0
-0.00135482 0.00545354  0
-0.00128679 0.00514976  0
-0.00116841 0.00508033  0
-0.00123451 0.00538465  0
-0.00110645 0.00477493  0
-0.00101645 0.00526152  0
-0.00117048 0.00507979  0
-0.00106145 0.00501822  0
-0.00112548 0.00532308  0
-0.00123452 0.00538478  0
-0.00136587 0.00600623  0
-0.00147908 0.00552121  0
-0.0013002 0.00569551  0
-0.00142247 0.00576372  0
-0.0013568 0.005453  0
-0.00123649 0.00538419  0
-0.00101066 0.00526313  0
-0.00136026 0.00600799  0
-0.00112357 0.00532366  0
-0.00118546 0.00563556  0
-0.00129837 0.00569609  0
-0.00139714 0.00451003  0
-0.00164859 0.00470296  0
-0.00120753 0.00394689  0
-0.00152286 0.00460649  0
-0.00142806 0.00432492  0
-0.00130233 0.00422846  0
-0.00139492 0.00451055  0
-0.00121447 0.00394524  0
-0.00116799 0.00433559  0
-0.00130469 0.00422789  0
-0.00119123 0.00414042  0
-0.00128146 0.00442307  0
-0.00139499 0.00451073  0
-0.00157964 0.00508632  0
-0.00165527 0.00470105  0
-0.00148732 0.00479853  0
-0.00161746 0.00489369  0
-0.00152513 0.00460589  0
-0.00139719 0.00451008  0
-0.0011614 0.00433719  0
-0.00157329 0.00508816  0
-0.0012793 0.00442364  0
-0.00136735 0.00471267  0
-0.00148524 0.00479912  0
-0.00102251 0.00340043  0
-0.000834194 0.00322106  0
-0.00120682 0.00394597  0
-0.00092835 0.00331075  0
-0.00102051 0.00358352  0
-0.00111466 0.0036732  0
-0.00101986 0.00340059  0
-0.00121435 0.00394553  0
-0.00123288 0.0036007  0
-0.00111711 0.00367306  0
-0.00122362 0.00377311  0
-0.00112637 0.00350064  0
-0.00101978 0.00340033  0
-0.000835328 0.00286808  0
-0.000841913 0.00322103  0
-0.000927553 0.0031342  0
-0.00083862 0.00304455  0
-0.000930846 0.00331068  0
-0.00102241 0.00340035  0
-0.00122479 0.00360109  0
-0.00082702 0.00286802  0
-0.0011236 0.00350072  0
-0.0010259 0.00323455  0
-0.000924714 0.00313419  0
-0.00144795 0.00414712  0
-0.00120362 0.00394611  0
-0.00165243 0.00470379  0
-0.00132579 0.00404662  0
-0.00142803 0.00432495  0
-0.00155019 0.00442546  0
-0.0014455 0.00414759  0
-0.00123661 0.00360189  0
-0.00121067 0.00394454  0
-0.00134106 0.00387474  0
-0.00122364 0.00377321  0
-0.00132809 0.00404606  0
-0.00144563 0.00414781  0
-0.00165916 0.0047019  0
-0.00171806 0.00436733  0
-0.00155239 0.00442485  0
-0.00168861 0.00453461  0
-0.00158184 0.00425757  0
-0.0014479 0.00414708  0
-0.00171095 0.00436938  0
-0.00122916 0.0036036  0
-0.00157942 0.00425823  0
-0.00147005 0.00398649  0
-0.00133853 0.00387534  0
-0.00174751 0.00568352  0
-0.00157971 0.00508625  0
-0.00147869 0.00552112  0
-0.00166361 0.00538488  0
-0.0015292 0.00530369  0
-0.0016131 0.00560232  0
-0.00174941 0.00568274  0
-0.00204197 0.00586052  0
-0.00157379 0.00508869  0
-0.00189569 0.00577163  0
-0.00180788 0.0054746  0
-0.0016616 0.00538571  0
-0.00174945 0.00568279  0
-0.001473 0.00552348  0
-0.00191091 0.00629258  0
-0.00161123 0.00560313  0
-0.00169195 0.00590803  0
-0.00183018 0.00598768  0
-0.00174755 0.00568365  0
-0.00191639 0.00629009  0
-0.00204766 0.00585794  0
-0.00183197 0.00598687  0
-0.00198203 0.00607402  0
-0.00189761 0.0057708  0
-0.00185499 0.00527581  0
-0.00165927 0.0047017  0
-0.0015757 0.00508578  0
-0.00175713 0.00498876  0
-0.00161749 0.00489374  0
-0.00171535 0.0051808  0
-0.00185701 0.00527502  0
-0.00156978 0.00508828  0
-0.00204593 0.00586094  0
-0.00171339 0.00518165  0
-0.00180785 0.00547461  0
-0.00195147 0.00556798  0
-0.00185697 0.00527498  0
-0.00216284 0.00548097  0
-0.00165313 0.00470434  0
-0.00200991 0.00537798  0
-0.00190799 0.00509265  0
-0.00175505 0.00498966  0
-0.00185506 0.00527595  0
-0.0020516 0.00585829  0
-0.00216872 0.00547819  0
-0.00195333 0.00556712  0
-0.00211016 0.00566824  0
-0.00201189 0.00537707  0
-0.00162355 0.00614222  0
-0.00148226 0.00552148  0
-0.0013627 0.00600605  0
-0.0015529 0.00583185  0
-0.00142248 0.00576376  0
-0.00149312 0.00607413  0
-0.00162538 0.00614154  0
-0.00135728 0.00600828  0
-0.00176071 0.00677508  0
-0.00149133 0.00607491  0
-0.00155899 0.00639168  0
-0.00169305 0.00645831  0
-0.00162535 0.00614147  0
-0.00190733 0.0062923  0
-0.00147661 0.00552375  0
-0.00176634 0.00621689  0
-0.00169197 0.00590803  0
-0.00155098 0.00583261  0
-0.00162356 0.00614233  0
-0.00176594 0.00677274  0
-0.00191278 0.00628991  0
-0.00169475 0.00645754  0
-0.00183936 0.00653132  0
-0.00176817 0.00621612  0
-0.0014821 0.00665035  0
-0.00136586 0.00600633  0
-0.00122708 0.00653892  0
-0.00142398 0.00632834  0
-0.00129647 0.00627262  0
-0.00135459 0.00659463  0
-0.00148379 0.00664965  0
-0.00175749 0.00677492  0
-0.00136052 0.00600845  0
-0.00162064 0.00671228  0
-0.00155901 0.00639168  0
-0.00142216 0.00632905  0
-0.00148383 0.00664972  0
-0.00122198 0.006541  0
-0.00159452 0.00730651  0
-0.0013529 0.00659536  0
-0.00140825 0.00692376  0
-0.00153918 0.00697812  0
-0.0014821 0.00665046  0
-0.00159945 0.00730433  0
-0.00176264 0.0067727  0
-0.00154078 0.00697739  0
-0.00168105 0.00703852  0
-0.00162237 0.00671158  0
-0.000372784 0.00170652  0
-0.000246145 0.00125749  0
-0.000299753 0.00158147  0
-0.000309465 0.001482  0
-0.000272949 0.00141948  0
-0.000336269 0.001644  0
-0.000375609 0.00170833  0
-0.00029201 0.00157684  0
-0.000515441 0.00218315  0
-0.000333809 0.00164258  0
-0.000403725 0.00187999  0
-0.000445525 0.00194574  0
-0.00037533 0.00170824  0
-0.000462444 0.00185517  0
-0.000237774 0.00125192  0
-0.000418887 0.00178171  0
-0.000350109 0.00155355  0
-0.000306552 0.00148008  0
-0.000372635 0.00170673  0
-0.000523595 0.00218756  0
-0.000471261 0.00186049  0
-0.000448115 0.00194714  0
-0.000497428 0.00202402  0
-0.000421948 0.00178361  0
-0.000191354 0.00114993  0
-0.000299361 0.00157998  0
-0.000246763 0.00125872  0
-0.000245358 0.00136496  0
-0.000273062 0.00141935  0
-0.000219058 0.00120433  0
-0.000193787 0.00115191  0
-0.000146814 0.00106077  0
-0.000292808 0.00157444  0
-0.0001703 0.00110634  0
-0.000219811 0.0013176  0
-0.000243297 0.00136318  0
-0.000193478 0.00115185  0
-0.000239913 0.00125211  0
-0.000101882 0.000757574  0
-0.000216695 0.00120198  0
-0.000170898 0.00100484  0
-0.00014768 0.000954711  0
-0.000191635 0.00114984  0
-0.000108115 0.000764001  0
-0.000152795 0.00106614  0
-0.000149875 0.00095692  0
-0.000130455 0.00091507  0
-0.000172215 0.00110799  0
-0.000643671 0.00235537  0
-0.000835064 0.00286867  0
-0.000799321 0.00255153  0
-0.000739367 0.00261202  0
-0.000817193 0.0027101  0
-0.000721496 0.00245345  0
-0.000646835 0.0023562  0
-0.000513793 0.0021844  0
-0.000826236 0.00286636  0
-0.000580314 0.0022703  0
-0.000670015 0.00252538  0
-0.000736536 0.00261128  0
-0.000646634 0.0023561  0
-0.000789628 0.00254874  0
-0.000462532 0.00185775  0
-0.000718131 0.00245242  0
-0.00062608 0.00220325  0
-0.000554583 0.00210693  0
-0.000643647 0.00235504  0
-0.000472157 0.00186115  0
-0.000522553 0.00218725  0
-0.000557902 0.00210809  0
-0.000497355 0.0020242  0
-0.0005831 0.00227115  0
-0.00101294 0.00307268  0
-0.00080207 0.0025533  0
-0.000832303 0.00286725  0
-0.000907503 0.00281299  0
-0.000817186 0.00271028  0
-0.00092262 0.00296997  0
-0.00101603 0.00307297  0
-0.000823662 0.00286674  0
-0.00122809 0.0036025  0
-0.000919848 0.00296986  0
-0.00102588 0.00323462  0
-0.00112206 0.00333774  0
-0.00101592 0.0030729  0
-0.00122545 0.00330252  0
-0.000792635 0.00255274  0
-0.00112068 0.00318771  0
-0.00100904 0.00292763  0
-0.000904278 0.00281282  0
-0.0010131 0.00307303  0
-0.00123644 0.00360241  0
-0.00123456 0.00330242  0
-0.00112477 0.00333772  0
-0.0012355 0.00345242  0
-0.00112383 0.00318773  0
-0.000311241 0.00139267  0
-0.00023799 0.00125228  0
-0.000462245 0.00185502  0
-0.000274615 0.00132247  0
-0.000350117 0.00155365  0
-0.000386743 0.00162384  0
-0.000307808 0.00139019  0
-0.000471481 0.00186188  0
-0.000397028 0.00155583  0
-0.000389645 0.00162603  0
-0.000434254 0.00170885  0
-0.000352418 0.00147301  0
-0.000308052 0.00138992  0
-0.00017724 0.000954574  0
-0.000246549 0.00125937  0
-0.000242646 0.00117225  0
-0.000211895 0.00110697  0
-0.000277301 0.00132465  0
-0.000310834 0.00139256  0
-0.000386937 0.00154759  0
-0.000167894 0.00094608  0
-0.000348885 0.00147007  0
-0.000277415 0.00124683  0
-0.000239364 0.00116932  0
-0.000589834 0.0020482  0
-0.00046075 0.0018563  0
-0.000791396 0.00255043  0
-0.000525292 0.00195225  0
-0.000626073 0.00220337  0
-0.000690615 0.00229931  0
-0.000586043 0.00204634  0
-0.000397374 0.00155722  0
-0.000470915 0.00186098  0
-0.000491708 0.00180178  0
-0.000434144 0.0017091  0
-0.000528479 0.00195366  0
-0.0005861 0.00204681  0
-0.000801694 0.00255429  0
-0.000741685 0.00226732  0
-0.000693897 0.00230055  0
-0.000771689 0.0024108  0
-0.000663892 0.00215706  0
-0.00058955 0.00204807  0
-0.000730126 0.00226275  0
-0.000385953 0.00155174  0
-0.000659838 0.00215541  0
-0.000558039 0.00190724  0
-0.000487751 0.0017999  0
-0.00013862 0.000850492  0
-0.000103352 0.000760269  0
-0.000238446 0.00124952  0
-0.000120986 0.00080538  0
-0.000170899 0.0010049  0
-0.000188533 0.00105001  0
-0.000136462 0.000847549  0
-5.88306e-05 0.000490614  0
-0.000109319 0.000767955  0
-9.76461e-05 0.000669082  0
-8.40747e-05 0.000629285  0
-0.00012289 0.000807752  0
-0.00013603 0.000847618  0
-0.000245237 0.00125761  0
-0.000178883 0.000956016  0
-0.000190633 0.00105261  0
-0.00021206 0.00110681  0
-0.000157457 0.000901817  0
-0.000138197 0.000850415  0
-0.000171869 0.000946441  0
-5.27074e-05 0.000481487  0
-0.000155033 0.000898428  0
-0.000112288 0.000713964  0
-9.54521e-05 0.000665951  0
-4.67363e-05 0.000437987  0
-3.33001e-05 0.000388987  0
-0.000103133 0.000755947  0
-4.00182e-05 0.000413487  0
-6.82166e-05 0.000572467  0
-7.49347e-05 0.000596967  0
-4.51203e-05 0.000435362  0
-0.000107206 0.000763473  0
-6.12577e-05 0.000494989  0
-7.61631e-05 0.000599418  0
-8.42318e-05 0.000629231  0
-5.3189e-05 0.000465175  0
-4.55892e-05 0.000435418  0
-8.83414e-06 0.000171953  0
-3.67171e-05 0.00039574  0
-2.72117e-05 0.000303685  0
-2.27756e-05 0.000283847  0
-4.11531e-05 0.000415579  0
-4.63879e-05 0.000437922  0
-5.74276e-05 0.000486294  0
-5.6953e-06 0.000164095  0
-5.19078e-05 0.000462108  0
-3.15615e-05 0.000325194  0
-2.60416e-05 0.000301008  0
-0.00170266 0.00797882  0
-0.00200881 0.00808819  0
-0.0015947 0.00730686  0
-0.00185574 0.00803351  0
-0.00180176 0.00769752  0
-0.00164868 0.00764284  0
-0.00170118 0.00797961  0
-0.00159938 0.0073045  0
-0.00141372 0.00788236  0
-0.00165028 0.00764205  0
-0.00150655 0.00759343  0
-0.00155745 0.00793099  0
-0.00170117 0.0079797  0
-0.0018026 0.00866322  0
-0.00201332 0.00808574  0
-0.00175189 0.00832146  0
-0.00190796 0.00837448  0
-0.00185725 0.00803272  0
-0.00170269 0.0079789  0
-0.00140925 0.00788468  0
-0.0017983 0.00866562  0
-0.00155597 0.00793179  0
-0.00160378 0.00827515  0
-0.00175049 0.00832226  0
-0.0018932 0.00742422  0
-0.00159139 0.00730677  0
-0.00201211 0.00808826  0
-0.0017423 0.0073655  0
-0.00180175 0.00769752  0
-0.00195266 0.00775624  0
-0.00189159 0.00742501  0
-0.00176592 0.00677285  0
-0.00159617 0.00730423  0
-0.00182875 0.00709893  0
-0.00168105 0.00703854  0
-0.00174388 0.00736462  0
-0.00189159 0.0074251  0
-0.00201672 0.00808565  0
-0.00221423 0.00755518  0
-0.00195416 0.00775537  0
-0.00211548 0.00782041  0
-0.00205291 0.00749014  0
-0.00189317 0.00742415  0
-0.00220943 0.00755784  0
-0.00176095 0.00677543  0
-0.0020513 0.007491  0
-0.00198519 0.00716664  0
-0.00182706 0.00709979  0
-0.00149632 0.0085796  0
-0.00157594 0.00928481  0
-0.0017995 0.00866343  0
-0.00153613 0.00893221  0
-0.00168772 0.00897412  0
-0.00164791 0.00862152  0
-0.00149769 0.0085788  0
-0.00179535 0.00866562  0
-0.00141221 0.00788471  0
-0.00164652 0.00862221  0
-0.00160378 0.00827517  0
-0.00145495 0.00823176  0
-0.00149771 0.00857889  0
-0.00121105 0.00850591  0
-0.00157202 0.00928696  0
-0.00135438 0.0085424  0
-0.00139153 0.00889644  0
-0.00153486 0.00893292  0
-0.00149634 0.00857951  0
-0.00141654 0.0078826  0
-0.00121516 0.00850385  0
-0.00145644 0.00823106  0
-0.00131585 0.00819323  0
-0.00135575 0.00854168  0
-0.00212507 0.00876699  0
-0.00201665 0.00808582  0
-0.00179926 0.00866319  0
-0.00207086 0.0084264  0
-0.00190795 0.0083745  0
-0.00196216 0.00871509  0
-0.00212648 0.00876616  0
-0.00179505 0.00866587  0
-0.00222776 0.00945824  0
-0.00196076 0.00871601  0
-0.0020114 0.00906205  0
-0.00217712 0.0091122  0
-0.00212646 0.00876608  0
-0.00247311 0.00888129  0
-0.00201225 0.00808853  0
-0.00229979 0.00882368  0
-0.00224268 0.00848491  0
-0.00206936 0.00842731  0
-0.00212505 0.00876707  0
-0.00223182 0.00945549  0
-0.00247735 0.0088785  0
-0.00217844 0.00911128  0
-0.00235459 0.009167  0
-0.0023012 0.00882278  0
-0.00188856 0.00936672  0
-0.00180248 0.00866343  0
-0.00157294 0.00928484  0
-0.00184552 0.00901508  0
-0.00168771 0.00897414  0
-0.00173075 0.00932578  0
-0.00188983 0.00936589  0
-0.00222439 0.00945824  0
-0.00179841 0.0086659  0
-0.00205711 0.00941206  0
-0.0020114 0.00906207  0
-0.00184412 0.00901589  0
-0.00188984 0.00936598  0
-0.00156908 0.00928726  0
-0.00196948 0.0100797  0
-0.00172946 0.00932662  0
-0.00176928 0.0096835  0
-0.00192966 0.00972285  0
-0.00188853 0.0093668  0
-0.00197317 0.0100772  0
-0.00222829 0.0094557  0
-0.00193085 0.00972202  0
-0.00210073 0.00976647  0
-0.00205841 0.00941125  0
-0.00127876 0.00922062  0
-0.00156944 0.00928703  0
-0.00121364 0.00850588  0
-0.0014241 0.00925382  0
-0.00139154 0.00889645  0
-0.0012462 0.00886325  0
-0.00127755 0.00922123  0
-0.00121758 0.00850408  0
-0.00100102 0.00916493  0
-0.00124756 0.00886266  0
-0.0011093 0.00883451  0
-0.00113928 0.00919308  0
-0.00127752 0.00922133  0
-0.00133761 0.00994661  0
-0.00157318 0.00928514  0
-0.00130756 0.00958397  0
-0.00145539 0.00961587  0
-0.00142535 0.00925324  0
-0.00127878 0.00922073  0
-0.000997313 0.00916669  0
-0.0013341 0.00994844  0
-0.00113805 0.00919371  0
-0.00116571 0.00955756  0
-0.00130644 0.00958458  0
-0.00206753 0.00691858  0
-0.0022179 0.00755519  0
-0.00240239 0.00707416  0
-0.00214272 0.00723688  0
-0.00231015 0.00731467  0
-0.00223496 0.00699637  0
-0.00206921 0.00691763  0
-0.0017573 0.00677528  0
-0.00221305 0.00755798  0
-0.00191326 0.00684646  0
-0.00198518 0.00716663  0
-0.00214113 0.0072378  0
-0.00206918 0.00691758  0
-0.00239738 0.00707701  0
-0.00191122 0.00629292  0
-0.00223328 0.0069973  0
-0.0021543 0.00668497  0
-0.0019902 0.00660525  0
-0.00206752 0.00691848  0
-0.00191641 0.00629014  0
-0.00176232 0.00677257  0
-0.00199197 0.00660431  0
-0.00183937 0.00653135  0
-0.00191492 0.00684552  0
-0.00235042 0.00821317  0
-0.00221788 0.00755531  0
-0.00201307 0.00808556  0
-0.00228415 0.00788424  0
-0.00211547 0.00782044  0
-0.00218175 0.00814937  0
-0.00235191 0.0082122  0
-0.0027119 0.0083519  0
-0.00221324 0.00755824  0
-0.0025319 0.00828205  0
-0.00246257 0.00795507  0
-0.00228257 0.00788522  0
-0.00235193 0.00821226  0
-0.00200858 0.00808845  0
-0.00247677 0.00888135  0
-0.00218025 0.00815035  0
-0.00224268 0.0084849  0
-0.00241435 0.0085468  0
-0.00235042 0.00821324  0
-0.00248112 0.00887841  0
-0.0027164 0.00834892  0
-0.00241577 0.00854582  0
-0.00259876 0.00861366  0
-0.00253341 0.00828108  0
-0.0025644 0.00770792  0
-0.00240635 0.00707433  0
-0.00221395 0.00755506  0
-0.00248538 0.00739113  0
-0.00231015 0.00731469  0
-0.00238918 0.00763149  0
-0.00256597 0.00770694  0
-0.00220928 0.00755812  0
-0.00271584 0.00835201  0
-0.00238762 0.00763253  0
-0.00246256 0.00795506  0
-0.0026409 0.00802947  0
-0.00256594 0.0077069  0
-0.00294078 0.00787229  0
-0.00240157 0.00707745  0
-0.00275336 0.00778959  0
-0.00267117 0.00747487  0
-0.00248375 0.00739217  0
-0.0025644 0.00770799  0
-0.00272037 0.0083489  0
-0.00294542 0.00786914  0
-0.00264239 0.00802845  0
-0.0028329 0.00810902  0
-0.00275491 0.00778856  0
-0.00223126 0.00646131  0
-0.00190724 0.00629272  0
-0.00240133 0.00707721  0
-0.00206925 0.00637702  0
-0.00215428 0.00668497  0
-0.0023163 0.00676926  0
-0.00222951 0.00646224  0
-0.00205167 0.00585827  0
-0.00191242 0.00628983  0
-0.00214059 0.00616026  0
-0.00198204 0.00607405  0
-0.00207097 0.00637603  0
-0.00222954 0.00646233  0
-0.00240633 0.00707425  0
-0.00257866 0.00664454  0
-0.00231794 0.00676829  0
-0.0024925 0.00685939  0
-0.0024041 0.00655343  0
-0.00223123 0.00646128  0
-0.00257353 0.00664759  0
-0.00204634 0.00586126  0
-0.00240238 0.00655443  0
-0.00230994 0.00625442  0
-0.00213879 0.00616127  0
-0.0010467 0.00990026  0
-0.00076871 0.00986259  0
-0.00108561 0.0106455  0
-0.000907704 0.00988143  0
-0.000927158 0.010254  0
-0.00106615 0.0102729  0
-0.0010456 0.00990064  0
-0.00100302 0.00916515  0
-0.000772003 0.0098612  0
-0.00102431 0.0095329  0
-0.000887509 0.00951318  0
-0.000908804 0.00988092  0
-0.00104557 0.00990074  0
-0.00108868 0.010644  0
-0.00133525 0.00994704  0
-0.00106712 0.0102724  0
-0.00121196 0.0102955  0
-0.00119041 0.00992389  0
-0.00104668 0.00990014  0
-0.00133193 0.00994856  0
-0.000999484 0.00916661  0
-0.00118931 0.00992435  0
-0.00116571 0.00955758  0
-0.00102308 0.00953337  0
-0.000802313 0.0106126  0
-0.00108389 0.0106456  0
-0.00077043 0.00986249  0
-0.000943104 0.0106291  0
-0.000927162 0.0102541  0
-0.000786372 0.0102375  0
-0.000801384 0.0106129  0
-0.000773553 0.00986142  0
-0.000528768 0.0105877  0
-0.000787469 0.0102372  0
-0.00065116 0.0102246  0
-0.000665076 0.0106003  0
-0.000801341 0.010613  0
-0.000830199 0.0113718  0
-0.00108678 0.0106445  0
-0.00081577 0.0109924  0
-0.000958492 0.0110082  0
-0.000944063 0.0106288  0
-0.000802338 0.0106127  0
-0.000525882 0.0105887  0
-0.000827545 0.0113729  0
-0.00066411 0.0106007  0
-0.000676713 0.0109808  0
-0.000814942 0.0109928  0
-0.00138576 0.0106893  0
-0.00133741 0.00994694  0
-0.00108648 0.0106442  0
-0.00136159 0.0103181  0
-0.00121195 0.0102955  0
-0.00123612 0.0106667  0
-0.00138675 0.0106887  0
-0.0017006 0.0107421  0
-0.00133417 0.00994871  0
-0.00154367 0.0107154  0
-0.00151738 0.0103454  0
-0.00136046 0.0103187  0
-0.00138676 0.0106888  0
-0.00108347 0.0106459  0
-0.00143059 0.0114403  0
-0.00123511 0.0106674  0
-0.00125703 0.0110431  0
-0.00140867 0.0110646  0
-0.00138572 0.0106894  0
-0.00143338 0.0114385  0
-0.00170363 0.0107403  0
-0.00140955 0.011064  0
-0.00156851 0.0110894  0
-0.00154468 0.0107149  0
-0.00164172 0.0100089  0
-0.00157578 0.00928508  0
-0.00133498 0.0099467  0
-0.00160875 0.009647  0
-0.00145538 0.00961589  0
-0.00148835 0.00997781  0
-0.00164286 0.0100083  0
-0.00133154 0.00994879  0
-0.00170323 0.010742  0
-0.0014872 0.00997854  0
-0.00151738 0.0103454  0
-0.00167305 0.0103751  0
-0.00164285 0.0100082  0
-0.00196646 0.0100798  0
-0.00157211 0.00928723  0
-0.00180465 0.010044  0
-0.00176928 0.00968352  0
-0.00160748 0.00964771  0
-0.00164168 0.010009  0
-0.00170649 0.0107398  0
-0.00196994 0.0100776  0
-0.00167408 0.0103744  0
-0.00183821 0.0104087  0
-0.00180581 0.0100433  0
-0.00054553 0.0113529  0
-0.000562839 0.0121243  0
-0.000828822 0.0113723  0
-0.000554185 0.0117386  0
-0.000695831 0.0117483  0
-0.000687176 0.0113626  0
-0.000546374 0.0113526  0
-0.000826319 0.011373  0
-0.000527121 0.0105886  0
-0.000686346 0.0113628  0
-0.00067672 0.0109808  0
-0.000536748 0.0109706  0
-0.000546409 0.0113527  0
-0.000269223 0.0113398  0
-0.000560566 0.0121249  0
-0.000407816 0.0113462  0
-0.000414894 0.0117324  0
-0.000553487 0.0117388  0
-0.000545582 0.0113528  0
-0.000529862 0.010588  0
-0.000271733 0.0113392  0
-0.000537722 0.0109704  0
-0.000400797 0.0109636  0
-0.000408657 0.011346  0
-0.00112202 0.0114029  0
-0.00108848 0.0106444  0
-0.000828468 0.011372  0
-0.00110525 0.0110236  0
-0.000958476 0.0110082  0
-0.000975242 0.0113874  0
-0.00112286 0.0114025  0
-0.000825872 0.0113732  0
-0.00115303 0.0121689  0
-0.000974368 0.0113879  0
-0.000989453 0.0117711  0
-0.00113795 0.0117857  0
-0.00112285 0.0114024  0
-0.0014284 0.0114404  0
-0.00108566 0.0106458  0
-0.00127562 0.0114214  0
-0.00125703 0.0110431  0
-0.00110425 0.0110241  0
-0.00112196 0.011403  0
-0.0011554 0.0121675  0
-0.00143099 0.011439  0
-0.00113868 0.0117853  0
-0.00129319 0.0118033  0
-0.00127648 0.011421  0
-0.000851527 0.0121438  0
-0.000830023 0.0113723  0
-0.000561605 0.0121244  0
-0.000840775 0.011758  0
-0.000695814 0.0117483  0
-0.000706566 0.0121341  0
-0.000852218 0.0121435  0
-0.00115134 0.012169  0
-0.000827579 0.0113732  0
-0.00100178 0.0121563  0
-0.000989458 0.0117711  0
-0.000839899 0.0117583  0
-0.00085225 0.0121436  0
-0.000559377 0.0121252  0
-0.000871567 0.0129215  0
-0.000705813 0.0121344  0
-0.000715472 0.0125234  0
-0.000861909 0.0125326  0
-0.000851464 0.0121439  0
-0.000873558 0.0129207  0
-0.00115354 0.0121681  0
-0.000862511 0.0125323  0
-0.00101355 0.0125444  0
-0.0010025 0.012156  0
-0.000279146 0.0121146  0
-0.000559842 0.012125  0
-0.000269967 0.0113398  0
-0.000419494 0.0121198  0
-0.000414904 0.0117324  0
-0.000274557 0.0117272  0
-0.000278474 0.0121147  0
-0.00027237 0.0113395  0
-8.67262e-07 0.0121102  0
-0.000275422 0.0117271  0
-0.000136618 0.0117248  0
-0.000139671 0.0121125  0
-0.000278415 0.0121148  0
-0.00028665 0.0128956  0
-0.000562014 0.0121247  0
-0.000282533 0.0125052  0
-0.000424332 0.0125102  0
-0.000420214 0.0121198  0
-0.000279194 0.0121147  0
1.31454e-06 0.0121105  0
-0.000284697 0.0128959  0
-0.00013894 0.0121126  0
-0.000141691 0.0125032  0
-0.000281946 0.0125053  0
-0.00232332 0.0101626  0
-0.0019661 0.01008  0
-0.0024065 0.0108802  0
-0.00214471 0.0101213  0
-0.0021863 0.0104801  0
-0.00236491 0.0105214  0
-0.0023221 0.0101634  0
-0.00223168 0.0094557  0
-0.00196976 0.0100773  0
-0.00227689 0.00980956  0
-0.00210072 0.00976648  0
-0.00214593 0.0101203  0
-0.00232208 0.0101635  0
-0.00241002 0.0108774  0
-0.00270064 0.0102558  0
-0.00236605 0.0105205  0
-0.00255533 0.0105666  0
-0.00251136 0.0102096  0
-0.00232332 0.0101625  0
-0.00269693 0.0102586  0
-0.00222782 0.00945846  0
-0.00251012 0.0102105  0
-0.00246237 0.00985853  0
-0.00227557 0.00981047  0
-0.00204401 0.0108053  0
-0.00240306 0.0108803  0
-0.00196953 0.0100799  0
-0.00222353 0.0108428  0
-0.00218629 0.0104801  0
-0.00200677 0.0104426  0
-0.00204294 0.0108061  0
-0.00197297 0.0100775  0
-0.00170342 0.0107399  0
-0.00200796 0.0104418  0
-0.0018382 0.0104087  0
-0.00187318 0.010773  0
-0.0020429 0.0108062  0
-0.00211067 0.0115409  0
-0.00240633 0.0108778  0
-0.00207679 0.0111735  0
-0.0022585 0.0112093  0
-0.00222462 0.010842  0
-0.002044 0.0108054  0
-0.00170019 0.0107423  0
-0.00210762 0.0115434  0
-0.0018721 0.0107738  0
-0.0019039 0.0111428  0
-0.00207581 0.0111744  0
-0.00259547 0.00956286  0
-0.00298424 0.00968216  0
-0.00247686 0.00888156  0
-0.00278985 0.00962251  0
-0.00273055 0.00928186  0
-0.00253616 0.00922221  0
-0.00259413 0.00956387  0
-0.00248104 0.00887857  0
-0.00222812 0.00945546  0
-0.00253759 0.00922122  0
-0.00235458 0.00916701  0
-0.00241112 0.00950966  0
-0.00259411 0.00956393  0
-0.00270456 0.0102556  0
-0.0029883 0.00967911  0
-0.00264934 0.00990975  0
-0.00284643 0.00996734  0
-0.00279121 0.00962152  0
-0.00259547 0.00956293  0
-0.0022241 0.00945842  0
-0.00270066 0.0102586  0
-0.00240979 0.00951068  0
-0.00246238 0.00985851  0
-0.00264807 0.00991077  0
-0.00285919 0.00900977  0
-0.00247289 0.00888148  0
-0.00298821 0.00968223  0
-0.00266604 0.00894562  0
-0.00273055 0.00928185  0
-0.0029237 0.009346  0
-0.00285776 0.00901078  0
-0.00272035 0.00834903  0
-0.00247717 0.00887833  0
-0.00278905 0.0086799  0
-0.00259876 0.00861368  0
-0.00266746 0.00894455  0
-0.00285774 0.00901083  0
-0.00299239 0.00967904  0
-0.00326818 0.00915046  0
-0.00292506 0.00934493  0
-0.00313028 0.00941475  0
-0.00306296 0.00908065  0
-0.00285917 0.00900972  0
-0.00326389 0.00915367  0
-0.00271595 0.0083522  0
-0.00306153 0.00908169  0
-0.00298992 0.00875294  0
-0.00278756 0.00868096  0
-0.00279765 0.0109663  0
-0.00270439 0.0102558  0
-0.00240623 0.0108774  0
-0.00275102 0.010611  0
-0.00255531 0.0105666  0
-0.00260194 0.0109219  0
-0.00279883 0.0109653  0
-0.00321369 0.0110639  0
-0.00270067 0.0102588  0
-0.00300626 0.0110146  0
-0.00295718 0.0106613  0
-0.00274975 0.010612  0
-0.00279882 0.0109654  0
-0.00240268 0.0108804  0
-0.00288415 0.0116855  0
-0.00260075 0.0109229  0
-0.00264342 0.011283  0
-0.00284149 0.0113255  0
-0.00279762 0.0109664  0
-0.00288759 0.0116825  0
-0.0032173 0.0110608  0
-0.0028426 0.0113244  0
-0.00305245 0.0113716  0
-0.00300746 0.0110136  0
-0.00310862 0.0103671  0
-0.00299229 0.00967918  0
-0.00270055 0.0102555  0
-0.00305046 0.0100231  0
-0.00284642 0.00996735  0
-0.00290458 0.0103113  0
-0.00310993 0.0103661  0
-0.00269663 0.0102587  0
-0.00321775 0.0110639  0
-0.00290328 0.0103124  0
-0.00295719 0.0106613  0
-0.00316384 0.010715  0
-0.00310993 0.010366  0
-0.00354246 0.0104882  0
-0.00298824 0.00968239  0
-0.00332619 0.0104271  0
-0.00326535 0.0100853  0
-0.00304908 0.0100242  0
-0.0031086 0.0103671  0
-0.00322159 0.0110606  0
-0.00354644 0.0104849  0
-0.00316509 0.0107139  0
-0.00338401 0.0107728  0
-0.00332752 0.010426  0
-0.00175934 0.0114871  0
-0.00142795 0.0114406  0
-0.00180632 0.012243  0
-0.00159365 0.0114638  0
-0.00161714 0.0118418  0
-0.00178283 0.011865  0
-0.00175844 0.0114876  0
-0.00170625 0.0107402  0
-0.00143072 0.0114386  0
-0.00173235 0.0111139  0
-0.00156849 0.0110894  0
-0.00159458 0.0114631  0
-0.00175839 0.0114877  0
-0.00180888 0.0122409  0
-0.00210732 0.0115414  0
-0.00178364 0.0118643  0
-0.0019581 0.0118912  0
-0.00193286 0.0115146  0
-0.00175934 0.0114869  0
-0.00210453 0.0115435  0
-0.00170326 0.0107422  0
-0.00193194 0.0115152  0
-0.0019039 0.0111429  0
-0.0017313 0.0111146  0
-0.00147128 0.012202  0
-0.00180367 0.0122431  0
-0.00143059 0.0114405  0
-0.00163748 0.0122226  0
-0.00161713 0.0118418  0
-0.00145094 0.0118212  0
-0.00147054 0.0122025  0
-0.00143315 0.0114389  0
-0.0011532 0.0121677  0
-0.00145184 0.0118207  0
-0.00129318 0.0118033  0
-0.00131187 0.0121851  0
-0.00147048 0.0122026  0
-0.0015069 0.0129713  0
-0.001806 0.0122416  0
-0.00148869 0.0125869  0
-0.00165645 0.0126064  0
-0.00163824 0.0122221  0
-0.00147129 0.0122021  0
-0.00115087 0.0121692  0
-0.00150479 0.0129728  0
-0.00131108 0.0121856  0
-0.00132783 0.012571  0
-0.00148804 0.0125875  0
-0.00248217 0.0116096  0
-0.00240978 0.0108777  0
-0.00210718 0.011541  0
-0.00244598 0.0112436  0
-0.00225848 0.0112093  0
-0.00229468 0.0115753  0
-0.00248318 0.0116087  0
-0.0021041 0.0115436  0
-0.00254857 0.0123497  0
-0.00229364 0.0115762  0
-0.00232634 0.0119466  0
-0.00251588 0.0119792  0
-0.0024832 0.0116086  0
-0.00288032 0.0116856  0
-0.00240649 0.0108804  0
-0.00268176 0.0116471  0
-0.00264341 0.011283  0
-0.00244485 0.0112445  0
-0.00248214 0.0116096  0
-0.00255149 0.012347  0
-0.00288345 0.0116829  0
-0.00251681 0.0119783  0
-0.00271747 0.0120149  0
-0.00268279 0.0116462  0
-0.0021648 0.0122923  0
-0.00211038 0.0115413  0
-0.00180578 0.0122411  0
-0.00213759 0.0119168  0
-0.00195808 0.0118912  0
-0.00198529 0.0122667  0
-0.00216565 0.0122916  0
-0.00254506 0.0123498  0
-0.00210759 0.0115435  0
-0.00235535 0.0123207  0
-0.00232632 0.0119467  0
-0.00213662 0.0119175  0
-0.00216563 0.0122917  0
-0.0018032 0.0122433  0
-0.00221432 0.0130509  0
-0.00198442 0.0122675  0
-0.00200876 0.0126471  0
-0.00218998 0.0126713  0
-0.00216475 0.0122924  0
-0.00221669 0.0130487  0
-0.00254765 0.0123475  0
-0.00219072 0.0126706  0
-0.00238217 0.0126981  0
-0.0023562 0.01232  0
-0.00238049 0.00605691  0
-0.00273947 0.0062709  0
-0.00216778 0.00548183  0
-0.00255998 0.0061639  0
-0.00245362 0.00587636  0
-0.00227414 0.00576937  0
-0.00237875 0.00605793  0
-0.00217312 0.00547862  0
-0.00204726 0.00585792  0
-0.00227594 0.00576827  0
-0.00211019 0.00566827  0
-0.002213 0.00595792  0
-0.0023788 0.00605802  0
-0.00258287 0.0066447  0
-0.00274459 0.00626762  0
-0.00248083 0.00635136  0
-0.00266373 0.00645616  0
-0.0025617 0.00616282  0
-0.00238052 0.00605692  0
-0.00204201 0.00586101  0
-0.00257782 0.00664784  0
-0.00221126 0.00595896  0
-0.00230991 0.00625442  0
-0.00247917 0.00635238  0
-0.00251891 0.00570555  0
-0.00216309 0.00548154  0
-0.0027441 0.0062712  0
-0.002341 0.00559355  0
-0.00245359 0.00587637  0
-0.0026315 0.00598837  0
-0.00251717 0.00570666  0
-0.00228301 0.00515198  0
-0.00216825 0.00547824  0
-0.00240009 0.00542932  0
-0.00222563 0.00531511  0
-0.00234271 0.00559245  0
-0.00251725 0.00570674  0
-0.00274905 0.00626785  0
-0.00290247 0.00594411  0
-0.00263315 0.0059873  0
-0.00282576 0.00610598  0
-0.00270986 0.00582543  0
-0.00251889 0.00570557  0
-0.00289751 0.00594763  0
-0.00227784 0.00515546  0
-0.0027082 0.0058266  0
-0.00258767 0.00555155  0
-0.00239836 0.00543052  0
-0.00194965 0.00491923  0
-0.00164867 0.00470376  0
-0.00216724 0.00548158  0
-0.00179916 0.00481149  0
-0.00190795 0.00509267  0
-0.00205844 0.0052004  0
-0.00194769 0.00492026  0
-0.002173 0.00547871  0
-0.00227817 0.00515144  0
-0.00206035 0.00519949  0
-0.00222558 0.00531508  0
-0.00211293 0.00503585  0
-0.00194757 0.00492011  0
-0.00172258 0.00436828  0
-0.00165474 0.00470107  0
-0.00183508 0.00464419  0
-0.00168866 0.00453468  0
-0.00180116 0.00481059  0
-0.00194962 0.00491922  0
-0.00227224 0.00515453  0
-0.00171632 0.00437119  0
-0.00211093 0.00503687  0
-0.00199428 0.00476286  0
-0.00183297 0.00464521  0
-0.00296082 0.00685073  0
-0.00274918 0.00626782  0
-0.00257833 0.00664453  0
-0.002855 0.00655928  0
-0.00266376 0.00645618  0
-0.00276958 0.00674763  0
-0.0029624 0.00684962  0
-0.00257361 0.00664791  0
-0.00316497 0.00744418  0
-0.002768 0.00674877  0
-0.00286929 0.00704605  0
-0.00306368 0.0071469  0
-0.00296237 0.00684961  0
-0.00337253 0.00706832  0
-0.00274444 0.00627129  0
-0.00316745 0.00695897  0
-0.00305848 0.00666981  0
-0.0028534 0.00656045  0
-0.00296084 0.00685078  0
-0.00316956 0.00744079  0
-0.00337714 0.00706486  0
-0.0030652 0.00714579  0
-0.00327335 0.00725282  0
-0.00316899 0.00695782  0
-0.00276747 0.00725328  0
-0.00258294 0.00664473  0
-0.00240209 0.00707409  0
-0.0026752 0.00694901  0
-0.00249251 0.00685941  0
-0.00258478 0.00716369  0
-0.00276904 0.00725221  0
-0.00316052 0.00744407  0
-0.00257811 0.00664802  0
-0.00296478 0.00734814  0
-0.00286931 0.00704605  0
-0.00267357 0.00695012  0
-0.00276907 0.00725224  0
-0.00239733 0.00707732  0
-0.00294498 0.00787241  0
-0.0025832 0.00716478  0
-0.00267116 0.00747487  0
-0.00285702 0.00756232  0
-0.00276749 0.00725335  0
-0.00294959 0.00786916  0
-0.0031652 0.00744076  0
-0.00285854 0.00756125  0
-0.0030574 0.00765496  0
-0.00296635 0.00734705  0
-0.00147835 0.00383405  0
-0.0017224 0.00436864  0
-0.00176703 0.00408443  0
-0.00160037 0.00410134  0
-0.00174472 0.00422653  0
-0.00162269 0.00395924  0
-0.00148078 0.00383326  0
-0.0012247 0.00360239  0
-0.00171532 0.00437067  0
-0.00135274 0.00371783  0
-0.00147001 0.00398653  0
-0.00159805 0.00410197  0
-0.00148072 0.00383324  0
-0.00175954 0.00408678  0
-0.0012309 0.00330621  0
-0.00162013 0.00396001  0
-0.00149522 0.00369649  0
-0.00135581 0.00356973  0
-0.00147814 0.00383376  0
-0.00123889 0.00330431  0
-0.00123223 0.00360078  0
-0.00135851 0.00356904  0
-0.00123556 0.00345255  0
-0.00135518 0.00371727  0
-0.0020278 0.00461682  0
-0.00177222 0.00408576  0
-0.00171739 0.00436745  0
-0.00190001 0.00435129  0
-0.0017448 0.00422661  0
-0.00187259 0.00449213  0
-0.00202987 0.0046158  0
-0.00171133 0.00437042  0
-0.00227713 0.00515534  0
-0.0018706 0.00449311  0
-0.00199423 0.00476288  0
-0.0021535 0.00488557  0
-0.00202985 0.00461584  0
-0.00237365 0.00488126  0
-0.00176608 0.00408909  0
-0.00220175 0.00474855  0
-0.00206986 0.00448517  0
-0.00189796 0.00435247  0
-0.00202798 0.00461698  0
-0.00228281 0.0051522  0
-0.00237939 0.00487776  0
-0.00215539 0.00488459  0
-0.0023311 0.00501498  0
-0.00220368 0.00474737  0
-0.00149807 0.00356726  0
-0.00122566 0.00330441  0
-0.00176463 0.0040887  0
-0.00136187 0.00343584  0
-0.00149515 0.00369655  0
-0.00163135 0.00382798  0
-0.00149526 0.00356788  0
-0.00122316 0.0030496  0
-0.00123362 0.00330261  0
-0.00135921 0.00330874  0
-0.00122839 0.00317611  0
-0.00136444 0.00343525  0
-0.00149562 0.00356825  0
-0.0017719 0.00408636  0
-0.00180655 0.00385121  0
-0.00163376 0.0038273  0
-0.00178923 0.00396878  0
-0.00165109 0.00370973  0
-0.00149803 0.0035673  0
-0.00179888 0.00385415  0
-0.00121473 0.00305196  0
-0.00164845 0.00371072  0
-0.00150681 0.00345306  0
-0.00135638 0.00330963  0
-0.000987372 0.00278549  0
-0.00078877 0.00255058  0
-0.00122922 0.00330488  0
-0.000888071 0.00266803  0
-0.001009 0.00292773  0
-0.0011083 0.00304518  0
-0.000984062 0.00278546  0
-0.00123863 0.00330518  0
-0.00121792 0.00304668  0
-0.00111135 0.00304532  0
-0.00122827 0.00317593  0
-0.00110099 0.00291607  0
-0.00098376 0.00278494  0
-0.000744733 0.00227033  0
-0.000798659 0.00255179  0
-0.000864246 0.00252764  0
-0.000771696 0.00241106  0
-0.00089121 0.00266837  0
-0.000987236 0.0027854  0
-0.00120745 0.00304653  0
-0.000733719 0.00226917  0
-0.00109734 0.00291597  0
-0.000970587 0.00265785  0
-0.000860477 0.00252729  0
-0.00264772 0.00540886  0
-0.00290715 0.00594442  0
-0.00305531 0.00567372  0
-0.00277743 0.00567664  0
-0.00298123 0.00580907  0
-0.00285151 0.00554129  0
-0.00264923 0.00540758  0
-0.00227279 0.00515516  0
-0.00290248 0.00594796  0
-0.00246101 0.00528137  0
-0.00258763 0.00555156  0
-0.00277586 0.00567777  0
-0.00264922 0.00540766  0
-0.00305076 0.00567748  0
-0.00237997 0.00488215  0
-0.00284999 0.00554257  0
-0.00271536 0.00527982  0
-0.0025146 0.0051449  0
-0.00264761 0.00540881  0
-0.0023847 0.00487838  0
-0.00227765 0.00515162  0
-0.00251615 0.0051436  0
-0.00233117 0.005015  0
-0.00246263 0.00528022  0
-0.00314624 0.00650118  0
-0.00290733 0.00594429  0
-0.00274427 0.0062677  0
-0.00302679 0.00622273  0
-0.0028258 0.00610599  0
-0.00294525 0.00638444  0
-0.00314775 0.00650002  0
-0.00357864 0.00674549  0
-0.00290283 0.0059479  0
-0.00336319 0.00662275  0
-0.00324073 0.0063467  0
-0.00302529 0.00622396  0
-0.00314777 0.00649999  0
-0.00273971 0.00627122  0
-0.00337722 0.0070684  0
-0.00294374 0.00638561  0
-0.00305846 0.00666981  0
-0.00326249 0.00678419  0
-0.00314628 0.00650121  0
-0.00338167 0.00706489  0
-0.00358304 0.00674189  0
-0.00326398 0.00678305  0
-0.00348236 0.00690339  0
-0.00336466 0.00662155  0
-0.00332605 0.00620473  0
-0.00306035 0.00567384  0
-0.0029022 0.0059443  0
-0.0031932 0.00593928  0
-0.00298128 0.00580907  0
-0.00311412 0.00607452  0
-0.00332746 0.00620348  0
-0.00289796 0.0059479  0
-0.00358347 0.0067455  0
-0.00311271 0.00607569  0
-0.00324071 0.0063467  0
-0.00345547 0.00647449  0
-0.00332746 0.00620355  0
-0.00378062 0.00647505  0
-0.00305627 0.00567752  0
-0.00355404 0.0063393  0
-0.00341845 0.00607628  0
-0.00319187 0.00594053  0
-0.0033261 0.00620471  0
-0.00358769 0.00674195  0
-0.00378471 0.00647142  0
-0.0034569 0.00647333  0
-0.0036862 0.00660668  0
-0.0035554 0.00633807  0
-0.00210165 0.00436426  0
-0.00176047 0.00408813  0
-0.00237911 0.00488229  0
-0.00193106 0.00422619  0
-0.00206979 0.00448521  0
-0.00224038 0.00462327  0
-0.00209999 0.00436564  0
-0.00238434 0.00487877  0
-0.0024775 0.00465579  0
-0.00224217 0.00462221  0
-0.00243092 0.00476728  0
-0.00228874 0.00451071  0
-0.00209972 0.0043655  0
-0.00181261 0.00385298  0
-0.00176614 0.00408473  0
-0.00195617 0.00410924  0
-0.00178938 0.00396885  0
-0.00193293 0.00422511  0
-0.00210164 0.0043644  0
-0.00247243 0.00465981  0
-0.00180708 0.00385691  0
-0.00228703 0.0045121  0
-0.00213975 0.00425836  0
-0.00195436 0.00411066  0
-0.00277542 0.00516218  0
-0.00237466 0.00488189  0
-0.00305598 0.00567778  0
-0.00257504 0.00502204  0
-0.00271532 0.00527984  0
-0.0029157 0.00541998  0
-0.00277403 0.00516356  0
-0.00248322 0.00465641  0
-0.00237885 0.00487816  0
-0.00262862 0.00490998  0
-0.00243103 0.00476728  0
-0.00257644 0.00502086  0
-0.00277417 0.00516352  0
-0.00306009 0.00567412  0
-0.0032067 0.00545445  0
-0.00291713 0.00541882  0
-0.00313339 0.00556429  0
-0.00299043 0.00530899  0
-0.00277543 0.00516235  0
-0.00320292 0.00545833  0
-0.00247939 0.00466039  0
-0.00298918 0.00531034  0
-0.00284116 0.00505936  0
-0.00262741 0.00491137  0
-0.00311393 0.00850542  0
-0.00353565 0.00867496  0
-0.00294512 0.00787257  0
-0.00332479 0.00859019  0
-0.00324039 0.00827376  0
-0.00302953 0.008189  0
-0.00311248 0.00850652  0
-0.00294962 0.00786926  0
-0.00271618 0.00834881  0
-0.00303105 0.00818789  0
-0.0028329 0.00810903  0
-0.00291433 0.00842766  0
-0.00311247 0.00850657  0
-0.00327239 0.00915046  0
-0.00354005 0.00867163  0
-0.00319243 0.00882851  0
-0.00340622 0.00891104  0
-0.00332626 0.0085891  0
-0.00311395 0.00850546  0
-0.00271176 0.0083521  0
-0.00326806 0.00915376  0
-0.00291286 0.00842878  0
-0.00298991 0.00875293  0
-0.00319101 0.00882961  0
-0.0033601 0.00805171  0
-0.00294073 0.00787249  0
-0.00354002 0.00867503  0
-0.00315041 0.0079621  0
-0.00324038 0.00827376  0
-0.00345006 0.00836337  0
-0.00335861 0.00805282  0
-0.00316963 0.00744085  0
-0.00294519 0.00786909  0
-0.00326412 0.00774684  0
-0.00305741 0.00765497  0
-0.0031519 0.00796095  0
-0.00335861 0.00805286  0
-0.00354438 0.00867163  0
-0.00380454 0.00824385  0
-0.0034515 0.00836224  0
-0.00367446 0.00845774  0
-0.00358158 0.00814836  0
-0.00336007 0.00805169  0
-0.00380014 0.00824728  0
-0.00316513 0.00744429  0
-0.00358011 0.00814948  0
-0.00348264 0.00784578  0
-0.0032626 0.00774799  0
-0.00371073 0.00931157  0
-0.00354441 0.00867173  0
-0.00326803 0.00915037  0
-0.00362757 0.00899165  0
-0.00340622 0.00891105  0
-0.00348938 0.00923097  0
-0.00371215 0.00931046  0
-0.00326376 0.00915379  0
-0.0038694 0.00996091  0
-0.00348796 0.00923212  0
-0.00356658 0.00955735  0
-0.00379078 0.00963568  0
-0.00371214 0.00931043  0
-0.00418106 0.00948304  0
-0.00354008 0.00867515  0
-0.0039466 0.00939674  0
-0.00386057 0.0090791  0
-0.00362611 0.00899279  0
-0.00371072 0.0093116  0
-0.00387361 0.00995749  0
-0.00418533 0.00947962  0
-0.00379216 0.00963455  0
-0.00402947 0.00971856  0
-0.00394802 0.00939561  0
-0.00341325 0.00981484  0
-0.00327236 0.00915057  0
-0.00298819 0.00967895  0
-0.00334281 0.00948271  0
-0.00313028 0.00941476  0
-0.00320072 0.0097469  0
-0.00341463 0.00981373  0
-0.00386505 0.0099608  0
-0.00326811 0.00915391  0
-0.00363984 0.00988727  0
-0.00356658 0.00955735  0
-0.00334137 0.00948382  0
-0.00341464 0.00981377  0
-0.00298403 0.00968228  0
-0.00354668 0.0104883  0
-0.00319933 0.00974802  0
-0.00326535 0.0100853  0
-0.00348066 0.010151  0
-0.00341324 0.00981488  0
-0.00355078 0.0104849  0
-0.00386923 0.00995745  0
-0.00348201 0.0101499  0
-0.00371001 0.0102212  0
-0.00364124 0.00988616  0
-0.00359859 0.00764971  0
-0.00405844 0.00787148  0
-0.00337737 0.00706843  0
-0.00382852 0.0077606  0
-0.0037179 0.00746996  0
-0.00348798 0.00735907  0
-0.00359715 0.00765087  0
-0.00338177 0.0070649  0
-0.00316497 0.00744076  0
-0.00348946 0.00735788  0
-0.00327337 0.00725283  0
-0.00338106 0.00754582  0
-0.00359715 0.0076509  0
-0.00380901 0.00824383  0
-0.00406277 0.00786797  0
-0.00370308 0.00794736  0
-0.00393589 0.0080559  0
-0.00382996 0.00775943  0
-0.00359861 0.00764972  0
-0.00316057 0.00744426  0
-0.00380468 0.0082473  0
-0.00337959 0.00754699  0
-0.00348262 0.00784578  0
-0.00370165 0.00794851  0
-0.0038309 0.00730018  0
-0.00337267 0.00706847  0
-0.00406311 0.00787144  0
-0.00360179 0.00718432  0
-0.00371789 0.00746996  0
-0.00394701 0.00758581  0
-0.00382948 0.00730137  0
-0.0035878 0.00674187  0
-0.00337695 0.00706492  0
-0.00370864 0.00702162  0
-0.00348238 0.00690339  0
-0.00360321 0.00718314  0
-0.00382948 0.00730137  0
-0.00406736 0.00786792  0
-0.00431587 0.00754443  0
-0.00394842 0.00758465  0
-0.00419162 0.00770617  0
-0.00407268 0.0074229  0
-0.00383089 0.0073002  0
-0.00431165 0.00754797  0
-0.00358356 0.00674544  0
-0.00407127 0.00742408  0
-0.0039476 0.00714671  0
-0.00370723 0.00702282  0
-0.0040012 0.00885856  0
-0.00380905 0.0082439  0
-0.00353988 0.00867159  0
-0.00390513 0.00855123  0
-0.00367447 0.00845775  0
-0.00377054 0.00876508  0
-0.00400261 0.00885741  0
-0.00449102 0.00905579  0
-0.00380474 0.00824739  0
-0.00424681 0.0089566  0
-0.00414788 0.00865159  0
-0.00390368 0.0085524  0
-0.00400263 0.00885743  0
-0.0035356 0.00867507  0
-0.00418554 0.00948311  0
-0.00376911 0.00876625  0
-0.00386057 0.00907909  0
-0.00409408 0.00917027  0
-0.00400119 0.00885859  0
-0.00418977 0.00947965  0
-0.00449527 0.00905232  0
-0.00409548 0.00916912  0
-0.00434252 0.00926598  0
-0.00424823 0.00895546  0
-0.00428549 0.00845675  0
-0.00406741 0.00786796  0
-0.00380438 0.00824385  0
-0.00417645 0.00816235  0
-0.00393589 0.0080559  0
-0.00404494 0.0083503  0
-0.0042869 0.00845559  0
-0.00380013 0.00824738  0
-0.00449561 0.0090558  0
-0.00404352 0.00835148  0
-0.00414787 0.00865159  0
-0.00439126 0.00875569  0
-0.00428689 0.00845558  0
-0.00479581 0.00867978  0
-0.00406315 0.00787149  0
-0.00454135 0.00856768  0
-0.00442948 0.00827564  0
-0.00417502 0.00816354  0
-0.00428548 0.00845677  0
-0.00449982 0.00905229  0
-0.00480003 0.00867627  0
-0.00439265 0.00875453  0
-0.00464992 0.00886428  0
-0.00454276 0.00856652  0
1.23874e-06 -5.7429e-06  0
-8.14773e-06 0.000170384  0
9.64977e-07 -8.82932e-07  0
-3.45449e-06 8.23207e-05  0
-3.59138e-06 8.47507e-05  0
1.10186e-06 -3.31291e-06  0
1.03749e-06 -3.48041e-06  0
1.36832e-06 -7.54563e-06  0
-7.63676e-06 0.000163609  0
1.20291e-06 -5.51302e-06  0
-3.13422e-06 7.80319e-05  0
-3.29963e-06 8.00645e-05  0
-1.29271e-05 0.000200396  0
3.83416e-06 -9.51665e-06  0
-1.07278e-05 0.000178835  0
-4.54647e-06 9.54397e-05  0
-3.44682e-06 8.46594e-05  0
-1.18275e-05 0.000189616  0
-1.3567e-05 0.000203595  0
-8.38924e-06 0.000170474  0
-5.46872e-05 0.000479829  0
-1.09781e-05 0.000187034  0
-3.15382e-05 0.000325151  0
-3.41271e-05 0.000341712  0
-1.31874e-05 0.00020344  0
-1.62431e-05 0.000230016  0
5.57229e-06 -1.89948e-05  0
-1.47152e-05 0.000216728  0
-5.33539e-06 0.000105511  0
-3.80757e-06 9.22228e-05  0
-1.22584e-05 0.000200262  0
-5.76674e-05 0.000489471  0
-1.861e-05 0.000240918  0
-3.49629e-05 0.000344866  0
-3.81387e-05 0.000365195  0
-1.54342e-05 0.00022059  0
-7.70768e-05 0.000564902  0
-9.656e-05 0.000644807  0
-9.66134e-06 0.000222176  0
-8.68184e-05 0.000604854  0
-5.31107e-05 0.000433491  0
-4.33691e-05 0.000393539  0
-7.57198e-05 0.000560944  0
-1.49958e-05 0.000234711  0
-6.08769e-05 0.000495678  0
-4.53578e-05 0.000397828  0
-3.79364e-05 0.000365194  0
-6.82984e-05 0.000528311  0
-7.50095e-05 0.000560928  0
-0.000175837 0.000954459  0
-0.000103137 0.000658401  0
-0.000125423 0.000757694  0
-0.000139487 0.00080643  0
-8.90733e-05 0.000609665  0
-7.76764e-05 0.000564997  0
-5.53742e-05 0.000485085  0
-0.000169191 0.000942925  0
-6.65253e-05 0.000525041  0
-0.000112283 0.000714005  0
-0.000123434 0.000753961  0
1.74059e-06 -3.35271e-06  0
2.29929e-06 -1.01754e-05  0
-1.28212e-05 0.000220965  0
2.01994e-06 -6.76404e-06  0
-5.26096e-06 0.000105395  0
-5.54031e-06 0.000108806  0
2.09213e-06 -7.16003e-06  0
-1.37e-05 0.000232348  0
1.60657e-06 1.03221e-06  0
-5.80392e-06 0.000112594  0
-6.0467e-06 0.00011669  0
1.84935e-06 -3.06391e-06  0
-2.3228e-05 0.000283263  0
-1.3902e-05 0.000227673  0
-9.22597e-05 0.000639268  0
-1.8565e-05 0.000255468  0
-5.30808e-05 0.00043347  0
-5.77439e-05 0.000461265  0
-2.19823e-05 0.0002779  0
6.47061e-06 -8.3868e-06  0
-1.80339e-05 0.000241504  0
-7.75583e-06 0.000134757  0
-5.78166e-06 0.000116558  0
-2.00081e-05 0.000259702  0
-2.08138e-05 0.000277722  0
-9.77091e-05 0.000655147  0
-3.31072e-05 0.000347227  0
-5.92615e-05 0.000466435  0
-6.54081e-05 0.000501187  0
-2.69605e-05 0.000312474  0
-2.24804e-05 0.00028302  0
-2.85008e-05 0.000328801  0
9.7429e-06 -2.44604e-05  0
-2.54906e-05 0.00030591  0
-9.37893e-06 0.00015217  0
-6.36873e-06 0.00012928  0
-0.000225582 0.00108477  0
-9.98871e-05 0.0006562  0
-0.000178582 0.000957016  0
-0.000162734 0.000870485  0
-0.000139234 0.000806608  0
-0.000202082 0.00102089  0
-0.000229176 0.00108893  0
-0.000169179 0.000946285  0
-0.000385676 0.00154767  0
-0.000199178 0.00101761  0
-0.000277428 0.00124698  0
-0.000307426 0.0013183  0
-0.000228532 0.0010888  0
-0.00028981 0.00124372  0
-8.95868e-05 0.000643212  0
-0.000259171 0.00116626  0
-0.000189699 0.000943463  0
-0.00015906 0.000866004  0
-0.000225118 0.00108508  0
-0.000396263 0.00155831  0
-0.000301445 0.00125664  0
-0.000310691 0.00132169  0
-0.000348854 0.00140747  0
-0.000263282 0.00117086  0
-0.000503542 0.00175758  0
-0.000744147 0.002272  0
-0.00065937 0.00200328  0
-0.000623845 0.00201479  0
-0.000701759 0.00213764  0
-0.000581456 0.00188043  0
-0.000508165 0.00175982  0
-0.000384383 0.00154913  0
-0.000731675 0.00226574  0
-0.000446274 0.00165447  0
-0.000558029 0.00190744  0
-0.00061992 0.00201278  0
-0.000507707 0.00175964  0
-0.00064493 0.00199584  0
-0.000286604 0.00125015  0
-0.000576318 0.00187774  0
-0.000465767 0.001623  0
-0.000397156 0.0015049  0
-0.000503452 0.00175685  0
-0.000300751 0.00125902  0
-0.00039658 0.00155667  0
-0.000402101 0.00150793  0
-0.000348665 0.00140784  0
-0.000450016 0.00165676  0
-0.000932906 0.00253114  0
-0.000662925 0.00200835  0
-0.000740658 0.00226776  0
-0.000797916 0.00226974  0
-0.000701792 0.00213806  0
-0.000836782 0.00239945  0
-0.000937273 0.00253199  0
-0.000729022 0.00226565  0
-0.00121199 0.00305037  0
-0.000833147 0.00239882  0
-0.000970506 0.00265801  0
-0.00107463 0.00279118  0
-0.0009371 0.00253191  0
-0.00117428 0.00282866  0
-0.000649584 0.00200655  0
-0.00105569 0.00268029  0
-0.000911931 0.0024176  0
-0.000793342 0.00226923  0
-0.000933483 0.00253197  0
-0.00122274 0.003051  0
-0.00118658 0.0028288  0
-0.00107811 0.00279148  0
-0.00120466 0.0029399  0
-0.00106003 0.00268038  0
-0.000401378 0.00147237  0
-0.000285502 0.00124576  0
-0.000646002 0.00200089  0
-0.00034344 0.00135906  0
-0.000465752 0.00162333  0
-0.00052369 0.00173663  0
-0.000395152 0.00146739  0
-0.000185384 0.000939339  0
-0.000300704 0.00125824  0
-0.000290268 0.00120336  0
-0.000243044 0.00109879  0
-0.000347928 0.00136281  0
-0.000395267 0.00146859  0
-0.000661962 0.00201125  0
-0.000551643 0.00174064  0
-0.000528615 0.00173992  0
-0.000606802 0.00187594  0
-0.000473455 0.00160461  0
-0.000400557 0.0014721  0
-0.00053229 0.00172795  0
-0.000166912 0.000924212  0
-0.000466423 0.00160003  0
-0.000349601 0.00132608  0
-0.000283734 0.00119816  0
-0.000135222 0.000776576  0
-9.27614e-05 0.000643663  0
-0.000286661 0.00124363  0
-0.000113992 0.000710119  0
-0.000189711 0.000943646  0
-0.000210942 0.0010101  0
-0.000130309 0.000770456  0
-0.000298624 0.00126052  0
-0.000188206 0.000935895  0
-0.000214466 0.00101549  0
-0.000243415 0.00109821  0
-0.000159257 0.000853176  0
-0.000131381 0.000770171  0
-2.74016e-05 0.000342715  0
-0.000102615 0.000659881  0
-7.93912e-05 0.000556443  0
-6.50084e-05 0.000501298  0
-0.000116998 0.000715026  0
-0.000134064 0.000776376  0
-0.000175242 0.000914942  0
-1.6867e-05 0.000322654  0
-0.000154653 0.000845659  0
-9.60547e-05 0.000618798  0
-7.54657e-05 0.000549515  0
-0.00150434 0.00334693  0
-0.0018375 0.00366891  0
-0.00118499 0.00283664  0
-0.00167092 0.00350792  0
-0.00151125 0.00325277  0
-0.00134466 0.00309179  0
-0.0015015 0.00334767  0
-0.00119337 0.00283323  0
-0.00121642 0.00304707  0
-0.00134744 0.00309045  0
-0.0012049 0.00294015  0
-0.00135896 0.00319737  0
-0.00150212 0.00334815  0
-0.00181201 0.00385394  0
-0.00184469 0.00366486  0
-0.00165706 0.00360104  0
-0.00182835 0.0037594  0
-0.0016734 0.0035065  0
-0.00150437 0.00334677  0
-0.00120835 0.0030494  0
-0.001805 0.00385689  0
-0.00135636 0.00319808  0
-0.00150668 0.00345314  0
-0.00165469 0.00360183  0
-0.000867654 0.00230319  0
-0.000643336 0.00200081  0
-0.00118019 0.00283492  0
-0.000755495 0.002152  0
-0.000911762 0.00241786  0
-0.00102392 0.00256905  0
-0.000863281 0.00230344  0
-0.00119252 0.00283561  0
-0.00114944 0.00264173  0
-0.0010279 0.00256952  0
-0.00117098 0.00273867  0
-0.00100636 0.00247258  0
-0.000862097 0.0023019  0
-0.000556191 0.00174938  0
-0.000657585 0.00200399  0
-0.000709144 0.00202564  0
-0.000606888 0.00187669  0
-0.000759841 0.00215294  0
-0.000867404 0.00230308  0
-0.00113468 0.00264247  0
-0.000539085 0.00174722  0
-0.00100104 0.00247278  0
-0.000836885 0.00219485  0
-0.000703244 0.00202515  0
-0.00150925 0.00316758  0
-0.00117683 0.00283325  0
-0.00184518 0.00367255  0
-0.00134304 0.00300042  0
-0.001511 0.0032529  0
-0.00167721 0.00342007  0
-0.00150676 0.00316918  0
-0.00115915 0.00264833  0
-0.00118386 0.0028297  0
-0.00133296 0.00290876  0
-0.0011715 0.00273902  0
-0.00134531 0.00299944  0
-0.00150783 0.0031697  0
-0.00185061 0.00366857  0
-0.00189731 0.00351854  0
-0.00167922 0.00341914  0
-0.00187396 0.00359355  0
-0.00170257 0.00334412  0
-0.00150926 0.00316811  0
-0.00189258 0.00352449  0
-0.00115267 0.00265391  0
-0.00170092 0.0033463  0
-0.00152262 0.0030892  0
-0.00133097 0.00291101  0
-0.0021701 0.00416408  0
-0.00185188 0.003667  0
-0.00180533 0.0038519  0
-0.00201099 0.00391554  0
-0.0018286 0.00375945  0
-0.00198771 0.00400799  0
-0.00217161 0.0041625  0
-0.00180081 0.00385585  0
-0.00247848 0.00466097  0
-0.00198621 0.00400918  0
-0.00213965 0.00425841  0
-0.00232505 0.00441174  0
-0.00217163 0.00416284  0
-0.00257671 0.00448583  0
-0.00184802 0.00367168  0
-0.00237417 0.00432433  0
-0.00221237 0.00407875  0
-0.00200983 0.00391726  0
-0.00217048 0.00416411  0
-0.00248261 0.00465709  0
-0.00258019 0.00448128  0
-0.00232655 0.0044106  0
-0.0025314 0.00456919  0
-0.00237533 0.0043227  0
3.81184e-06 -9.78122e-06  0
-2.42638e-05 0.000339044  0
2.76478e-06 4.85228e-06  0
-1.0226e-05 0.000164631  0
-1.07495e-05 0.000171948  0
3.28831e-06 -2.46447e-06  0
3.05753e-06 -2.99423e-06  0
4.10065e-06 -1.49341e-05  0
-2.25823e-05 0.000318932  0
3.57909e-06 -8.96415e-06  0
-9.24081e-06 0.000151999  0
-9.76237e-06 0.000157969  0
-4.09019e-05 0.000415379  0
1.17338e-05 -5.44738e-06  0
-3.1992e-05 0.000349051  0
-1.45841e-05 0.000204966  0
-1.01291e-05 0.000171802  0
-3.6447e-05 0.000382215  0
-4.40563e-05 0.000425068  0
-2.32694e-05 0.000324959  0
-0.000168797 0.000912906  0
-3.36628e-05 0.000375014  0
-9.60333e-05 0.000618933  0
-0.000106427 0.000668987  0
-4.22825e-05 0.000424662  0
-5.81334e-05 0.000513543  0
1.96333e-05 -3.54112e-05  0
-5.02079e-05 0.000469103  0
-1.92501e-05 0.000239066  0
-1.13246e-05 0.000194626  0
-3.86054e-05 0.000415262  0
-0.00018106 0.00094014  0
-6.99352e-05 0.000547501  0
-0.000109833 0.000677701  0
-0.000125498 0.000743821  0
-5.42703e-05 0.000481382  0
-0.000259897 0.00114457  0
-0.000554165 0.00175533  0
-0.0004176 0.00144435  0
-0.000407031 0.00144995  0
-0.000485883 0.00159984  0
-0.000338748 0.00129446  0
-0.000269217 0.00115167  0
-0.000167168 0.000916873  0
-0.000532003 0.00173655  0
-0.000218193 0.00103427  0
-0.000349586 0.00132671  0
-0.00040061 0.00144411  0
-0.000267211 0.00115079  0
-0.000388617 0.00141929  0
-3.56569e-05 0.000521146  0
-0.000327914 0.00128504  0
-0.000212137 0.00097022  0
-0.000151434 0.000835967  0
-0.000260233 0.00114201  0
-6.18521e-05 0.000550064  0
-0.000187129 0.000938952  0
-0.000161043 0.000846037  0
-0.00012449 0.000744508  0
-0.000223681 0.00104048  0
-0.000777036 0.00208328  0
-0.000424798 0.00146091  0
-0.000547563 0.00174208  0
-0.000600917 0.0017721  0
-0.000486181 0.0016015  0
-0.000662299 0.00191268  0
-0.00078464 0.00208482  0
-0.000529318 0.00173773  0
-0.00114359 0.00265292  0
-0.000656979 0.00191127  0
-0.000836455 0.00219532  0
-0.000964116 0.00236887  0
-0.000784307 0.00208498  0
-0.00111449 0.00247993  0
-0.000401347 0.00146008  0
-0.000949397 0.00228245  0
-0.000757917 0.00197  0
-0.000592827 0.00177253  0
-0.000780014 0.00208643  0
-0.00115711 0.00265246  0
-0.00113182 0.00247482  0
-0.000968564 0.00236944  0
-0.00114446 0.00256364  0
-0.000955915 0.00228062  0
6.36625e-06 -1.63106e-06  0
8.27992e-06 -2.58625e-05  0
-4.6268e-05 0.000503551  0
7.32309e-06 -1.37468e-05  0
-1.89941e-05 0.000238844  0
-1.99509e-05 0.00025096  0
8.79745e-06 -1.61509e-05  0
-4.92115e-05 0.000544675  0
5.87573e-06 1.36937e-05  0
-2.0207e-05 0.000264262  0
-2.16679e-05 0.000279184  0
7.33659e-06 -1.22859e-06  0
-0.00011403 0.00072934  0
-3.99255e-05 0.000509734  0
-0.000384506 0.00143312  0
-7.69777e-05 0.000619537  0
-0.000212216 0.000971428  0
-0.000249268 0.00108123  0
-9.92117e-05 0.000708765  0
2.82479e-05 3.34994e-06  0
-6.54677e-05 0.000555925  0
-3.54819e-05 0.000356057  0
-1.86099e-05 0.000279638  0
-8.23397e-05 0.000632345  0
-9.62304e-05 0.000712785  0
-0.000420925 0.00147344  0
-0.000257333 0.00104296  0
-0.000258578 0.00109311  0
-0.000339129 0.0012582  0
-0.000176782 0.000877874  0
-0.000107411 0.000728957  0
-0.000204557 0.000979534  0
6.62655e-05 -6.66291e-05  0
-0.000155984 0.000854246  0
-6.91459e-05 0.000456453  0
-2.05725e-05 0.000331164  0
0.0053527 0.00891615  0
0.00558945 0.00949272  0
0.00479572 0.00867982  0
0.00547107 0.00920443  0
0.00519258 0.00908627  0
0.00507421 0.00879799  0
0.00535128 0.00891733  0
0.00479997 0.00867622  0
0.00510494 0.00835217  0
0.00507562 0.00879677  0
0.00495246 0.0085142  0
0.00522811 0.00863475  0
0.00502647 0.00926636  0
0.00480049 0.00867982  0
0.00558468 0.00949273  0
0.00491348 0.00897309  0
0.00519259 0.00908628  0
0.00530557 0.00937954  0
0.00502509 0.00926754  0
0.00449514 0.0090523  0
0.00480471 0.00867626  0
0.00476012 0.00915992  0
0.00464992 0.00886428  0
0.0049149 0.0089719  0
0.00502508 0.00926757  0
0.00558884 0.00948918  0
0.00524155 0.00986519  0
0.00530696 0.00937837  0
0.00541519 0.00967718  0
0.00513331 0.00956638  0
0.00502648 0.00926638  0
0.00523743 0.00986874  0
0.00449097 0.00905585  0
0.00513195 0.00956756  0
0.0048642 0.00946229  0
0.00475873 0.00916112  0
0.00469452 0.00966919  0
0.00523694 0.00986523  0
0.00488546 0.0102919  0
0.00496573 0.00976721  0
0.0050612 0.0100786  0
0.00478999 0.00998057  0
0.00469591 0.009668  0
0.00449564 0.00905589  0
0.00523278 0.00986871  0
0.00459577 0.00936194  0
0.00486421 0.0094623  0
0.00496434 0.00976836  0
0.00469593 0.00966802  0
0.00488132 0.0102954  0
0.004181 0.00948311  0
0.00478862 0.00998173  0
0.00453116 0.00988927  0
0.00443847 0.00957556  0
0.00469454 0.00966916  0
0.00418519 0.0094796  0
0.00449985 0.00905238  0
0.00443986 0.00957438  0
0.00434252 0.00926599  0
0.00459719 0.00936077  0
0.00581592 0.0100824  0
0.00523678 0.00986519  0
0.0055936 0.00948919  0
0.00552635 0.00997379  0
0.00541519 0.00967719  0
0.00570476 0.00978579  0
0.00581727 0.0100812  0
0.00602999 0.0106852  0
0.00523273 0.0098688  0
0.00592363 0.0103832  0
0.00563136 0.010277  0
0.005525 0.00997501  0
0.00543842 0.0104837  0
0.00488083 0.0102919  0
0.00524157 0.0098653  0
0.00515963 0.0103878  0
0.0050612 0.0100786  0
0.00534 0.0101745  0
0.00543976 0.0104825  0
0.00523747 0.00986883  0
0.00602526 0.0106851  0
0.00533862 0.0101757  0
0.00563137 0.010277  0
0.00573251 0.0105838  0
0.00543978 0.0104825  0
0.00562732 0.0111112  0
0.00487674 0.0102954  0
0.00553355 0.0107969  0
0.00525203 0.0107033  0
0.00515826 0.010389  0
0.00543842 0.0104837  0
0.00602928 0.0106816  0
0.00563133 0.0111077  0
0.00573385 0.0105827  0
0.00583031 0.0108947  0
0.00553488 0.0107957  0
0.00436024 0.0101202  0
0.00418556 0.00948321  0
0.00487677 0.0102953  0
0.0042729 0.00980169  0
0.00453117 0.00988927  0
0.0046185 0.0102078  0
0.00435885 0.0101213  0
0.00386914 0.00995739  0
0.00418979 0.00947974  0
0.004114 0.0100394  0
0.00402947 0.00971856  0
0.00427432 0.00980054  0
0.00435884 0.0101214  0
0.00488097 0.0102919  0
0.00452427 0.0107685  0
0.0046199 0.0102066  0
0.00470262 0.0105302  0
0.00444155 0.0104449  0
0.00436025 0.0101202  0
0.00452009 0.010772  0
0.00386493 0.00996086  0
0.00444017 0.0104461  0
0.00419251 0.0103664  0
0.00411259 0.0100405  0
0.00401716 0.0106233  0
0.0045198 0.0107684  0
0.00415711 0.0112943  0
0.00426848 0.0106959  0
0.00433846 0.0110314  0
0.00408714 0.0109588  0
0.00401855 0.0106222  0
0.0038694 0.00996102  0
0.00451563 0.0107718  0
0.00394398 0.0102916  0
0.00419251 0.0103664  0
0.00426709 0.010697  0
0.00401856 0.0106222  0
0.004153 0.0112978  0
0.00354226 0.0104882  0
0.00408578 0.01096  0
0.00384763 0.010893  0
0.00378041 0.0105552  0
0.00401718 0.0106233  0
0.0035464 0.0104848  0
0.0038736 0.00995759  0
0.00378179 0.0105541  0
0.00371 0.0102212  0
0.00394539 0.0102905  0
0.00467027 0.011435  0
0.00415262 0.0112941  0
0.00452428 0.0107686  0
0.00441144 0.0113646  0
0.00433845 0.0110314  0
0.00459727 0.0111018  0
0.00467166 0.0114339  0
0.00452007 0.010772  0
0.00521613 0.0115859  0
0.00459587 0.0111029  0
0.0048681 0.011179  0
0.00494389 0.0115099  0
0.00467166 0.0114339  0
0.0048084 0.0121098  0
0.00414843 0.0112976  0
0.00474003 0.0117718  0
0.00447842 0.0117037  0
0.00441005 0.0113657  0
0.00467025 0.011435  0
0.00522034 0.0115825  0
0.00481261 0.0121063  0
0.0049453 0.0115088  0
0.00501648 0.0118444  0
0.00474143 0.0117707  0
0.00505699 0.0109348  0
0.00451973 0.0107684  0
0.0048855 0.010292  0
0.00478836 0.0108516  0
0.00470262 0.0105302  0
0.00497125 0.0106134  0
0.00505838 0.0109336  0
0.00522064 0.0115861  0
0.00451556 0.0107718  0
0.00513951 0.0112599  0
0.0048681 0.011179  0
0.00478697 0.0108527  0
0.00505836 0.0109336  0
0.00488134 0.0102955  0
0.00562275 0.0111111  0
0.00496985 0.0106146  0
0.00525204 0.0107033  0
0.00534055 0.0110223  0
0.00505698 0.0109348  0
0.00562688 0.0111076  0
0.00522479 0.0115827  0
0.00534193 0.0110212  0
0.00542583 0.0113452  0
0.00514088 0.0112587  0
0.00367066 0.0111732  0
0.00354666 0.0104884  0
0.00414859 0.0112976  0
0.00360866 0.0108308  0
0.00384762 0.010893  0
0.00390962 0.0112354  0
0.00366935 0.0111744  0
0.00321731 0.0110605  0
0.00355068 0.010485  0
0.00344333 0.0111175  0
0.003384 0.0107728  0
0.00361002 0.0108297  0
0.00366932 0.0111744  0
0.00415258 0.0112942  0
0.00378425 0.0118688  0
0.00391095 0.0112343  0
0.00396842 0.0115815  0
0.00372678 0.0115216  0
0.00367065 0.0111733  0
0.00378036 0.0118722  0
0.00321339 0.0110639  0
0.0037255 0.0115227  0
0.00349687 0.011468  0
0.00344202 0.0111186  0
0.00623374 0.0113001  0
0.00642291 0.0119297  0
0.00562281 0.0111112  0
0.00632833 0.0116149  0
0.00602286 0.0115204  0
0.00592827 0.0112056  0
0.00623245 0.0113012  0
0.00562667 0.0111077  0
0.00603396 0.0106817  0
0.00592956 0.0112044  0
0.00583032 0.0108947  0
0.0061332 0.0109915  0
0.00580649 0.0117502  0
0.0056274 0.0111112  0
0.00641837 0.0119296  0
0.00571694 0.0114307  0
0.00602288 0.0115204  0
0.00611243 0.0118399  0
0.00580516 0.0117513  0
0.00522026 0.0115825  0
0.00563142 0.0111078  0
0.00551271 0.0116669  0
0.00542584 0.0113452  0
0.00571829 0.0114295  0
0.00580516 0.0117513  0
0.00642233 0.0119262  0
0.00597523 0.0123999  0
0.00611374 0.0118388  0
0.00619878 0.0121631  0
0.0058902 0.0120756  0
0.00580651 0.0117502  0
0.0059712 0.0124033  0
0.00521618 0.0115859  0
0.00588885 0.0120767  0
0.00559369 0.0119946  0
0.00551134 0.011668  0
0.00537479 0.0122483  0
0.00551419 0.0129244  0
0.00480382 0.0121095  0
0.00544449 0.0125864  0
0.005159 0.012517  0
0.00508931 0.0121789  0
0.00537337 0.0122495  0
0.00480809 0.0121061  0
0.00522485 0.0115827  0
0.00509073 0.0121778  0
0.00501647 0.0118444  0
0.00529911 0.0119161  0
0.00537337 0.0122495  0
0.005971 0.0123997  0
0.0055185 0.0129211  0
0.00567218 0.0123246  0
0.00574475 0.0126604  0
0.00544593 0.0125853  0
0.00537478 0.0122484  0
0.00522064 0.0115862  0
0.00596676 0.0124031  0
0.00529771 0.0119173  0
0.0055937 0.0119946  0
0.00567077 0.0123257  0
0.00427903 0.0119831  0
0.00415294 0.0112978  0
0.00480388 0.0121096  0
0.00421598 0.0116404  0
0.00447841 0.0117037  0
0.00454145 0.0120463  0
0.00427765 0.0119842  0
0.004808 0.0121061  0
0.00439446 0.0126789  0
0.00454283 0.0120452  0
0.00460123 0.0123925  0
0.00433606 0.0123315  0
0.00427767 0.0119842  0
0.00377976 0.0118686  0
0.00415704 0.0112944  0
0.00402872 0.0119264  0
0.0039684 0.0115815  0
0.00421735 0.0116393  0
0.00427901 0.0119831  0
0.0043904 0.0126824  0
0.00377573 0.0118721  0
0.00433471 0.0123327  0
0.00408307 0.0122772  0
0.00402737 0.0119276  0
0.00493682 0.0127951  0
0.00480832 0.0121098  0
0.00550967 0.0129242  0
0.00487257 0.0124525  0
0.005159 0.012517  0
0.00522324 0.0128596  0
0.00493538 0.0127963  0
0.00438986 0.0126786  0
0.00481257 0.0121063  0
0.00466262 0.0127375  0
0.00460121 0.0123925  0
0.00487398 0.0124513  0
0.00493537 0.0127962  0
0.00551401 0.0129207  0
0.0050546 0.013491  0
0.00522469 0.0128585  0
0.0052843 0.0132058  0
0.00499498 0.0131436  0
0.00493679 0.0127951  0
0.00505025 0.0134945  0
0.00438561 0.0126821  0
0.00499352 0.0131448  0
0.00471793 0.0130883  0
0.0046612 0.0127386  0
0.00660242 0.0125708  0
0.00597083 0.0123998  0
0.00642678 0.0119263  0
0.00628662 0.0124853  0
0.0061988 0.0121631  0
0.0065146 0.0122485  0
0.00660369 0.0125697  0
0.00677068 0.0132238  0
0.00596701 0.0124031  0
0.00668719 0.0128967  0
0.00636884 0.0128135  0
0.00628535 0.0124864  0
0.00612682 0.0130672  0
0.00551412 0.0129208  0
0.00597541 0.0123999  0
0.00582047 0.012994  0
0.00574476 0.0126604  0
0.00605111 0.0127336  0
0.00612823 0.0130662  0
0.00597129 0.0124032  0
0.00676645 0.0132237  0
0.00604976 0.0127347  0
0.00636887 0.0128134  0
0.00644734 0.0131449  0
0.00612824 0.0130661  0
0.00627103 0.0137429  0
0.00550982 0.012924  0
0.00619964 0.0134045  0
0.00589042 0.0133335  0
0.00581903 0.0129951  0
0.00612684 0.0130672  0
0.00677058 0.0132205  0
0.00627536 0.0137398  0
0.00644871 0.0131438  0
0.00652297 0.0134802  0
0.0062011 0.0134035  0
0.00331639 0.011773  0
0.00377964 0.0118688  0
0.00340759 0.0124904  0
0.00354802 0.0118209  0
0.00359361 0.0121796  0
0.00336199 0.0121317  0
0.00331761 0.0117719  0
0.0032177 0.011064  0
0.00377601 0.0118721  0
0.00326766 0.011418  0
0.00349686 0.0114681  0
0.00354681 0.011822  0
0.00331758 0.011772  0
0.00340413 0.0124936  0
0.00287993 0.0116857  0
0.00336086 0.0121328  0
0.00314203 0.0120896  0
0.00309876 0.0117288  0
0.00331642 0.011773  0
0.00288346 0.0116825  0
0.0032214 0.0110608  0
0.00309994 0.0117278  0
0.00305243 0.0113716  0
0.00326891 0.0114169  0
0.00388027 0.0125819  0
0.00340315 0.0124903  0
0.00378403 0.0118689  0
0.00364171 0.0125361  0
0.00359359 0.0121796  0
0.00383215 0.0122254  0
0.00388151 0.0125807  0
0.00378026 0.0118722  0
0.00438583 0.0126823  0
0.00383088 0.0122265  0
0.00408304 0.0122772  0
0.00413367 0.0126315  0
0.00388146 0.0125808  0
0.00396875 0.0133034  0
0.00339952 0.0124937  0
0.00392511 0.0129421  0
0.00368414 0.0128985  0
0.00364049 0.0125372  0
0.00388024 0.0125819  0
0.0043896 0.0126788  0
0.00397237 0.0132999  0
0.00413492 0.0126304  0
0.00418098 0.0129894  0
0.0039263 0.0129409  0
0.00296193 0.0124158  0
0.00288409 0.0116856  0
0.00339992 0.0124937  0
0.00292301 0.0120507  0
0.00314201 0.0120897  0
0.00318092 0.0124547  0
0.00296092 0.0124168  0
0.0025476 0.0123471  0
0.0028873 0.0116827  0
0.00275426 0.0123819  0
0.00271745 0.0120149  0
0.00292411 0.0120498  0
0.00296088 0.0124168  0
0.003403 0.0124907  0
0.00303083 0.013156  0
0.00318194 0.0124538  0
0.00321691 0.0128234  0
0.00299585 0.0127864  0
0.00296189 0.0124159  0
0.00302796 0.013159  0
0.0025446 0.0123499  0
0.00299493 0.0127874  0
0.00278628 0.0127544  0
0.00275324 0.0123829  0
0.00260729 0.0131005  0
0.00265663 0.0138625  0
0.00221074 0.0130512  0
0.00263196 0.0134815  0
0.00243369 0.0134568  0
0.00240902 0.0130758  0
0.00260653 0.0131011  0
0.00221316 0.0130489  0
0.00255112 0.0123473  0
0.00240984 0.013075  0
0.00238214 0.0126981  0
0.00257883 0.0127242  0
0.00260647 0.0131012  0
0.00302646 0.0131567  0
0.00265884 0.0138602  0
0.00281647 0.013129  0
0.00284265 0.0135085  0
0.00263266 0.0134807  0
0.00260733 0.0131003  0
0.00254849 0.0123497  0
0.00302403 0.0131592  0
0.00257791 0.012725  0
0.00278626 0.0127545  0
0.00281568 0.0131297  0
0.00225796 0.013819  0
0.00221421 0.013051  0
0.00265313 0.0138628  0
0.00223608 0.013435  0
0.00243367 0.0134569  0
0.00245555 0.0138409  0
0.00225737 0.0138196  0
0.00188345 0.0137809  0
0.0022163 0.0130493  0
0.00207041 0.0138002  0
0.00204987 0.0134151  0
0.00223683 0.0134344  0
0.00225728 0.0138196  0
0.00265496 0.0138611  0
0.00229649 0.0145945  0
0.00245612 0.0138404  0
0.00247573 0.0142278  0
0.00227689 0.0142071  0
0.00225793 0.0138191  0
0.00229486 0.0145961  0
0.00188155 0.0137824  0
0.0022764 0.0142076  0
0.00208821 0.0141893  0
0.00206974 0.0138008  0
0.00184902 0.0130081  0
0.00180627 0.0122431  0
0.00221124 0.0130512  0
0.00182764 0.0126256  0
0.00200876 0.0126471  0
0.00203013 0.0130296  0
0.00184829 0.0130088  0
0.00221331 0.0130495  0
0.00188649 0.0137807  0
0.0020308 0.0130291  0
0.0020499 0.0134151  0
0.00186739 0.0133947  0
0.00184836 0.0130087  0
0.00150427 0.0129714  0
0.00180858 0.0122414  0
0.00167631 0.0129901  0
0.00165642 0.0126064  0
0.00182847 0.0126251  0
0.00184902 0.0130083  0
0.00188463 0.0137823  0
0.00150216 0.012973  0
0.00186682 0.0133953  0
0.00169339 0.0133777  0
0.00167559 0.0129907  0
0.00308585 0.0139128  0
0.00265489 0.0138604  0
0.00303034 0.0131564  0
0.00287037 0.0138866  0
0.00284262 0.0135084  0
0.00305809 0.0135346  0
0.00308662 0.0139119  0
0.00302782 0.0131589  0
0.00354393 0.0139706  0
0.00305722 0.0135354  0
0.00328587 0.0135648  0
0.00331528 0.0139413  0
0.00308655 0.0139121  0
0.00313581 0.0146773  0
0.0026526 0.0138628  0
0.00311118 0.0142947  0
0.0028942 0.01427  0
0.00286957 0.0138874  0
0.00308578 0.0139128  0
0.00354625 0.0139681  0
0.00313789 0.0146749  0
0.00331602 0.0139404  0
0.00334207 0.0143215  0
0.00311184 0.0142939  0
0.00348127 0.0132262  0
0.00302654 0.0131562  0
0.00340722 0.0124906  0
0.00325391 0.0131912  0
0.00321688 0.0128234  0
0.00344425 0.0128584  0
0.00348224 0.0132252  0
0.00354828 0.0139703  0
0.00302354 0.0131591  0
0.00351526 0.0135978  0
0.00328591 0.0135647  0
0.00325289 0.0131922  0
0.0034823 0.0132251  0
0.003404 0.0124936  0
0.0039642 0.0133035  0
0.00344315 0.0128594  0
0.0036841 0.0128985  0
0.00372325 0.0132643  0
0.00348123 0.0132262  0
0.00396733 0.0133003  0
0.00355118 0.0139672  0
0.00372428 0.0132632  0
0.00375926 0.0136337  0
0.00351621 0.0135967  0
0.00153516 0.0137514  0
0.00120417 0.0137248  0
0.00150663 0.0129719  0
0.00136966 0.0137381  0
0.0013554 0.0133483  0
0.0015209 0.0133617  0
0.00153567 0.0137511  0
0.0015047 0.012973  0
0.00188208 0.0137824  0
0.00152019 0.013362  0
0.00169339 0.0133777  0
0.00170887 0.0137668  0
0.00153569 0.0137512  0
0.00156171 0.0145353  0
0.00120241 0.0137258  0
0.0015487 0.0141433  0
0.00138206 0.0141305  0
0.00136905 0.0137385  0
0.00153506 0.0137515  0
0.00188374 0.0137814  0
0.00156321 0.0145344  0
0.0017094 0.0137665  0
0.00172348 0.0141579  0
0.00154914 0.0141429  0
0.00118073 0.0129444  0
0.00150458 0.0129719  0
0.00120627 0.0137248  0
0.00134266 0.0129582  0
0.00135543 0.0133483  0
0.0011935 0.0133346  0
0.00118141 0.012944  0
0.00115301 0.0121691  0
0.00150265 0.0129729  0
0.00116721 0.0125565  0
0.00132783 0.012571  0
0.00134203 0.0129585  0
0.00118144 0.0129441  0
0.00120453 0.0137257  0
0.000869891 0.0129217  0
0.00119298 0.0133349  0
0.00103721 0.0133237  0
0.00102566 0.0129329  0
0.00118081 0.0129443  0
0.000871872 0.0129207  0
0.00115519 0.0121681  0
0.00102634 0.0129325  0
0.00101353 0.0125444  0
0.001168 0.0125562  0
0.00191675 0.0145636  0
0.00229334 0.0145955  0
0.00194724 0.0153487  0
0.00210504 0.0145795  0
0.00212029 0.0149721  0
0.001932 0.0149561  0
0.0019173 0.0145632  0
0.00188446 0.0137823  0
0.00229194 0.0145963  0
0.00190088 0.0141727  0
0.0020882 0.0141893  0
0.00210462 0.0145797  0
0.0019173 0.0145633  0
0.00194599 0.0153494  0
0.0015592 0.0145352  0
0.00193164 0.0149564  0
0.0017526 0.0149423  0
0.00173825 0.0145493  0
0.00191686 0.0145635  0
0.00156075 0.0145344  0
0.00188615 0.0137814  0
0.00173881 0.0145489  0
0.00172345 0.0141579  0
0.00190151 0.0141724  0
0.00269998 0.0146343  0
0.00229307 0.0145948  0
0.00265832 0.0138608  0
0.00249652 0.0146146  0
0.00247569 0.0142278  0
0.00267915 0.0142476  0
0.00270044 0.0146339  0
0.00273834 0.0154146  0
0.00229139 0.0145962  0
0.00271939 0.0150243  0
0.00251486 0.0150054  0
0.00249591 0.0146151  0
0.0027005 0.0146337  0
0.00265645 0.0138624  0
0.0031319 0.0146778  0
0.00267847 0.0142481  0
0.00289418 0.0142701  0
0.0029162 0.0146558  0
0.00269988 0.0146343  0
0.00313347 0.0146762  0
0.00273971 0.0154132  0
0.00291668 0.0146553  0
0.00293659 0.0150447  0
0.0027198 0.0150238  0
0.00232878 0.0153803  0
0.00194448 0.0153488  0
0.00229603 0.0145954  0
0.00213663 0.0153645  0
0.00212026 0.0149721  0
0.00231241 0.0149879  0
0.00232912 0.0153801  0
0.00229461 0.014596  0
0.0027351 0.015415  0
0.00231186 0.014988  0
0.00251485 0.0150055  0
0.00253211 0.0153975  0
0.00232911 0.0153803  0
0.00236087 0.0161692  0
0.00194316 0.0153492  0
0.00234499 0.0157748  0
0.00215201 0.0157592  0
0.00213613 0.0153648  0
0.00232865 0.0153804  0
0.00273618 0.0154145  0
0.00236185 0.016169  0
0.00253241 0.0153975  0
0.00254901 0.0157918  0
0.00234525 0.0157747  0
0.00122679 0.0145122  0
0.00120439 0.0137259  0
0.00155974 0.0145352  0
0.00121559 0.0141191  0
0.00138207 0.0141306  0
0.00139327 0.0145237  0
0.00122625 0.0145125  0
0.00156118 0.0145349  0
0.00124746 0.0153006  0
0.00139372 0.0145237  0
0.00140432 0.0149177  0
0.00123686 0.0149065  0
0.00122637 0.0145124  0
0.000905782 0.0144934  0
0.00120608 0.0137254  0
0.00106608 0.0145029  0
0.00105593 0.0141094  0
0.00121623 0.0141189  0
0.00122684 0.0145124  0
0.00124615 0.0153009  0
0.000904219 0.0144939  0
0.00123649 0.0149066  0
0.00107518 0.0148974  0
0.00106553 0.0145031  0
0.00158716 0.015323  0
0.00156148 0.0145354  0
0.00194373 0.0153494  0
0.00157432 0.0149292  0
0.0017526 0.0149424  0
0.00176545 0.0153362  0
0.00158682 0.0153231  0
0.00124562 0.0153002  0
0.00156297 0.0145352  0
0.00141622 0.0153116  0
0.00140429 0.0149177  0
0.0015749 0.0149291  0
0.00158668 0.0153231  0
0.00194494 0.0153494  0
0.00161212 0.0161115  0
0.00176581 0.0153363  0
0.00177853 0.0157305  0
0.0015994 0.0157173  0
0.00158721 0.0153232  0
0.00161097 0.0161114  0
0.0012442 0.0153004  0
0.00159909 0.0157173  0
0.00142759 0.0157059  0
0.0014157 0.0153118  0
0.000890483 0.013706  0
0.000871511 0.0129218  0
0.00120293 0.0137257  0
0.000880997 0.0133139  0
0.00103722 0.0133238  0
0.00104671 0.0137159  0
0.00088999 0.0137062  0
0.000586852 0.0136911  0
0.000873406 0.0129212  0
0.000738421 0.0136987  0
0.000730129 0.0133062  0
0.000881698 0.0133137  0
0.000889896 0.0137063  0
0.00120459 0.0137252  0
0.000907324 0.0144936  0
0.00104724 0.0137158  0
0.00105596 0.0141094  0
0.00089861 0.0141  0
0.000890533 0.0137062  0
0.000905826 0.0144941  0
0.000585122 0.0136917  0
0.00089818 0.0141001  0
0.000745474 0.0140929  0
0.000737828 0.0136989  0
0.000575337 0.0129059  0
0.000560579 0.0121253  0
0.000870383 0.0129216  0
0.000567958 0.0125156  0
0.000715481 0.0125234  0
0.00072286 0.0129137  0
0.000574686 0.0129062  0
0.000872284 0.0129211  0
0.000588016 0.0136913  0
0.000723485 0.0129136  0
0.00073015 0.0133062  0
0.000581351 0.0132987  0
0.000574761 0.0129061  0
0.00028592 0.0128956  0
0.000562709 0.0121248  0
0.000430341 0.0129008  0
0.000424315 0.0125102  0
0.000568735 0.0125154  0
0.000575388 0.012906  0
0.000586311 0.0136917  0
0.000283987 0.0128961  0
0.000580849 0.0132989  0
0.000435149 0.0132939  0
0.000429688 0.012901  0
0.00404714 0.0140361  0
0.00396856 0.0133032  0
0.00457622 0.0141148  0
0.00400785 0.0136697  0
0.00427239 0.013709  0
0.00431168 0.0140755  0
0.00404603 0.0140373  0
0.00354652 0.0139674  0
0.00397191 0.0133001  0
0.00379628 0.0140023  0
0.00375922 0.0136337  0
0.00400897 0.0136687  0
0.004046 0.0140372  0
0.00457954 0.0141114  0
0.0041158 0.0147807  0
0.00431277 0.0140743  0
0.00434767 0.0144461  0
0.0040809 0.014409  0
0.00404703 0.0140362  0
0.00411272 0.014784  0
0.0035434 0.0139705  0
0.00407988 0.0144101  0
0.00382806 0.0143772  0
0.00379522 0.0140034  0
0.00449295 0.0133912  0
0.00458108 0.0141147  0
0.0039638 0.0133033  0
0.00453701 0.013753  0
0.00427244 0.013709  0
0.00422838 0.0133473  0
0.00449167 0.0133924  0
0.00396767 0.0132999  0
0.00439423 0.0126789  0
0.00422967 0.0133461  0
0.00418095 0.0129894  0
0.00444295 0.0130356  0
0.00449165 0.0133923  0
0.00504961 0.0134908  0
0.00458502 0.0141111  0
0.00477063 0.0134416  0
0.00481731 0.0138009  0
0.00453834 0.0137517  0
0.00449302 0.0133912  0
0.00439025 0.0126823  0
0.00504555 0.0134943  0
0.00444163 0.0130367  0
0.0047179 0.0130883  0
0.00476928 0.0134428  0
0.00360621 0.0147265  0
0.00365498 0.0154965  0
0.00313131 0.0146776  0
0.00363059 0.0151115  0
0.00339314 0.015087  0
0.00336876 0.0147021  0
0.00360556 0.0147272  0
0.00313352 0.0146753  0
0.00355054 0.0139676  0
0.00336954 0.0147013  0
0.00334203 0.0143215  0
0.00357805 0.0143474  0
0.0036055 0.0147272  0
0.00411021 0.0147818  0
0.00365695 0.015494  0
0.00385785 0.0147545  0
0.00388358 0.0151379  0
0.00363123 0.0151106  0
0.00360634 0.0147263  0
0.00354806 0.0139701  0
0.00410795 0.0147844  0
0.0035772 0.0143482  0
0.00382801 0.0143773  0
0.00385714 0.0147554  0
0.00317954 0.0154532  0
0.00313554 0.014677  0
0.00365065 0.0154972  0
0.00315754 0.0150651  0
0.0033931 0.0150871  0
0.0034151 0.0154752  0
0.0031791 0.0154538  0
0.00273593 0.0154136  0
0.00313717 0.0146757  0
0.00295751 0.0154337  0
0.00293655 0.0150447  0
0.00315814 0.0150647  0
0.00317899 0.0154538  0
0.00365192 0.0154958  0
0.00321946 0.0162391  0
0.00341545 0.0154748  0
0.00343569 0.0158674  0
0.00319922 0.0158464  0
0.00317944 0.0154535  0
0.00321841 0.0162401  0
0.0027345 0.0154147  0
0.00319892 0.0158468  0
0.00297645 0.0158274  0
0.00295697 0.0154341  0
0.00465882 0.0148508  0
0.00411078 0.0147809  0
0.00458446 0.0141111  0
0.0043848 0.0148159  0
0.00434762 0.014446  0
0.00462164 0.0144809  0
0.00465991 0.0148496  0
0.0047254 0.0156016  0
0.00410735 0.0147842  0
0.00469266 0.0152256  0
0.00441638 0.0151929  0
0.00438363 0.0148169  0
0.00466009 0.0148495  0
0.0045808 0.0141144  0
0.00523989 0.0149291  0
0.00462045 0.014482  0
0.00491035 0.0145217  0
0.00494999 0.0148893  0
0.0046588 0.0148507  0
0.00524362 0.0149255  0
0.00472888 0.0155982  0
0.00495121 0.0148881  0
0.00498625 0.0152618  0
0.00469384 0.0152244  0
0.0041692 0.0155459  0
0.00365214 0.0154947  0
0.00411491 0.014781  0
0.00391067 0.0155203  0
0.00388353 0.0151379  0
0.00414205 0.0151635  0
0.00417001 0.0155449  0
0.00411242 0.0147835  0
0.00472016 0.0156024  0
0.00414121 0.0151642  0
0.00441629 0.015193  0
0.00444509 0.0155736  0
0.0041698 0.0155451  0
0.00421788 0.016323  0
0.00364997 0.0154969  0
0.00419384 0.015934  0
0.00393393 0.0159099  0
0.00390989 0.015521  0
0.00416914 0.0155458  0
0.00472244 0.0155996  0
0.0042198 0.0163205  0
0.00444579 0.0155727  0
0.00447112 0.0159601  0
0.00419447 0.0159332  0
0.00515374 0.0142051  0
0.00458016 0.014111  0
0.0050544 0.0134909  0
0.00486695 0.014158  0
0.00481728 0.0138009  0
0.00510407 0.013848  0
0.00515526 0.0142039  0
0.00505006 0.0134943  0
0.00575786 0.0143098  0
0.00510266 0.0138491  0
0.00540396 0.013902  0
0.00545656 0.0142568  0
0.00515516 0.0142038  0
0.00524499 0.014929  0
0.00457585 0.0141145  0
0.00520008 0.0145664  0
0.00491042 0.0145217  0
0.00486551 0.0141592  0
0.00515373 0.014205  0
0.00576241 0.0143062  0
0.00524951 0.0149253  0
0.00545807 0.0142556  0
0.00550596 0.0146158  0
0.00520162 0.0145652  0
0.00564433 0.0136112  0
0.00505003 0.0134907  0
0.00551856 0.012921  0
0.00534718 0.0135509  0
0.00528429 0.0132058  0
0.00558144 0.0132661  0
0.00564584 0.01361  0
0.00576251 0.01431  0
0.00504547 0.0134941  0
0.00570418 0.01396  0
0.00540399 0.013902  0
0.00534566 0.013552  0
0.00564587 0.01361  0
0.00551412 0.0129243  0
0.00626674 0.0137426  0
0.00558 0.0132672  0
0.00589043 0.0133335  0
0.0059563 0.0136763  0
0.00564434 0.0136111  0
0.00627133 0.0137393  0
0.00576725 0.0143066  0
0.00595783 0.0136752  0
0.00601929 0.014023  0
0.00570579 0.0139589  0
-3.51596e-07 0.0128934  0
0.000286381 0.0128959  0
8.50941e-07 0.0136802  0
0.000143015 0.0128946  0
0.000143616 0.013288  0
2.49672e-07 0.0132868  0
2.85059e-07 0.0128933  0
-1.0604e-06 0.0121106  0
0.000284471 0.0128959  0
-3.87671e-07 0.0125019  0
0.000141705 0.0125032  0
0.000142378 0.0128946  0
3.51596e-07 0.0128934  0
-8.50941e-07 0.0136802  0
-0.000286381 0.0128959  0
-2.49673e-07 0.0132868  0
-0.000143616 0.013288  0
-0.000143015 0.0128946  0
-2.85059e-07 0.0128933  0
-0.000284471 0.0128959  0
1.0604e-06 0.0121106  0
-0.000142378 0.0128946  0
-0.000141705 0.0125032  0
3.87671e-07 0.0125019  0
0.000291323 0.0136835  0
6.06016e-07 0.01368  0
0.000286589 0.0128961  0
0.000145965 0.0136818  0
0.000143597 0.0132881  0
0.000288956 0.0132898  0
0.000291812 0.0136835  0
0.00028469 0.0128963  0
0.000585638 0.0136916  0
0.000288251 0.0132899  0
0.000435164 0.0132939  0
0.000438725 0.0136875  0
0.000291885 0.0136836  0
0.000296287 0.0144732  0
-1.11324e-06 0.0136802  0
0.000294086 0.0140784  0
0.000147587 0.0140767  0
0.000145386 0.0136819  0
0.000291235 0.0136836  0
0.000587332 0.0136915  0
0.000297805 0.014473  0
0.000439284 0.0136875  0
0.000442569 0.0140822  0
0.00029452 0.0140783  0
-0.000291323 0.0136835  0
-0.000286589 0.0128961  0
-6.06016e-07 0.01368  0
-0.000288956 0.0132898  0
-0.000143597 0.0132881  0
-0.000145965 0.0136818  0
-0.000291812 0.0136835  0
-0.000585638 0.0136916  0
-0.00028469 0.0128963  0
-0.000438725 0.0136875  0
-0.000435164 0.0132939  0
-0.000288251 0.0132899  0
-0.000291885 0.0136836  0
1.11324e-06 0.0136802  0
-0.000296287 0.0144732  0
-0.000145386 0.0136819  0
-0.000147587 0.0140767  0
-0.000294086 0.0140784  0
-0.000291235 0.0136836  0
-0.000297805 0.014473  0
-0.000587332 0.0136915  0
-0.00029452 0.0140783  0
-0.000442569 0.0140822  0
-0.000439284 0.0136875  0
-0.000574761 0.0129061  0
-0.000562709 0.0121248  0
-0.00028592 0.0128956  0
-0.000568735 0.0125154  0
-0.000424315 0.0125102  0
-0.000430341 0.0129008  0
-0.000575388 0.012906  0
-0.000283987 0.0128961  0
-0.000586311 0.0136917  0
-0.000429688 0.012901  0
-0.000435149 0.0132939  0
-0.000580849 0.0132989  0
-0.000575337 0.0129059  0
-0.000870383 0.0129216  0
-0.000560579 0.0121253  0
-0.00072286 0.0129137  0
-0.000715481 0.0125234  0
-0.000567958 0.0125156  0
-0.000574686 0.0129062  0
-0.000588016 0.0136913  0
-0.000872284 0.0129211  0
-0.000581351 0.0132987  0
-0.00073015 0.0133062  0
-0.000723485 0.0129136  0
0.000598153 0.0144812  0
0.000607487 0.0152707  0
0.000295545 0.0144729  0
0.00060282 0.014876  0
0.000451516 0.0148718  0
0.000446849 0.0144771  0
0.000597649 0.0144812  0
0.000297141 0.0144727  0
0.000587951 0.0136919  0
0.000447395 0.0144769  0
0.000442546 0.0140823  0
0.0005928 0.0140865  0
0.000597537 0.0144813  0
0.000906289 0.0144938  0
0.000608883 0.0152706  0
0.000751913 0.0144875  0
0.000757586 0.0148822  0
0.00060321 0.0148759  0
0.000598074 0.0144811  0
0.000586219 0.0136921  0
0.000904761 0.0144938  0
0.000592146 0.0140866  0
0.00074549 0.014093  0
0.000751418 0.0144875  0
2.15103e-07 0.0144707  0
-8.76866e-07 0.0136807  0
0.00029609 0.0144728  0
-3.30882e-07 0.0140757  0
0.000147607 0.0140767  0
0.000148153 0.0144717  0
-3.14395e-07 0.0144708  0
0.000297679 0.0144729  0
7.14325e-07 0.0152604  0
0.000148682 0.0144718  0
0.000149196 0.0148666  0
1.99965e-07 0.0148656  0
-2.15103e-07 0.0144707  0
-0.00029609 0.0144728  0
8.76866e-07 0.0136807  0
-0.000148153 0.0144717  0
-0.000147607 0.0140767  0
3.30881e-07 0.0140757  0
3.14395e-07 0.0144708  0
-7.14325e-07 0.0152604  0
-0.000297679 0.0144729  0
-1.99965e-07 0.0148656  0
-0.000149196 0.0148666  0
-0.000148682 0.0144718  0
0.000302385 0.0152628  0
0.000296158 0.0144736  0
0.000606919 0.01527  0
0.000299272 0.0148682  0
0.000451538 0.0148718  0
0.000454652 0.0152664  0
0.000301986 0.0152628  0
4.95982e-07 0.0152597  0
0.000297847 0.0144736  0
0.000151241 0.0152612  0
0.000149171 0.0148667  0
0.000299917 0.0148682  0
0.000301858 0.0152629  0
0.000608451 0.0152702  0
0.000308153 0.016049  0
0.000455154 0.0152666  0
0.000458302 0.0156596  0
0.000305006 0.0156559  0
0.000302495 0.0152629  0
0.000306727 0.0160489  0
-1.07973e-06 0.0152598  0
0.000304611 0.0156559  0
0.000152824 0.0156543  0
0.000150708 0.0152614  0
0.00092155 0.0152833  0
0.000607871 0.01527  0
0.000907248 0.0144944  0
0.000764711 0.0152766  0
0.00075756 0.0148822  0
0.000914399 0.0148888  0
0.000921926 0.0152833  0
0.000905636 0.0144944  0
0.00124476 0.0153005  0
0.000913781 0.0148888  0
0.0010752 0.0148974  0
0.00108334 0.0152919  0
0.000922011 0.0152834  0
0.00093648 0.0160703  0
0.000606343 0.01527  0
0.000929245 0.0156768  0
0.000771411 0.0156702  0
0.000764177 0.0152767  0
0.000921411 0.0152834  0
0.00124616 0.0153006  0
0.000937803 0.0160704  0
0.00108379 0.015292  0
0.00109198 0.0156855  0
0.000929607 0.0156769  0
-0.000890483 0.013706  0
-0.00120293 0.0137257  0
-0.000871511 0.0129218  0
-0.00104671 0.0137159  0
-0.00103722 0.0133238  0
-0.000880997 0.0133139  0
-0.00088999 0.0137062  0
-0.000873406 0.0129212  0
-0.000586852 0.0136911  0
-0.000881698 0.0133137  0
-0.000730129 0.0133062  0
-0.000738421 0.0136987  0
-0.000889896 0.0137063  0
-0.000907324 0.0144936  0
-0.00120459 0.0137252  0
-0.00089861 0.0141  0
-0.00105596 0.0141094  0
-0.00104724 0.0137158  0
-0.000890533 0.0137062  0
-0.000585122 0.0136917  0
-0.000905826 0.0144941  0
-0.000737828 0.0136989  0
-0.000745474 0.0140929  0
-0.00089818 0.0141001  0
-0.00118144 0.0129441  0
-0.000869891 0.0129217  0
-0.00120453 0.0137257  0
-0.00102566 0.0129329  0
-0.00103721 0.0133237  0
-0.00119298 0.0133349  0
-0.00118081 0.0129443  0
-0.00115519 0.0121681  0
-0.000871872 0.0129207  0
-0.001168 0.0125562  0
-0.00101353 0.0125444  0
-0.00102634 0.0129325  0
-0.00118073 0.0129444  0
-0.00120627 0.0137248  0
-0.00150458 0.0129719  0
-0.0011935 0.0133346  0
-0.00135543 0.0133483  0
-0.00134266 0.0129582  0
-0.00118141 0.012944  0
-0.00150265 0.0129729  0
-0.00115301 0.0121691  0
-0.00134203 0.0129585  0
-0.00132783 0.012571  0
-0.00116721 0.0125565  0
-0.000598153 0.0144812  0
-0.000295545 0.0144729  0
-0.000607487 0.0152707  0
-0.000446849 0.0144771  0
-0.000451516 0.0148718  0
-0.00060282 0.014876  0
-0.000597649 0.0144812  0
-0.000587951 0.0136919  0
-0.000297141 0.0144727  0
-0.0005928 0.0140865  0
-0.000442546 0.0140823  0
-0.000447395 0.0144769  0
-0.000597537 0.0144813  0
-0.000608883 0.0152706  0
-0.000906289 0.0144938  0
-0.00060321 0.0148759  0
-0.000757586 0.0148822  0
-0.000751913 0.0144875  0
-0.000598074 0.0144811  0
-0.000904761 0.0144938  0
-0.000586219 0.0136921  0
-0.000751418 0.0144875  0
-0.00074549 0.014093  0
-0.000592146 0.0140866  0
-0.000302385 0.0152628  0
-0.000606919 0.01527  0
-0.000296158 0.0144736  0
-0.000454652 0.0152664  0
-0.000451538 0.0148718  0
-0.000299272 0.0148682  0
-0.000301986 0.0152628  0
-0.000297847 0.0144736  0
-4.95982e-07 0.0152597  0
-0.000299917 0.0148682  0
-0.000149171 0.0148667  0
-0.000151241 0.0152612  0
-0.000301858 0.0152629  0
-0.000308153 0.016049  0
-0.000608451 0.0152702  0
-0.000305006 0.0156559  0
-0.000458302 0.0156596  0
-0.000455154 0.0152666  0
-0.000302495 0.0152629  0
1.07973e-06 0.0152598  0
-0.000306727 0.0160489  0
-0.000150708 0.0152614  0
-0.000152824 0.0156543  0
-0.000304611 0.0156559  0
-0.00122637 0.0145124  0
-0.00120608 0.0137254  0
-0.000905782 0.0144934  0
-0.00121623 0.0141189  0
-0.00105593 0.0141094  0
-0.00106608 0.0145029  0
-0.00122684 0.0145124  0
-0.000904219 0.0144939  0
-0.00124615 0.0153009  0
-0.00106553 0.0145031  0
-0.00107518 0.0148974  0
-0.00123649 0.0149066  0
-0.00122679 0.0145122  0
-0.00155974 0.0145352  0
-0.00120439 0.0137259  0
-0.00139327 0.0145237  0
-0.00138207 0.0141306  0
-0.00121559 0.0141191  0
-0.00122625 0.0145125  0
-0.00124746 0.0153006  0
-0.00156118 0.0145349  0
-0.00123686 0.0149065  0
-0.00140432 0.0149177  0
-0.00139372 0.0145237  0
-0.00092155 0.0152833  0
-0.000907248 0.0144944  0
-0.000607871 0.01527  0
-0.000914399 0.0148888  0
-0.00075756 0.0148822  0
-0.000764711 0.0152766  0
-0.000921926 0.0152833  0
-0.00124476 0.0153005  0
-0.000905636 0.0144944  0
-0.00108334 0.0152919  0
-0.0010752 0.0148974  0
-0.000913781 0.0148888  0
-0.000922011 0.0152834  0
-0.000606343 0.01527  0
-0.00093648 0.0160703  0
-0.000764177 0.0152767  0
-0.000771411 0.0156702  0
-0.000929245 0.0156768  0
-0.000921411 0.0152834  0
-0.000937803 0.0160704  0
-0.00124616 0.0153006  0
-0.000929607 0.0156769  0
-0.00109198 0.0156855  0
-0.00108379 0.015292  0
-0.00153516 0.0137514  0
-0.00150663 0.0129719  0
-0.00120417 0.0137248  0
-0.0015209 0.0133617  0
-0.0013554 0.0133483  0
-0.00136966 0.0137381  0
-0.00153567 0.0137511  0
-0.00188208 0.0137824  0
-0.0015047 0.012973  0
-0.00170887 0.0137668  0
-0.00169339 0.0133777  0
-0.00152019 0.013362  0
-0.00153569 0.0137512  0
-0.00120241 0.0137258  0
-0.00156171 0.0145353  0
-0.00136905 0.0137385  0
-0.00138206 0.0141305  0
-0.0015487 0.0141433  0
-0.00153506 0.0137515  0
-0.00156321 0.0145344  0
-0.00188374 0.0137814  0
-0.00154914 0.0141429  0
-0.00172348 0.0141579  0
-0.0017094 0.0137665  0
-0.00184836 0.0130087  0
-0.00180858 0.0122414  0
-0.00150427 0.0129714  0
-0.00182847 0.0126251  0
-0.00165642 0.0126064  0
-0.00167631 0.0129901  0
-0.00184902 0.0130083  0
-0.00150216 0.012973  0
-0.00188463 0.0137823  0
-0.00167559 0.0129907  0
-0.00169339 0.0133777  0
-0.00186682 0.0133953  0
-0.00184902 0.0130081  0
-0.00221124 0.0130512  0
-0.00180627 0.0122431  0
-0.00203013 0.0130296  0
-0.00200876 0.0126471  0
-0.00182764 0.0126256  0
-0.00184829 0.0130088  0
-0.00188649 0.0137807  0
-0.00221331 0.0130495  0
-0.00186739 0.0133947  0
-0.0020499 0.0134151  0
-0.0020308 0.0130291  0
0.00126661 0.0160884  0
0.00161067 0.0161116  0
0.0012893 0.016872  0
0.00143864 0.0161  0
0.00144998 0.0164918  0
0.00127796 0.0164802  0
0.00126712 0.0160885  0
0.00124584 0.0153011  0
0.00160937 0.0161109  0
0.00125648 0.0156948  0
0.00142761 0.015706  0
0.00143825 0.0160997  0
0.00126721 0.0160886  0
0.00128801 0.0168713  0
0.00093503 0.0160692  0
0.00127761 0.01648  0
0.00111152 0.0164703  0
0.00110112 0.0160789  0
0.00126678 0.0160883  0
0.000936539 0.0160696  0
0.00124737 0.0153015  0
0.00110166 0.0160789  0
0.00109195 0.0156855  0
0.00125708 0.0156949  0
0.00163804 0.0168967  0
0.0012879 0.0168709  0
0.001612 0.0161126  0
0.00146297 0.0168838  0
0.00144995 0.0164918  0
0.00162502 0.0165047  0
0.00163834 0.0168971  0
0.00161054 0.0161115  0
0.00200315 0.0169265  0
0.00162444 0.0165043  0
0.00180684 0.016519  0
0.00182075 0.0169118  0
0.00163844 0.0168973  0
0.00166789 0.0176752  0
0.00128637 0.0168698  0
0.00165317 0.0172862  0
0.00147713 0.0172725  0
0.00146241 0.0168836  0
0.00163783 0.0168968  0
0.00200437 0.0169281  0
0.00166918 0.0176767  0
0.0018211 0.0169124  0
0.00183678 0.0173024  0
0.00165351 0.0172867  0
0.00197497 0.0161386  0
0.00161006 0.0161111  0
0.00194694 0.0153498  0
0.00179251 0.0161248  0
0.0017785 0.0157304  0
0.00196095 0.0157442  0
0.00197528 0.0161389  0
0.00200485 0.0169272  0
0.00160878 0.0161107  0
0.00199006 0.0165331  0
0.00180682 0.0165189  0
0.00179203 0.0161248  0
0.00197523 0.0161387  0
0.00194564 0.0153494  0
0.0023584 0.0161692  0
0.00196044 0.0157441  0
0.00215202 0.0157593  0
0.00216682 0.016154  0
0.00197479 0.0161387  0
0.00235937 0.0161699  0
0.00200582 0.016928  0
0.00216708 0.0161543  0
0.0021826 0.0165489  0
0.00199031 0.0165333  0
0.000954338 0.0168503  0
0.000936107 0.0160706  0
0.00128699 0.0168701  0
0.000945222 0.0164604  0
0.00111155 0.0164703  0
0.00112067 0.0168602  0
0.000953935 0.01685  0
0.000629959 0.0168346  0
0.00093787 0.0160713  0
0.000791947 0.0168423  0
0.000783915 0.016453  0
0.000945903 0.0164607  0
0.000953741 0.0168501  0
0.0012886 0.0168712  0
0.000974337 0.0176208  0
0.00112117 0.0168607  0
0.00113147 0.017246  0
0.000964039 0.0172354  0
0.000954472 0.0168504  0
0.000972693 0.0176198  0
0.00062817 0.016834  0
0.000963582 0.0172351  0
0.000800431 0.0172269  0
0.000791321 0.0168422  0
0.000618837 0.0160566  0
0.000607243 0.0152711  0
0.000935631 0.0160693  0
0.00061304 0.0156638  0
0.000771437 0.0156702  0
0.000777234 0.016063  0
0.000618287 0.0160566  0
0.000937172 0.0160699  0
0.000630724 0.0168361  0
0.00077773 0.0160632  0
0.000783948 0.016453  0
0.000624506 0.0164463  0
0.000618447 0.0160565  0
0.000307608 0.0160479  0
0.000608937 0.0152713  0
0.000463027 0.0160522  0
0.000458273 0.0156596  0
0.000613692 0.0156639  0
0.000618959 0.0160567  0
0.000629224 0.0168357  0
0.000305962 0.0160478  0
0.000624091 0.0164462  0
0.000467593 0.0164418  0
0.000462461 0.0160523  0
0.0027745 0.016204  0
0.00281052 0.0169981  0
0.00235781 0.0161689  0
0.00279251 0.016601  0
0.00258416 0.0165835  0
0.00256615 0.0161864  0
0.00277431 0.0162037  0
0.00235886 0.0161691  0
0.0027391 0.0154143  0
0.00256659 0.0161864  0
0.00254898 0.0157917  0
0.0027567 0.015809  0
0.00277415 0.0162038  0
0.00321558 0.016241  0
0.00281115 0.0169986  0
0.00299486 0.0162224  0
0.00301337 0.0166198  0
0.00279265 0.0166012  0
0.00277454 0.0162037  0
0.00273798 0.0154143  0
0.00321489 0.0162408  0
0.00275626 0.015809  0
0.00297643 0.0158275  0
0.00299471 0.0162223  0
0.00239537 0.0169619  0
0.00236039 0.016169  0
0.00280796 0.0169982  0
0.00237788 0.0165654  0
0.00258417 0.0165836  0
0.00260167 0.01698  0
0.0023952 0.0169614  0
0.00200367 0.0169275  0
0.00236145 0.0161703  0
0.00219944 0.0169445  0
0.00218256 0.0165489  0
0.00237833 0.0165659  0
0.00239498 0.0169615  0
0.00280865 0.0169999  0
0.00243406 0.0177539  0
0.00260182 0.0169807  0
0.00262136 0.0173769  0
0.00241452 0.0173577  0
0.00239542 0.0169621  0
0.00243328 0.017752  0
0.00200253 0.0169261  0
0.00241435 0.0173571  0
0.00221791 0.0173391  0
0.00219898 0.0169441  0
0.00325745 0.0170381  0
0.00280804 0.016999  0
0.00321861 0.0162404  0
0.00303274 0.0170185  0
0.00301333 0.0166197  0
0.00323803 0.0166393  0
0.00325752 0.0170384  0
0.0032179 0.0162395  0
0.00373519 0.0170788  0
0.00323771 0.0166389  0
0.00347655 0.0166592  0
0.00349635 0.0170586  0
0.00325746 0.0170387  0
0.00329993 0.0178424  0
0.00280732 0.0169977  0
0.00327869 0.0174405  0
0.00305363 0.01742  0
0.00303239 0.0170182  0
0.00325723 0.0170381  0
0.00373535 0.0170801  0
0.0033001 0.017844  0
0.00349629 0.0170591  0
0.00351773 0.0174621  0
0.00327867 0.0174411  0
0.00369814 0.0162807  0
0.00321534 0.0162398  0
0.00365594 0.0154949  0
0.00345674 0.0162603  0
0.00343564 0.0158674  0
0.00367704 0.0158878  0
0.00369832 0.0162806  0
0.00373893 0.0170776  0
0.00321423 0.0162404  0
0.00371862 0.0166791  0
0.00347658 0.016659  0
0.00345627 0.0162605  0
0.00369849 0.0162803  0
0.00365461 0.0154959  0
0.00421311 0.0163242  0
0.00367655 0.0158881  0
0.00393386 0.01591  0
0.0039558 0.0163023  0
0.00369801 0.0162807  0
0.00421396 0.0163232  0
0.00373954 0.0170771  0
0.00395598 0.016302  0
0.00397675 0.0167002  0
0.00371878 0.0166789  0
0.00204141 0.0177121  0
0.00208315 0.0184856  0
0.00166618 0.0176732  0
0.00206228 0.0180989  0
0.00187467 0.0180794  0
0.0018538 0.0176927  0
0.00204101 0.0177112  0
0.00166779 0.0176753  0
0.00200569 0.0169293  0
0.0018544 0.0176933  0
0.00183674 0.0173023  0
0.00202335 0.0173203  0
0.00204076 0.0177112  0
0.0024328 0.017754  0
0.0020845 0.0184884  0
0.00223678 0.0177326  0
0.00225865 0.0181212  0
0.00206263 0.0180998  0
0.00204129 0.0177119  0
0.00200425 0.0169271  0
0.00243163 0.0177513  0
0.00202277 0.0173195  0
0.00221794 0.0173392  0
0.00223646 0.0177316  0
0.00131479 0.0176441  0
0.00128749 0.0168716  0
0.00166684 0.0176736  0
0.00130114 0.0172578  0
0.00147717 0.0172726  0
0.00149081 0.0176589  0
0.00131412 0.0176436  0
0.00166858 0.0176757  0
0.00134616 0.018404  0
0.00149135 0.0176597  0
0.00150737 0.0180399  0
0.00133014 0.0180238  0
0.00131435 0.0176436  0
0.000973479 0.0176188  0
0.00128939 0.0168731  0
0.00114392 0.0176312  0
0.00113143 0.017246  0
0.00130187 0.0172584  0
0.00131494 0.0176443  0
0.0013443 0.0184022  0
0.000971474 0.0176175  0
0.00132962 0.0180232  0
0.00115788 0.0180098  0
0.00114321 0.0176309  0
0.00170731 0.0184404  0
0.0016672 0.0176753  0
0.00208222 0.0184837  0
0.00168726 0.0180579  0
0.00187471 0.0180795  0
0.00189477 0.018462  0
0.00170683 0.0184395  0
0.00134535 0.0184016  0
0.0016693 0.0176781  0
0.00152609 0.0184205  0
0.00150733 0.0180398  0
0.00168807 0.0180588  0
0.00170655 0.0184395  0
0.00208418 0.018487  0
0.00175472 0.019189  0
0.00189536 0.0184633  0
0.00191945 0.018838  0
0.00173064 0.0188143  0
0.00170749 0.0184406  0
0.00175255 0.0191859  0
0.00134304 0.0183991  0
0.00173002 0.0188132  0
0.0015478 0.0187925  0
0.00152527 0.0184198  0
0.00285281 0.0177968  0
0.00243198 0.0177534  0
0.00281066 0.0170002  0
0.00264239 0.0177751  0
0.00262132 0.0173768  0
0.00283174 0.0173985  0
0.00285293 0.0177979  0
0.00290302 0.0185928  0
0.00243097 0.0177507  0
0.00287797 0.0181954  0
0.00266699 0.0181717  0
0.00264195 0.0177743  0
0.00285287 0.0177977  0
0.00280985 0.0169976  0
0.00329744 0.0178428  0
0.00283136 0.0173976  0
0.00305364 0.0174202  0
0.00307515 0.0178202  0
0.00285253 0.0177968  0
0.00329781 0.017846  0
0.0029036 0.0185962  0
0.00307517 0.0178214  0
0.00310071 0.0182211  0
0.00287807 0.0181965  0
0.00248265 0.0185369  0
0.00208327 0.0184867  0
0.00243395 0.0177556  0
0.00228296 0.0185118  0
0.00225861 0.0181211  0
0.0024583 0.0181462  0
0.00248291 0.0185381  0
0.00243247 0.0177519  0
0.0029016 0.0185919  0
0.00245769 0.018145  0
0.00266704 0.0181719  0
0.00269225 0.018565  0
0.00248306 0.0185383  0
0.00254233 0.0193089  0
0.00208152 0.0184831  0
0.00251269 0.0189236  0
0.00231192 0.018896  0
0.00228229 0.0185107  0
0.00248233 0.0185369  0
0.0029028 0.0185964  0
0.00254383 0.0193133  0
0.00269257 0.0185666  0
0.00272332 0.0189548  0
0.00251308 0.0189251  0
-3.48257e-07 0.0160457  0
0.00030824 0.016048  0
7.8615e-07 0.0168236  0
0.000153946 0.0160469  0
0.000154513 0.0164358  0
2.18946e-07 0.0164347  0
2.04783e-07 0.0160456  0
-8.76984e-07 0.015261  0
0.000306581 0.0160478  0
-3.361e-07 0.0156533  0
0.000152852 0.0156544  0
0.000153393 0.0160467  0
3.48257e-07 0.0160457  0
-7.8615e-07 0.0168236  0
-0.00030824 0.016048  0
-2.18947e-07 0.0164347  0
-0.000154513 0.0164358  0
-0.000153946 0.0160469  0
-2.04783e-07 0.0160456  0
-0.000306581 0.0160478  0
8.76984e-07 0.015261  0
-0.000153393 0.0160467  0
-0.000152852 0.0156544  0
3.361e-07 0.0156533  0
0.00031305 0.0168256  0
6.10213e-07 0.016822  0
0.000308349 0.0160497  0
0.00015683 0.0168238  0
0.00015448 0.0164358  0
0.000310699 0.0164377  0
0.000313502 0.0168257  0
0.000306433 0.0160494  0
0.000628818 0.0168342  0
0.000309968 0.0164376  0
0.000467626 0.0164418  0
0.00047116 0.0168299  0
0.000313661 0.0168258  0
0.00031902 0.017591  0
-1.28155e-06 0.016822  0
0.000316341 0.0172084  0
0.000158869 0.0172065  0
0.00015619 0.0168239  0
0.000312872 0.0168257  0
0.00063065 0.0168347  0
0.000320839 0.0175914  0
0.000471761 0.0168302  0
0.000475745 0.0172131  0
0.000316855 0.0172085  0
-0.00031305 0.0168256  0
-0.000308349 0.0160497  0
-6.10214e-07 0.016822  0
-0.000310699 0.0164377  0
-0.00015448 0.0164358  0
-0.00015683 0.0168238  0
-0.000313502 0.0168257  0
-0.000628818 0.0168342  0
-0.000306433 0.0160494  0
-0.00047116 0.0168299  0
-0.000467626 0.0164418  0
-0.000309968 0.0164376  0
-0.000313661 0.0168258  0
1.28155e-06 0.016822  0
-0.00031902 0.017591  0
-0.00015619 0.0168239  0
-0.000158869 0.0172065  0
-0.000316341 0.0172084  0
-0.000312872 0.0168257  0
-0.000320839 0.0175914  0
-0.00063065 0.0168347  0
-0.000316855 0.0172085  0
-0.000475745 0.0172131  0
-0.000471761 0.0168302  0
-0.000618447 0.0160565  0
-0.000608937 0.0152713  0
-0.000307608 0.0160479  0
-0.000613692 0.0156639  0
-0.000458273 0.0156596  0
-0.000463027 0.0160522  0
-0.000618959 0.0160567  0
-0.000305962 0.0160478  0
-0.000629224 0.0168357  0
-0.000462461 0.0160523  0
-0.000467593 0.0164418  0
-0.000624091 0.0164462  0
-0.000618837 0.0160566  0
-0.000935631 0.0160693  0
-0.000607243 0.0152711  0
-0.000777234 0.016063  0
-0.000771437 0.0156702  0
-0.00061304 0.0156638  0
-0.000618287 0.0160566  0
-0.000630724 0.0168361  0
-0.000937172 0.0160699  0
-0.000624506 0.0164463  0
-0.000783948 0.016453  0
-0.00077773 0.0160632  0
0.00064306 0.0176006  0
0.000974241 0.017619  0
0.000660591 0.0183505  0
0.000808651 0.0176098  0
0.000817416 0.0179847  0
0.000651825 0.0179756  0
0.000643799 0.0176008  0
0.000628789 0.0168362  0
0.000972149 0.0176177  0
0.000636294 0.0172185  0
0.000800469 0.017227  0
0.000807974 0.0176093  0
0.000643974 0.0176009  0
0.000658433 0.0183496  0
0.00031824 0.0175886  0
0.000651203 0.0179753  0
0.000488336 0.0179691  0
0.000481107 0.0175948  0
0.000643275 0.0176006  0
0.000320459 0.0175891  0
0.000630954 0.016837  0
0.000481867 0.0175948  0
0.000475707 0.0172131  0
0.000637114 0.0172188  0
0.000997658 0.0183701  0
0.000660138 0.0183476  0
0.000974609 0.0176219  0
0.000828898 0.0183588  0
0.000817373 0.0179847  0
0.000986133 0.017996  0
0.000998281 0.0183706  0
0.000972106 0.0176202  0
0.00134375 0.0183995  0
0.000985194 0.0179954  0
0.00115793 0.0180099  0
0.00117102 0.0183851  0
0.000998475 0.0183708  0
0.00102596 0.0190996  0
0.000657499 0.0183463  0
0.00101222 0.0187352  0
0.000841729 0.0187229  0
0.000827987 0.0183585  0
0.000997404 0.0183701  0
0.00134619 0.0184017  0
0.00102855 0.0191015  0
0.0011718 0.0183859  0
0.00118737 0.0187516  0
0.00101298 0.0187358  0
2.7712e-07 0.0175859  0
-1.12706e-06 0.0168243  0
0.000318942 0.0175888  0
-4.24968e-07 0.0172051  0
0.000158908 0.0172065  0
0.00015961 0.0175873  0
-4.72652e-07 0.017586  0
0.000321191 0.0175891  0
1.12707e-06 0.0183319  0
0.000160359 0.0175875  0
0.000161159 0.0179605  0
3.27211e-07 0.0179589  0
-2.7712e-07 0.0175859  0
-0.000318942 0.0175888  0
1.12706e-06 0.0168243  0
-0.00015961 0.0175873  0
-0.000158908 0.0172065  0
4.24967e-07 0.0172051  0
4.72652e-07 0.017586  0
-1.12707e-06 0.0183319  0
-0.000321191 0.0175891  0
-3.27211e-07 0.0179589  0
-0.000161159 0.0179605  0
-0.000160359 0.0175875  0
0.000328644 0.0183343  0
0.000318531 0.0175917  0
0.000658228 0.0183466  0
0.000323587 0.017963  0
0.00048838 0.0179691  0
0.000493436 0.0183404  0
0.000327954 0.0183341  0
1.00494e-06 0.0183288  0
0.000321227 0.0175922  0
0.00016448 0.0183315  0
0.000161116 0.0179605  0
0.000324591 0.0179632  0
0.000327721 0.0183342  0
0.000660934 0.0183476  0
0.000339675 0.019056  0
0.000494328 0.0183409  0
0.000500305 0.0187018  0
0.000333698 0.0186951  0
0.000328857 0.0183344  0
0.000336886 0.0190554  0
-1.76527e-06 0.0183287  0
0.000332872 0.0186949  0
0.00016756 0.018692  0
0.000163546 0.0183315  0
0.00693073 0.0138887  0
0.00707783 0.014568  0
0.00626726 0.0137425  0
0.00700428 0.0142283  0
0.00667254 0.0141552  0
0.00659899 0.0138156  0
0.00692935 0.0138897  0
0.00627136 0.0137396  0
0.00677466 0.0132207  0
0.00660036 0.0138147  0
0.00652301 0.0134801  0
0.006852 0.0135552  0
0.00640744 0.0144302  0
0.00627106 0.0137426  0
0.00707407 0.0145678  0
0.00633925 0.0140864  0
0.00667257 0.0141552  0
0.00674076 0.014499  0
0.0064058 0.0144312  0
0.00576299 0.0143063  0
0.00627562 0.0137396  0
0.0060844 0.0143688  0
0.0060193 0.0140229  0
0.00634071 0.0140854  0
0.00640585 0.0144311  0
0.00707882 0.0145649  0
0.00653457 0.0151296  0
0.00674233 0.014498  0
0.0068067 0.0148473  0
0.00647021 0.0147803  0
0.00640743 0.0144301  0
0.00652941 0.0151325  0
0.00575808 0.0143094  0
0.00646842 0.0147813  0
0.00614375 0.0147209  0
0.00608275 0.0143697  0
0.00587015 0.0150222  0
0.00653047 0.0151288  0
0.00597088 0.0157462  0
0.00620031 0.0150755  0
0.00625068 0.0154375  0
0.00592052 0.0153842  0
0.00587192 0.0150213  0
0.00576228 0.0143096  0
0.00652516 0.0151322  0
0.0058171 0.0146654  0
0.00614372 0.0147209  0
0.00619854 0.0150767  0
0.0058718 0.0150211  0
0.0059654 0.0157498  0
0.00523963 0.0149286  0
0.0059186 0.0153854  0
0.00560251 0.0153392  0
0.00555572 0.0149748  0
0.00587012 0.0150224  0
0.00524467 0.0149251  0
0.00576718 0.0143063  0
0.0055574 0.0149738  0
0.00550593 0.0146157  0
0.00581865 0.0146644  0
0.00721907 0.0152612  0
0.00653111 0.0151294  0
0.00708241 0.0145651  0
0.00687509 0.0151953  0
0.00680676 0.0148472  0
0.00715074 0.0149131  0
0.00722078 0.0152602  0
0.00735138 0.015969  0
0.00652601 0.0151316  0
0.00728608 0.0156146  0
0.0069387 0.0155503  0
0.0068734 0.0151959  0
0.00664472 0.0158498  0
0.0059665 0.0157459  0
0.00653484 0.015129  0
0.00630561 0.0157979  0
0.00625067 0.0154375  0
0.00658978 0.0154894  0
0.00664687 0.0158488  0
0.00652923 0.0151318  0
0.00734815 0.0159688  0
0.00658805 0.0154903  0
0.00693869 0.0155503  0
0.00699751 0.0159088  0
0.00664678 0.0158485  0
0.00674852 0.0165844  0
0.00596032 0.0157489  0
0.00669765 0.0162164  0
0.00635442 0.0161666  0
0.00630355 0.0157987  0
0.00664479 0.0158494  0
0.0073544 0.0159661  0
0.00675545 0.0165815  0
0.00699959 0.0159078  0
0.00705492 0.0162738  0
0.00670012 0.0162155  0
0.00532598 0.0156677  0
0.00524458 0.0149285  0
0.00596025 0.0157498  0
0.00528528 0.0152981  0
0.00560242 0.0153391  0
0.00564311 0.0157088  0
0.00532441 0.015669  0
0.00472352 0.0155985  0
0.00524886 0.0149251  0
0.00502396 0.0156338  0
0.00498619 0.0152618  0
0.00528663 0.015297  0
0.00532441 0.0156688  0
0.00596482 0.0157461  0
0.0053962 0.0164233  0
0.00564462 0.0157074  0
0.00568051 0.0160847  0
0.00536031 0.0160461  0
0.00532572 0.0156678  0
0.00539188 0.0164271  0
0.00471947 0.0156019  0
0.0053588 0.0160474  0
0.00505567 0.0160145  0
0.00502259 0.0156348  0
0.00478178 0.0163713  0
0.00482921 0.0171625  0
0.00421226 0.0163237  0
0.0048055 0.0167669  0
0.00452074 0.0167431  0
0.00449702 0.0163475  0
0.0047812 0.016372  0
0.00421447 0.0163216  0
0.00472762 0.0155984  0
0.00449784 0.0163468  0
0.00447104 0.01596  0
0.00475441 0.0159852  0
0.00478115 0.0163719  0
0.00538856 0.0164252  0
0.00483116 0.01716  0
0.00508486 0.0163985  0
0.00510986 0.0167926  0
0.00480616 0.016766  0
0.00478213 0.016371  0
0.00472495 0.0156009  0
0.0053861 0.0164281  0
0.00475354 0.0159859  0
0.00505553 0.0160145  0
0.00508412 0.0163996  0
0.00426131 0.0171205  0
0.00421737 0.016322  0
0.00482387 0.0171645  0
0.00423934 0.0167213  0
0.00452062 0.0167433  0
0.00454259 0.0171425  0
0.00426111 0.0171207  0
0.00373508 0.0170785  0
0.0042183 0.0163217  0
0.00399809 0.0170996  0
0.00397669 0.0167001  0
0.0042397 0.0167212  0
0.00426094 0.0171207  0
0.00482411 0.0171642  0
0.0043044 0.0179362  0
0.00454252 0.0171424  0
0.00456426 0.0175502  0
0.00428267 0.0175285  0
0.00426103 0.0171209  0
0.00430446 0.0179358  0
0.00373441 0.0170782  0
0.00428274 0.0175284  0
0.00401943 0.017507  0
0.00399772 0.0170995  0
0.00544773 0.0172116  0
0.00482514 0.0171617  0
0.00539434 0.0164232  0
0.00513643 0.0171867  0
0.00510974 0.0167925  0
0.00542103 0.0168174  0
0.00544894 0.0172104  0
0.00539115 0.0164258  0
0.00611413 0.0172685  0
0.00542005 0.0168181  0
0.00575264 0.0168472  0
0.00578153 0.0172395  0
0.00544832 0.0172108  0
0.00549535 0.0180246  0
0.00482267 0.0171637  0
0.00547183 0.0176177  0
0.00515901 0.0175941  0
0.0051355 0.0171872  0
0.00544769 0.0172114  0
0.00611722 0.0172651  0
0.00549758 0.0180218  0
0.00578245 0.0172382  0
0.0058074 0.0176435  0
0.00547263 0.0176166  0
0.00604949 0.016497  0
0.0053906 0.0164238  0
0.00597025 0.0157455  0
0.00572004 0.0164604  0
0.00568043 0.0160846  0
0.00600987 0.0161212  0
0.00605126 0.0164955  0
0.00612055 0.0172671  0
0.00538523 0.0164272  0
0.0060859 0.0168813  0
0.00575289 0.0168471  0
0.00571824 0.0164614  0
0.00605164 0.0164956  0
0.00596479 0.0157488  0
0.0067438 0.0165843  0
0.00600822 0.0161222  0
0.0063543 0.0161666  0
0.00639772 0.01654  0
0.00604954 0.0164966  0
0.00675005 0.0165804  0
0.00612672 0.0172631  0
0.00639979 0.0165385  0
0.00643839 0.0169217  0
0.00608813 0.0168798  0
0.00378262 0.017891  0
0.00430001 0.0179408  0
0.00383492 0.0187162  0
0.00404132 0.0179159  0
0.00406747 0.0183285  0
0.00380877 0.0183036  0
0.00378276 0.0178919  0
0.0037382 0.0170766  0
0.00430059 0.0179378  0
0.00376048 0.0174842  0
0.0040194 0.0175072  0
0.00404168 0.0179148  0
0.00378269 0.0178922  0
0.00383535 0.0187127  0
0.00329671 0.017842  0
0.00380902 0.0183025  0
0.00356603 0.0182773  0
0.0035397 0.0178671  0
0.00378293 0.0178911  0
0.003297 0.0178449  0
0.00373836 0.017079  0
0.00353996 0.017868  0
0.00351768 0.0174619  0
0.00376064 0.017485  0
0.00487289 0.0179833  0
0.00429956 0.0179385  0
0.00482878 0.0171615  0
0.00458622 0.0179609  0
0.00456417 0.01755  0
0.00485083 0.0175724  0
0.0048724 0.017984  0
0.00492086 0.0188292  0
0.00429956 0.0179367  0
0.00489663 0.0184066  0
0.00461021 0.018383  0
0.00458598 0.0179604  0
0.00487287 0.0179834  0
0.00482845 0.0171608  0
0.00548915 0.0180279  0
0.00485066 0.0175721  0
0.0051588 0.0175944  0
0.00518101 0.0180056  0
0.00487264 0.0179832  0
0.00548839 0.0180286  0
0.0049197 0.0188312  0
0.00518052 0.0180059  0
0.00520405 0.0184299  0
0.00489617 0.0184072  0
0.00435681 0.0187754  0
0.00383207 0.0187176  0
0.00430274 0.0179391  0
0.00409444 0.0187465  0
0.00406741 0.0183283  0
0.00432978 0.0183572  0
0.00435629 0.018777  0
0.00430331 0.0179342  0
0.00491703 0.0188324  0
0.0043298 0.0183556  0
0.00461017 0.0183833  0
0.00463666 0.0188047  0
0.00435627 0.0187775  0
0.00442561 0.0196251  0
0.00383227 0.0187122  0
0.00439094 0.0192013  0
0.00412894 0.0191686  0
0.00409427 0.0187449  0
0.00435632 0.0187753  0
0.00491548 0.0188384  0
0.0044245 0.0196316  0
0.0046359 0.0188069  0
0.00466999 0.019235  0
0.00439041 0.0192035  0
0.00335432 0.0186548  0
0.00329896 0.0178417  0
0.00383317 0.0187134  0
0.00332664 0.0182483  0
0.00356606 0.0182775  0
0.00359374 0.0186841  0
0.00335439 0.0186533  0
0.00290179 0.0185957  0
0.00329953 0.0178463  0
0.00312809 0.0186245  0
0.00310066 0.018221  0
0.00332696 0.0182498  0
0.00335401 0.0186533  0
0.00383325 0.0187189  0
0.00342316 0.0194653  0
0.00359363 0.0186861  0
0.00362821 0.0190921  0
0.00338859 0.0190593  0
0.00335443 0.0186551  0
0.00342269 0.0194597  0
0.00290087 0.0185911  0
0.00338856 0.0190574  0
0.00316178 0.0190254  0
0.00312765 0.0186231  0
0.00748262 0.0166966  0
0.00760106 0.0174476  0
0.00674483 0.0165826  0
0.00754184 0.0170721  0
0.00717295 0.0170151  0
0.00711373 0.0166396  0
0.00748005 0.0166978  0
0.00675252 0.0165811  0
0.00735753 0.0159663  0
0.00711629 0.0166395  0
0.00705502 0.0162737  0
0.00741879 0.016332  0
0.00684728 0.0173434  0
0.00674759 0.0165826  0
0.00759798 0.0174475  0
0.00679744 0.016963  0
0.00717278 0.017015  0
0.00722263 0.0173954  0
0.0068441 0.0173446  0
0.00612132 0.0172634  0
0.00675524 0.0165799  0
0.00648271 0.017304  0
0.00643828 0.0169216  0
0.00679967 0.0169623  0
0.00684418 0.0173438  0
0.00760746 0.0174445  0
0.00693642 0.0181307  0
0.00722582 0.0173941  0
0.00727194 0.0177876  0
0.0068903 0.0177372  0
0.00684691 0.0173428  0
0.0069261 0.0181344  0
0.00611309 0.0172666  0
0.0068865 0.0177386  0
0.0065196 0.0177005  0
0.00648 0.0173047  0
0.0061795 0.0180737  0
0.00622684 0.0189256  0
0.00548703 0.0180264  0
0.00620317 0.0184996  0
0.00585693 0.018476  0
0.00583326 0.01805  0
0.00617869 0.0180748  0
0.00549045 0.0180244  0
0.0061239 0.0172621  0
0.00583457 0.0180496  0
0.00580718 0.0176433  0
0.0061513 0.0176684  0
0.0061787 0.0180741  0
0.0069242 0.0181314  0
0.00623037 0.0189219  0
0.00655145 0.0181028  0
0.00657729 0.0185267  0
0.00620454 0.018498  0
0.00618074 0.0180731  0
0.0061192 0.0172649  0
0.00691908 0.0181361  0
0.00614997 0.017669  0
0.00651914 0.0177005  0
0.00654991 0.0181046  0
0.00553971 0.0188853  0
0.00549399 0.0180215  0
0.00621901 0.0189314  0
0.00551685 0.0184534  0
0.0058565 0.0184765  0
0.00587936 0.0189083  0
0.0055402 0.0188847  0
0.00491439 0.018835  0
0.00549341 0.0180242  0
0.00522729 0.0188598  0
0.0052039 0.0184296  0
0.0055168 0.0184544  0
0.00553965 0.0188845  0
0.00621641 0.0189343  0
0.00559415 0.019788  0
0.00587803 0.0189094  0
0.00590528 0.0193611  0
0.0055669 0.0193363  0
0.00553893 0.0188865  0
0.00559733 0.0197829  0
0.00491542 0.0188306  0
0.00556813 0.0193347  0
0.00525638 0.0193067  0
0.00522717 0.0188585  0
0.00772328 0.0182334  0
0.00693324 0.0181302  0
0.00761093 0.0174447  0
0.00732826 0.0181818  0
0.00727209 0.0177874  0
0.0076671 0.017839  0
0.00772815 0.0182307  0
0.00783858 0.0190595  0
0.00691847 0.0181305  0
0.00778337 0.0186451  0
0.00737853 0.018595  0
0.00732331 0.0181806  0
0.0069942 0.0189798  0
0.00622131 0.0189257  0
0.00693225 0.0181269  0
0.00660775 0.0189528  0
0.00657678 0.0185263  0
0.00696322 0.0185534  0
0.00699864 0.0189771  0
0.00692236 0.018129  0
0.00783266 0.0190605  0
0.0069605 0.0185531  0
0.00737751 0.0185948  0
0.00741565 0.0190188  0
0.00699652 0.0189776  0
0.00704668 0.0198959  0
0.00621399 0.0189283  0
0.0070216 0.0194368  0
0.00663034 0.0194121  0
0.00660526 0.018953  0
0.00699389 0.0189779  0
0.00784662 0.0190546  0
0.00705728 0.0198888  0
0.00742026 0.0190163  0
0.00745195 0.0194717  0
0.00702559 0.0194333  0
8.50943e-05 -8.97897e-05  0
-0.00022854 0.00115942  0
-6.47676e-05 0.000172198  0
-7.17228e-05 0.000534813  0
-0.000146654 0.000665807  0
1.01634e-05 4.12041e-05  0
3.03638e-05 8.34714e-06  0
3.33551e-05 -7.43995e-05  0
-0.000172978 0.000990404  0
3.18595e-05 -3.30262e-05  0
-6.98114e-05 0.000458002  0
-7.13071e-05 0.000499376  0
-0.000806118 0.00164125  0
-0.000226868 0.000401091  0
-0.000132119 0.00106145  0
-0.000516493 0.00102117  0
-0.000179493 0.000731272  0
-0.000469118 0.00135135  0
-0.000790726 0.00158842  0
-0.000192719 0.00107661  0
-0.00125593 0.00233569  0
-0.000491722 0.00133251  0
-0.000724325 0.00170615  0
-0.00102333 0.00196205  0
-0.00070129 0.00185104  0
-0.000275578 0.00108064  0
-0.000406019 0.0014458  0
-0.000488434 0.00146584  0
-0.000340799 0.00126322  0
-0.000553655 0.00164842  0
-0.000709773 0.00185306  0
-0.00121343 0.00231468  0
-0.000244837 0.00109367  0
-0.000961603 0.00208387  0
-0.000729135 0.00170418  0
-0.000477305 0.00147337  0
-0.000711225 0.00185253  0
-0.000382333 0.00144343  0
-0.00113055 0.00249861  0
-0.000546779 0.00164798  0
-0.000756441 0.00197102  0
-0.000920887 0.00217557  0
-0.000709178 0.00185986  0
-0.00113808 0.00249575  0
-0.00122073 0.00229621  0
-0.000923631 0.0021778  0
-0.00117941 0.00239598  0
-0.000964954 0.00207803  0
-0.00163332 0.00288101  0
-0.00113794 0.00249216  0
-0.00200948 0.00340155  0
-0.00138563 0.00268659  0
-0.00157371 0.00294685  0
-0.0018214 0.00314128  0
-0.00163871 0.00288872  0
-0.00124493 0.00230436  0
-0.00112077 0.00248711  0
-0.00144182 0.00259654  0
-0.00118285 0.00239573  0
-0.00137974 0.00268792  0
-0.00153461 0.00302222  0
-0.00199856 0.00339982  0
-0.00114947 0.00249314  0
-0.00176659 0.00321102  0
-0.00157402 0.00294648  0
-0.00134204 0.00275768  0
-0.00153418 0.00302382  0
-0.00114741 0.00248388  0
-0.00114408 0.00264417  0
-0.00134079 0.00275385  0
-0.00114575 0.00256402  0
-0.00133913 0.002834  0
-0.00153558 0.00302373  0
-0.00190262 0.00352389  0
-0.00199512 0.00339251  0
-0.0017191 0.00327381  0
-0.00194887 0.0034582  0
-0.00176535 0.00320812  0
-0.00153466 0.00302068  0
-0.00114207 0.00265013  0
-0.00190225 0.00352866  0
-0.00133836 0.0028354  0
-0.00152216 0.00308939  0
-0.00171845 0.00327467  0
-0.0023582 0.00387843  0
-0.00200309 0.00339349  0
-0.00189607 0.00352258  0
-0.00218065 0.00363596  0
-0.00194958 0.00345803  0
-0.00212714 0.0037005  0
-0.00235698 0.00387585  0
-0.00189989 0.00352563  0
-0.00270321 0.00434826  0
-0.00212844 0.00370074  0
-0.00230155 0.00393695  0
-0.0025301 0.00411205  0
-0.00225037 0.0040067  0
-0.00190561 0.00352059  0
-0.00184316 0.00366645  0
-0.00207799 0.00376365  0
-0.00187438 0.00359352  0
-0.00204676 0.00383657  0
-0.00225094 0.0040054  0
-0.00269758 0.00434794  0
-0.00190555 0.00352566  0
-0.00247426 0.00417667  0
-0.00230156 0.0039368  0
-0.00207824 0.00376553  0
-0.0022509 0.00400468  0
-0.00184136 0.0036708  0
-0.00258309 0.00448686  0
-0.00204613 0.00383774  0
-0.00221223 0.00407883  0
-0.002417 0.00424577  0
-0.00225077 0.00400634  0
-0.00258501 0.00448302  0
-0.00269792 0.00434358  0
-0.00241789 0.00424468  0
-0.00264146 0.0044133  0
-0.00247434 0.00417496  0
-0.0030365 0.00481197  0
-0.00257924 0.00448563  0
-0.00336192 0.00528478  0
-0.00280787 0.0046488  0
-0.00297058 0.0048852  0
-0.00319921 0.00504837  0
-0.0030361 0.00481346  0
-0.00270287 0.00434365  0
-0.00258042 0.00448278  0
-0.00286949 0.00457855  0
-0.00264165 0.00441322  0
-0.00280826 0.00464812  0
-0.00290265 0.00496651  0
-0.00335739 0.00528475  0
-0.00258372 0.00448553  0
-0.00313002 0.00512563  0
-0.00297056 0.00488514  0
-0.00274318 0.00472602  0
-0.00290164 0.00496768  0
-0.00258599 0.00448172  0
-0.0024771 0.00465658  0
-0.00274381 0.0047247  0
-0.00253155 0.00456915  0
-0.00268937 0.00481213  0
-0.00290177 0.00496747  0
-0.00321136 0.00545503  0
-0.00336 0.00528118  0
-0.00305656 0.00521125  0
-0.00328568 0.0053681  0
-0.00313088 0.00512432  0
-0.00290261 0.0049662  0
-0.00247412 0.00466027  0
-0.00320812 0.00545853  0
-0.00268837 0.00481323  0
-0.00284112 0.0050594  0
-0.00305536 0.00521237  0
-0.00367766 0.00576416  0
-0.00336441 0.0052811  0
-0.00320704 0.00545502  0
-0.00352103 0.00552263  0
-0.00328573 0.00536806  0
-0.00344235 0.00560959  0
-0.00367873 0.00576294  0
-0.0032038 0.00545806  0
-0.00398381 0.00625493  0
-0.00344127 0.0056105  0
-0.0035938 0.00585649  0
-0.00383127 0.00600893  0
-0.00350265 0.00596019  0
-0.00321167 0.00545446  0
-0.00305521 0.00567407  0
-0.00335716 0.00570732  0
-0.00313344 0.00556427  0
-0.00327893 0.00581713  0
-0.00350393 0.00595904  0
-0.00397938 0.00625497  0
-0.00320817 0.00545796  0
-0.00374166 0.00610701  0
-0.00359378 0.00585646  0
-0.00335605 0.0057085  0
-0.00350391 0.00595892  0
-0.00305144 0.00567759  0
-0.00378543 0.00647501  0
-0.00327768 0.00581825  0
-0.00341844 0.0060763  0
-0.00364467 0.00621696  0
-0.00350269 0.00596008  0
-0.00378937 0.00647155  0
-0.0039831 0.00625155  0
-0.00364603 0.00621582  0
-0.00388623 0.00636155  0
-0.0037429 0.00610581  0
-0.00428116 0.00675782  0
-0.00378085 0.00647489  0
-0.00456463 0.00727652  0
-0.00403101 0.00661636  0
-0.00417274 0.00687571  0
-0.00442289 0.00701717  0
-0.0042798 0.00675899  0
-0.00398755 0.00625146  0
-0.00378493 0.0064716  0
-0.00413368 0.00650523  0
-0.00388624 0.00636153  0
-0.00403237 0.0066153  0
-0.00405828 0.00700321  0
-0.00456007 0.00727658  0
-0.00378538 0.00647481  0
-0.00430917 0.0071399  0
-0.00417272 0.0068757  0
-0.00392183 0.00673901  0
-0.0040569 0.00700438  0
-0.00378944 0.00647134  0
-0.00358298 0.00674202  0
-0.00392317 0.00673786  0
-0.00368621 0.00660668  0
-0.00381994 0.0068732  0
-0.0040569 0.00700434  0
-0.00432056 0.00754439  0
-0.00456423 0.00727311  0
-0.00418873 0.00727436  0
-0.00444239 0.00740875  0
-0.00431056 0.00713873  0
-0.00405828 0.00700318  0
-0.00357885 0.00674553  0
-0.00431635 0.00754789  0
-0.00381856 0.00687436  0
-0.0039476 0.00714671  0
-0.00418731 0.00727554  0
-0.00483868 0.0078091  0
-0.00456884 0.00727306  0
-0.00431593 0.00754444  0
-0.00470376 0.00754108  0
-0.00444239 0.00740875  0
-0.00457731 0.00767677  0
-0.00484012 0.00780793  0
-0.00431162 0.00754793  0
-0.00510066 0.00835568  0
-0.00457587 0.00767793  0
-0.00470614 0.0079518  0
-0.00497039 0.00808181  0
-0.00456453 0.0081068  0
-0.00432055 0.00754436  0
-0.00406268 0.00786799  0
-0.00444254 0.00782558  0
-0.00419162 0.00770617  0
-0.00431361 0.00798739  0
-0.00456594 0.00810562  0
-0.00509596 0.00835572  0
-0.00431631 0.00754789  0
-0.00483095 0.00823067  0
-0.00470613 0.00795181  0
-0.00444112 0.00782675  0
-0.00456594 0.00810562  0
-0.00405845 0.00787153  0
-0.0048005 0.00867974  0
-0.0043122 0.00798858  0
-0.00442948 0.00827563  0
-0.00468322 0.00839268  0
-0.00456452 0.0081068  0
-0.00480472 0.00867619  0
-0.00510021 0.00835219  0
-0.00468462 0.0083915  0
-0.00495246 0.00851419  0
-0.00483237 0.0082295  0
-0.0053527 0.00891615  0
-0.00479572 0.00867982  0
-0.00558945 0.00949272  0
-0.00507421 0.00879799  0
-0.00519258 0.00908627  0
-0.00547107 0.00920443  0
-0.00535128 0.00891733  0
-0.00510494 0.00835217  0
-0.00479997 0.00867622  0
-0.00522811 0.00863475  0
-0.00495246 0.0085142  0
-0.00507562 0.00879677  0
-0.00502647 0.00926636  0
-0.00558468 0.00949273  0
-0.00480049 0.00867982  0
-0.00530557 0.00937954  0
-0.00519259 0.00908628  0
-0.00491348 0.00897309  0
-0.00502509 0.00926754  0
-0.00480471 0.00867626  0
-0.00449514 0.0090523  0
-0.0049149 0.0089719  0
-0.00464992 0.00886428  0
-0.00476012 0.00915992  0
-0.00502508 0.00926757  0
-0.00524155 0.00986519  0
-0.00558884 0.00948918  0
-0.00513331 0.00956638  0
-0.00541519 0.00967718  0
-0.00530696 0.00937837  0
-0.00502648 0.00926638  0
-0.00449097 0.00905585  0
-0.00523743 0.00986874  0
-0.00475873 0.00916112  0
-0.0048642 0.00946229  0
-0.00513195 0.00956756  0
-0.00469452 0.00966919  0
-0.00488546 0.0102919  0
-0.00523694 0.00986523  0
-0.00478999 0.00998057  0
-0.0050612 0.0100786  0
-0.00496573 0.00976721  0
-0.00469591 0.009668  0
-0.00523278 0.00986871  0
-0.00449564 0.00905589  0
-0.00496434 0.00976836  0
-0.00486421 0.0094623  0
-0.00459577 0.00936194  0
-0.00469593 0.00966802  0
-0.004181 0.00948311  0
-0.00488132 0.0102954  0
-0.00443847 0.00957556  0
-0.00453116 0.00988927  0
-0.00478862 0.00998173  0
-0.00469454 0.00966916  0
-0.00449985 0.00905238  0
-0.00418519 0.0094796  0
-0.00459719 0.00936077  0
-0.00434252 0.00926599  0
-0.00443986 0.00957438  0
-0.00581592 0.0100824  0
-0.0055936 0.00948919  0
-0.00523678 0.00986519  0
-0.00570476 0.00978579  0
-0.00541519 0.00967719  0
-0.00552635 0.00997379  0
-0.00581727 0.0100812  0
-0.00523273 0.0098688  0
-0.00602999 0.0106852  0
-0.005525 0.00997501  0
-0.00563136 0.010277  0
-0.00592363 0.0103832  0
-0.00543842 0.0104837  0
-0.00524157 0.0098653  0
-0.00488083 0.0102919  0
-0.00534 0.0101745  0
-0.0050612 0.0100786  0
-0.00515963 0.0103878  0
-0.00543976 0.0104825  0
-0.00602526 0.0106851  0
-0.00523747 0.00986883  0
-0.00573251 0.0105838  0
-0.00563137 0.010277  0
-0.00533862 0.0101757  0
-0.00543978 0.0104825  0
-0.00487674 0.0102954  0
-0.00562732 0.0111112  0
-0.00515826 0.010389  0
-0.00525203 0.0107033  0
-0.00553355 0.0107969  0
-0.00543842 0.0104837  0
-0.00563133 0.0111077  0
-0.00602928 0.0106816  0
-0.00553488 0.0107957  0
-0.00583031 0.0108947  0
-0.00573385 0.0105827  0
-0.00436024 0.0101202  0
-0.00487677 0.0102953  0
-0.00418556 0.00948321  0
-0.0046185 0.0102078  0
-0.00453117 0.00988927  0
-0.0042729 0.00980169  0
-0.00435885 0.0101213  0
-0.00418979 0.00947974  0
-0.00386914 0.00995739  0
-0.00427432 0.00980054  0
-0.00402947 0.00971856  0
-0.004114 0.0100394  0
-0.00435884 0.0101214  0
-0.00452427 0.0107685  0
-0.00488097 0.0102919  0
-0.00444155 0.0104449  0
-0.00470262 0.0105302  0
-0.0046199 0.0102066  0
-0.00436025 0.0101202  0
-0.00386493 0.00996086  0
-0.00452009 0.010772  0
-0.00411259 0.0100405  0
-0.00419251 0.0103664  0
-0.00444017 0.0104461  0
-0.00401716 0.0106233  0
-0.00415711 0.0112943  0
-0.0045198 0.0107684  0
-0.00408714 0.0109588  0
-0.00433846 0.0110314  0
-0.00426848 0.0106959  0
-0.00401855 0.0106222  0
-0.00451563 0.0107718  0
-0.0038694 0.00996102  0
-0.00426709 0.010697  0
-0.00419251 0.0103664  0
-0.00394398 0.0102916  0
-0.00401856 0.0106222  0
-0.00354226 0.0104882  0
-0.004153 0.0112978  0
-0.00378041 0.0105552  0
-0.00384763 0.010893  0
-0.00408578 0.01096  0
-0.00401718 0.0106233  0
-0.0038736 0.00995759  0
-0.0035464 0.0104848  0
-0.00394539 0.0102905  0
-0.00371 0.0102212  0
-0.00378179 0.0105541  0
-0.00467027 0.011435  0
-0.00452428 0.0107686  0
-0.00415262 0.0112941  0
-0.00459727 0.0111018  0
-0.00433845 0.0110314  0
-0.00441144 0.0113646  0
-0.00467166 0.0114339  0
-0.00521613 0.0115859  0
-0.00452007 0.010772  0
-0.00494389 0.0115099  0
-0.0048681 0.011179  0
-0.00459587 0.0111029  0
-0.00467166 0.0114339  0
-0.00414843 0.0112976  0
-0.0048084 0.0121098  0
-0.00441005 0.0113657  0
-0.00447842 0.0117037  0
-0.00474003 0.0117718  0
-0.00467025 0.011435  0
-0.00481261 0.0121063  0
-0.00522034 0.0115825  0
-0.00474143 0.0117707  0
-0.00501648 0.0118444  0
-0.0049453 0.0115088  0
-0.00505699 0.0109348  0
-0.0048855 0.010292  0
-0.00451973 0.0107684  0
-0.00497125 0.0106134  0
-0.00470262 0.0105302  0
-0.00478836 0.0108516  0
-0.00505838 0.0109336  0
-0.00451556 0.0107718  0
-0.00522064 0.0115861  0
-0.00478697 0.0108527  0
-0.0048681 0.011179  0
-0.00513951 0.0112599  0
-0.00505836 0.0109336  0
-0.00562275 0.0111111  0
-0.00488134 0.0102955  0
-0.00534055 0.0110223  0
-0.00525204 0.0107033  0
-0.00496985 0.0106146  0
-0.00505698 0.0109348  0
-0.00522479 0.0115827  0
-0.00562688 0.0111076  0
-0.00514088 0.0112587  0
-0.00542583 0.0113452  0
-0.00534193 0.0110212  0
-0.00367066 0.0111732  0
-0.00414859 0.0112976  0
-0.00354666 0.0104884  0
-0.00390962 0.0112354  0
-0.00384762 0.010893  0
-0.00360866 0.0108308  0
-0.00366935 0.0111744  0
-0.00355068 0.010485  0
-0.00321731 0.0110605  0
-0.00361002 0.0108297  0
-0.003384 0.0107728  0
-0.00344333 0.0111175  0
-0.00366932 0.0111744  0
-0.00378425 0.0118688  0
-0.00415258 0.0112942  0
-0.00372678 0.0115216  0
-0.00396842 0.0115815  0
-0.00391095 0.0112343  0
-0.00367065 0.0111733  0
-0.00321339 0.0110639  0
-0.00378036 0.0118722  0
-0.00344202 0.0111186  0
-0.00349687 0.011468  0
-0.0037255 0.0115227  0
-0.00623374 0.0113001  0
-0.00562281 0.0111112  0
-0.00642291 0.0119297  0
-0.00592827 0.0112056  0
-0.00602286 0.0115204  0
-0.00632833 0.0116149  0
-0.00623245 0.0113012  0
-0.00603396 0.0106817  0
-0.00562667 0.0111077  0
-0.0061332 0.0109915  0
-0.00583032 0.0108947  0
-0.00592956 0.0112044  0
-0.00580649 0.0117502  0
-0.00641837 0.0119296  0
-0.0056274 0.0111112  0
-0.00611243 0.0118399  0
-0.00602288 0.0115204  0
-0.00571694 0.0114307  0
-0.00580516 0.0117513  0
-0.00563142 0.0111078  0
-0.00522026 0.0115825  0
-0.00571829 0.0114295  0
-0.00542584 0.0113452  0
-0.00551271 0.0116669  0
-0.00580516 0.0117513  0
-0.00597523 0.0123999  0
-0.00642233 0.0119262  0
-0.0058902 0.0120756  0
-0.00619878 0.0121631  0
-0.00611374 0.0118388  0
-0.00580651 0.0117502  0
-0.00521618 0.0115859  0
-0.0059712 0.0124033  0
-0.00551134 0.011668  0
-0.00559369 0.0119946  0
-0.00588885 0.0120767  0
-0.00537479 0.0122483  0
-0.00480382 0.0121095  0
-0.00551419 0.0129244  0
-0.00508931 0.0121789  0
-0.005159 0.012517  0
-0.00544449 0.0125864  0
-0.00537337 0.0122495  0
-0.00522485 0.0115827  0
-0.00480809 0.0121061  0
-0.00529911 0.0119161  0
-0.00501647 0.0118444  0
-0.00509073 0.0121778  0
-0.00537337 0.0122495  0
-0.0055185 0.0129211  0
-0.005971 0.0123997  0
-0.00544593 0.0125853  0
-0.00574475 0.0126604  0
-0.00567218 0.0123246  0
-0.00537478 0.0122484  0
-0.00596676 0.0124031  0
-0.00522064 0.0115862  0
-0.00567077 0.0123257  0
-0.0055937 0.0119946  0
-0.00529771 0.0119173  0
-0.00427903 0.0119831  0
-0.00480388 0.0121096  0
-0.00415294 0.0112978  0
-0.00454145 0.0120463  0
-0.00447841 0.0117037  0
-0.00421598 0.0116404  0
-0.00427765 0.0119842  0
-0.00439446 0.0126789  0
-0.004808 0.0121061  0
-0.00433606 0.0123315  0
-0.00460123 0.0123925  0
-0.00454283 0.0120452  0
-0.00427767 0.0119842  0
-0.00415704 0.0112944  0
-0.00377976 0.0118686  0
-0.00421735 0.0116393  0
-0.0039684 0.0115815  0
-0.00402872 0.0119264  0
-0.00427901 0.0119831  0
-0.00377573 0.0118721  0
-0.0043904 0.0126824  0
-0.00402737 0.0119276  0
-0.00408307 0.0122772  0
-0.00433471 0.0123327  0
-0.00493682 0.0127951  0
-0.00550967 0.0129242  0
-0.00480832 0.0121098  0
-0.00522324 0.0128596  0
-0.005159 0.012517  0
-0.00487257 0.0124525  0
-0.00493538 0.0127963  0
-0.00481257 0.0121063  0
-0.00438986 0.0126786  0
-0.00487398 0.0124513  0
-0.00460121 0.0123925  0
-0.00466262 0.0127375  0
-0.00493537 0.0127962  0
-0.0050546 0.013491  0
-0.00551401 0.0129207  0
-0.00499498 0.0131436  0
-0.0052843 0.0132058  0
-0.00522469 0.0128585  0
-0.00493679 0.0127951  0
-0.00438561 0.0126821  0
-0.00505025 0.0134945  0
-0.0046612 0.0127386  0
-0.00471793 0.0130883  0
-0.00499352 0.0131448  0
-0.00660242 0.0125708  0
-0.00642678 0.0119263  0
-0.00597083 0.0123998  0
-0.0065146 0.0122485  0
-0.0061988 0.0121631  0
-0.00628662 0.0124853  0
-0.00660369 0.0125697  0
-0.00596701 0.0124031  0
-0.00677068 0.0132238  0
-0.00628535 0.0124864  0
-0.00636884 0.0128135  0
-0.00668719 0.0128967  0
-0.00612682 0.0130672  0
-0.00597541 0.0123999  0
-0.00551412 0.0129208  0
-0.00605111 0.0127336  0
-0.00574476 0.0126604  0
-0.00582047 0.012994  0
-0.00612823 0.0130662  0
-0.00676645 0.0132237  0
-0.00597129 0.0124032  0
-0.00644734 0.0131449  0
-0.00636887 0.0128134  0
-0.00604976 0.0127347  0
-0.00612824 0.0130661  0
-0.00550982 0.012924  0
-0.00627103 0.0137429  0
-0.00581903 0.0129951  0
-0.00589042 0.0133335  0
-0.00619964 0.0134045  0
-0.00612684 0.0130672  0
-0.00627536 0.0137398  0
-0.00677058 0.0132205  0
-0.0062011 0.0134035  0
-0.00652297 0.0134802  0
-0.00644871 0.0131438  0
-0.00331639 0.011773  0
-0.00340759 0.0124904  0
-0.00377964 0.0118688  0
-0.00336199 0.0121317  0
-0.00359361 0.0121796  0
-0.00354802 0.0118209  0
-0.00331761 0.0117719  0
-0.00377601 0.0118721  0
-0.0032177 0.011064  0
-0.00354681 0.011822  0
-0.00349686 0.0114681  0
-0.00326766 0.011418  0
-0.00331758 0.011772  0
-0.00287993 0.0116857  0
-0.00340413 0.0124936  0
-0.00309876 0.0117288  0
-0.00314203 0.0120896  0
-0.00336086 0.0121328  0
-0.00331642 0.011773  0
-0.0032214 0.0110608  0
-0.00288346 0.0116825  0
-0.00326891 0.0114169  0
-0.00305243 0.0113716  0
-0.00309994 0.0117278  0
-0.00388027 0.0125819  0
-0.00378403 0.0118689  0
-0.00340315 0.0124903  0
-0.00383215 0.0122254  0
-0.00359359 0.0121796  0
-0.00364171 0.0125361  0
-0.00388151 0.0125807  0
-0.00438583 0.0126823  0
-0.00378026 0.0118722  0
-0.00413367 0.0126315  0
-0.00408304 0.0122772  0
-0.00383088 0.0122265  0
-0.00388146 0.0125808  0
-0.00339952 0.0124937  0
-0.00396875 0.0133034  0
-0.00364049 0.0125372  0
-0.00368414 0.0128985  0
-0.00392511 0.0129421  0
-0.00388024 0.0125819  0
-0.00397237 0.0132999  0
-0.0043896 0.0126788  0
-0.0039263 0.0129409  0
-0.00418098 0.0129894  0
-0.00413492 0.0126304  0
-0.00296193 0.0124158  0
-0.00339992 0.0124937  0
-0.00288409 0.0116856  0
-0.00318092 0.0124547  0
-0.00314201 0.0120897  0
-0.00292301 0.0120507  0
-0.00296092 0.0124168  0
-0.0028873 0.0116827  0
-0.0025476 0.0123471  0
-0.00292411 0.0120498  0
-0.00271745 0.0120149  0
-0.00275426 0.0123819  0
-0.00296088 0.0124168  0
-0.00303083 0.013156  0
-0.003403 0.0124907  0
-0.00299585 0.0127864  0
-0.00321691 0.0128234  0
-0.00318194 0.0124538  0
-0.00296189 0.0124159  0
-0.0025446 0.0123499  0
-0.00302796 0.013159  0
-0.00275324 0.0123829  0
-0.00278628 0.0127544  0
-0.00299493 0.0127874  0
-0.00260729 0.0131005  0
-0.00221074 0.0130512  0
-0.00265663 0.0138625  0
-0.00240902 0.0130758  0
-0.00243369 0.0134568  0
-0.00263196 0.0134815  0
-0.00260653 0.0131011  0
-0.00255112 0.0123473  0
-0.00221316 0.0130489  0
-0.00257883 0.0127242  0
-0.00238214 0.0126981  0
-0.00240984 0.013075  0
-0.00260647 0.0131012  0
-0.00265884 0.0138602  0
-0.00302646 0.0131567  0
-0.00263266 0.0134807  0
-0.00284265 0.0135085  0
-0.00281647 0.013129  0
-0.00260733 0.0131003  0
-0.00302403 0.0131592  0
-0.00254849 0.0123497  0
-0.00281568 0.0131297  0
-0.00278626 0.0127545  0
-0.00257791 0.012725  0
-0.00225796 0.013819  0
-0.00265313 0.0138628  0
-0.00221421 0.013051  0
-0.00245555 0.0138409  0
-0.00243367 0.0134569  0
-0.00223608 0.013435  0
-0.00225737 0.0138196  0
-0.0022163 0.0130493  0
-0.00188345 0.0137809  0
-0.00223683 0.0134344  0
-0.00204987 0.0134151  0
-0.00207041 0.0138002  0
-0.00225728 0.0138196  0
-0.00229649 0.0145945  0
-0.00265496 0.0138611  0
-0.00227689 0.0142071  0
-0.00247573 0.0142278  0
-0.00245612 0.0138404  0
-0.00225793 0.0138191  0
-0.00188155 0.0137824  0
-0.00229486 0.0145961  0
-0.00206974 0.0138008  0
-0.00208821 0.0141893  0
-0.0022764 0.0142076  0
-0.00308585 0.0139128  0
-0.00303034 0.0131564  0
-0.00265489 0.0138604  0
-0.00305809 0.0135346  0
-0.00284262 0.0135084  0
-0.00287037 0.0138866  0
-0.00308662 0.0139119  0
-0.00354393 0.0139706  0
-0.00302782 0.0131589  0
-0.00331528 0.0139413  0
-0.00328587 0.0135648  0
-0.00305722 0.0135354  0
-0.00308655 0.0139121  0
-0.0026526 0.0138628  0
-0.00313581 0.0146773  0
-0.00286957 0.0138874  0
-0.0028942 0.01427  0
-0.00311118 0.0142947  0
-0.00308578 0.0139128  0
-0.00313789 0.0146749  0
-0.00354625 0.0139681  0
-0.00311184 0.0142939  0
-0.00334207 0.0143215  0
-0.00331602 0.0139404  0
-0.00348127 0.0132262  0
-0.00340722 0.0124906  0
-0.00302654 0.0131562  0
-0.00344425 0.0128584  0
-0.00321688 0.0128234  0
-0.00325391 0.0131912  0
-0.00348224 0.0132252  0
-0.00302354 0.0131591  0
-0.00354828 0.0139703  0
-0.00325289 0.0131922  0
-0.00328591 0.0135647  0
-0.00351526 0.0135978  0
-0.0034823 0.0132251  0
-0.0039642 0.0133035  0
-0.003404 0.0124936  0
-0.00372325 0.0132643  0
-0.0036841 0.0128985  0
-0.00344315 0.0128594  0
-0.00348123 0.0132262  0
-0.00355118 0.0139672  0
-0.00396733 0.0133003  0
-0.00351621 0.0135967  0
-0.00375926 0.0136337  0
-0.00372428 0.0132632  0
-0.00191675 0.0145636  0
-0.00194724 0.0153487  0
-0.00229334 0.0145955  0
-0.001932 0.0149561  0
-0.00212029 0.0149721  0
-0.00210504 0.0145795  0
-0.0019173 0.0145632  0
-0.00229194 0.0145963  0
-0.00188446 0.0137823  0
-0.00210462 0.0145797  0
-0.0020882 0.0141893  0
-0.00190088 0.0141727  0
-0.0019173 0.0145633  0
-0.0015592 0.0145352  0
-0.00194599 0.0153494  0
-0.00173825 0.0145493  0
-0.0017526 0.0149423  0
-0.00193164 0.0149564  0
-0.00191686 0.0145635  0
-0.00188615 0.0137814  0
-0.00156075 0.0145344  0
-0.00190151 0.0141724  0
-0.00172345 0.0141579  0
-0.00173881 0.0145489  0
-0.00269998 0.0146343  0
-0.00265832 0.0138608  0
-0.00229307 0.0145948  0
-0.00267915 0.0142476  0
-0.00247569 0.0142278  0
-0.00249652 0.0146146  0
-0.00270044 0.0146339  0
-0.00229139 0.0145962  0
-0.00273834 0.0154146  0
-0.00249591 0.0146151  0
-0.00251486 0.0150054  0
-0.00271939 0.0150243  0
-0.0027005 0.0146337  0
-0.0031319 0.0146778  0
-0.00265645 0.0138624  0
-0.0029162 0.0146558  0
-0.00289418 0.0142701  0
-0.00267847 0.0142481  0
-0.00269988 0.0146343  0
-0.00273971 0.0154132  0
-0.00313347 0.0146762  0
-0.0027198 0.0150238  0
-0.00293659 0.0150447  0
-0.00291668 0.0146553  0
-0.00232878 0.0153803  0
-0.00229603 0.0145954  0
-0.00194448 0.0153488  0
-0.00231241 0.0149879  0
-0.00212026 0.0149721  0
-0.00213663 0.0153645  0
-0.00232912 0.0153801  0
-0.0027351 0.015415  0
-0.00229461 0.014596  0
-0.00253211 0.0153975  0
-0.00251485 0.0150055  0
-0.00231186 0.014988  0
-0.00232911 0.0153803  0
-0.00194316 0.0153492  0
-0.00236087 0.0161692  0
-0.00213613 0.0153648  0
-0.00215201 0.0157592  0
-0.00234499 0.0157748  0
-0.00232865 0.0153804  0
-0.00236185 0.016169  0
-0.00273618 0.0154145  0
-0.00234525 0.0157747  0
-0.00254901 0.0157918  0
-0.00253241 0.0153975  0
-0.00158716 0.015323  0
-0.00194373 0.0153494  0
-0.00156148 0.0145354  0
-0.00176545 0.0153362  0
-0.0017526 0.0149424  0
-0.00157432 0.0149292  0
-0.00158682 0.0153231  0
-0.00156297 0.0145352  0
-0.00124562 0.0153002  0
-0.0015749 0.0149291  0
-0.00140429 0.0149177  0
-0.00141622 0.0153116  0
-0.00158668 0.0153231  0
-0.00161212 0.0161115  0
-0.00194494 0.0153494  0
-0.0015994 0.0157173  0
-0.00177853 0.0157305  0
-0.00176581 0.0153363  0
-0.00158721 0.0153232  0
-0.0012442 0.0153004  0
-0.00161097 0.0161114  0
-0.0014157 0.0153118  0
-0.00142759 0.0157059  0
-0.00159909 0.0157173  0
-0.00404714 0.0140361  0
-0.00457622 0.0141148  0
-0.00396856 0.0133032  0
-0.00431168 0.0140755  0
-0.00427239 0.013709  0
-0.00400785 0.0136697  0
-0.00404603 0.0140373  0
-0.00397191 0.0133001  0
-0.00354652 0.0139674  0
-0.00400897 0.0136687  0
-0.00375922 0.0136337  0
-0.00379628 0.0140023  0
-0.004046 0.0140372  0
-0.0041158 0.0147807  0
-0.00457954 0.0141114  0
-0.0040809 0.014409  0
-0.00434767 0.0144461  0
-0.00431277 0.0140743  0
-0.00404703 0.0140362  0
-0.0035434 0.0139705  0
-0.00411272 0.014784  0
-0.00379522 0.0140034  0
-0.00382806 0.0143772  0
-0.00407988 0.0144101  0
-0.00449295 0.0133912  0
-0.0039638 0.0133033  0
-0.00458108 0.0141147  0
-0.00422838 0.0133473  0
-0.00427244 0.013709  0
-0.00453701 0.013753  0
-0.00449167 0.0133924  0
-0.00439423 0.0126789  0
-0.00396767 0.0132999  0
-0.00444295 0.0130356  0
-0.00418095 0.0129894  0
-0.00422967 0.0133461  0
-0.00449165 0.0133923  0
-0.00458502 0.0141111  0
-0.00504961 0.0134908  0
-0.00453834 0.0137517  0
-0.00481731 0.0138009  0
-0.00477063 0.0134416  0
-0.00449302 0.0133912  0
-0.00504555 0.0134943  0
-0.00439025 0.0126823  0
-0.00476928 0.0134428  0
-0.0047179 0.0130883  0
-0.00444163 0.0130367  0
-0.00360621 0.0147265  0
-0.00313131 0.0146776  0
-0.00365498 0.0154965  0
-0.00336876 0.0147021  0
-0.00339314 0.015087  0
-0.00363059 0.0151115  0
-0.00360556 0.0147272  0
-0.00355054 0.0139676  0
-0.00313352 0.0146753  0
-0.00357805 0.0143474  0
-0.00334203 0.0143215  0
-0.00336954 0.0147013  0
-0.0036055 0.0147272  0
-0.00365695 0.015494  0
-0.00411021 0.0147818  0
-0.00363123 0.0151106  0
-0.00388358 0.0151379  0
-0.00385785 0.0147545  0
-0.00360634 0.0147263  0
-0.00410795 0.0147844  0
-0.00354806 0.0139701  0
-0.00385714 0.0147554  0
-0.00382801 0.0143773  0
-0.0035772 0.0143482  0
-0.00317954 0.0154532  0
-0.00365065 0.0154972  0
-0.00313554 0.014677  0
-0.0034151 0.0154752  0
-0.0033931 0.0150871  0
-0.00315754 0.0150651  0
-0.0031791 0.0154538  0
-0.00313717 0.0146757  0
-0.00273593 0.0154136  0
-0.00315814 0.0150647  0
-0.00293655 0.0150447  0
-0.00295751 0.0154337  0
-0.00317899 0.0154538  0
-0.00321946 0.0162391  0
-0.00365192 0.0154958  0
-0.00319922 0.0158464  0
-0.00343569 0.0158674  0
-0.00341545 0.0154748  0
-0.00317944 0.0154535  0
-0.0027345 0.0154147  0
-0.00321841 0.0162401  0
-0.00295697 0.0154341  0
-0.00297645 0.0158274  0
-0.00319892 0.0158468  0
-0.00465882 0.0148508  0
-0.00458446 0.0141111  0
-0.00411078 0.0147809  0
-0.00462164 0.0144809  0
-0.00434762 0.014446  0
-0.0043848 0.0148159  0
-0.00465991 0.0148496  0
-0.00410735 0.0147842  0
-0.0047254 0.0156016  0
-0.00438363 0.0148169  0
-0.00441638 0.0151929  0
-0.00469266 0.0152256  0
-0.00466009 0.0148495  0
-0.00523989 0.0149291  0
-0.0045808 0.0141144  0
-0.00494999 0.0148893  0
-0.00491035 0.0145217  0
-0.00462045 0.014482  0
-0.0046588 0.0148507  0
-0.00472888 0.0155982  0
-0.00524362 0.0149255  0
-0.00469384 0.0152244  0
-0.00498625 0.0152618  0
-0.00495121 0.0148881  0
-0.0041692 0.0155459  0
-0.00411491 0.014781  0
-0.00365214 0.0154947  0
-0.00414205 0.0151635  0
-0.00388353 0.0151379  0
-0.00391067 0.0155203  0
-0.00417001 0.0155449  0
-0.00472016 0.0156024  0
-0.00411242 0.0147835  0
-0.00444509 0.0155736  0
-0.00441629 0.015193  0
-0.00414121 0.0151642  0
-0.0041698 0.0155451  0
-0.00364997 0.0154969  0
-0.00421788 0.016323  0
-0.00390989 0.015521  0
-0.00393393 0.0159099  0
-0.00419384 0.015934  0
-0.00416914 0.0155458  0
-0.0042198 0.0163205  0
-0.00472244 0.0155996  0
-0.00419447 0.0159332  0
-0.00447112 0.0159601  0
-0.00444579 0.0155727  0
-0.00515374 0.0142051  0
-0.0050544 0.0134909  0
-0.00458016 0.014111  0
-0.00510407 0.013848  0
-0.00481728 0.0138009  0
-0.00486695 0.014158  0
-0.00515526 0.0142039  0
-0.00575786 0.0143098  0
-0.00505006 0.0134943  0
-0.00545656 0.0142568  0
-0.00540396 0.013902  0
-0.00510266 0.0138491  0
-0.00515516 0.0142038  0
-0.00457585 0.0141145  0
-0.00524499 0.014929  0
-0.00486551 0.0141592  0
-0.00491042 0.0145217  0
-0.00520008 0.0145664  0
-0.00515373 0.014205  0
-0.00524951 0.0149253  0
-0.00576241 0.0143062  0
-0.00520162 0.0145652  0
-0.00550596 0.0146158  0
-0.00545807 0.0142556  0
-0.00564433 0.0136112  0
-0.00551856 0.012921  0
-0.00505003 0.0134907  0
-0.00558144 0.0132661  0
-0.00528429 0.0132058  0
-0.00534718 0.0135509  0
-0.00564584 0.01361  0
-0.00504547 0.0134941  0
-0.00576251 0.01431  0
-0.00534566 0.013552  0
-0.00540399 0.013902  0
-0.00570418 0.01396  0
-0.00564587 0.01361  0
-0.00626674 0.0137426  0
-0.00551412 0.0129243  0
-0.0059563 0.0136763  0
-0.00589043 0.0133335  0
-0.00558 0.0132672  0
-0.00564434 0.0136111  0
-0.00576725 0.0143066  0
-0.00627133 0.0137393  0
-0.00570579 0.0139589  0
-0.00601929 0.014023  0
-0.00595783 0.0136752  0
-0.00126661 0.0160884  0
-0.0012893 0.016872  0
-0.00161067 0.0161116  0
-0.00127796 0.0164802  0
-0.00144998 0.0164918  0
-0.00143864 0.0161  0
-0.00126712 0.0160885  0
-0.00160937 0.0161109  0
-0.00124584 0.0153011  0
-0.00143825 0.0160997  0
-0.00142761 0.015706  0
-0.00125648 0.0156948  0
-0.00126721 0.0160886  0
-0.00093503 0.0160692  0
-0.00128801 0.0168713  0
-0.00110112 0.0160789  0
-0.00111152 0.0164703  0
-0.00127761 0.01648  0
-0.00126678 0.0160883  0
-0.00124737 0.0153015  0
-0.000936539 0.0160696  0
-0.00125708 0.0156949  0
-0.00109195 0.0156855  0
-0.00110166 0.0160789  0
-0.00163804 0.0168967  0
-0.001612 0.0161126  0
-0.0012879 0.0168709  0
-0.00162502 0.0165047  0
-0.00144995 0.0164918  0
-0.00146297 0.0168838  0
-0.00163834 0.0168971  0
-0.00200315 0.0169265  0
-0.00161054 0.0161115  0
-0.00182075 0.0169118  0
-0.00180684 0.016519  0
-0.00162444 0.0165043  0
-0.00163844 0.0168973  0
-0.00128637 0.0168698  0
-0.00166789 0.0176752  0
-0.00146241 0.0168836  0
-0.00147713 0.0172725  0
-0.00165317 0.0172862  0
-0.00163783 0.0168968  0
-0.00166918 0.0176767  0
-0.00200437 0.0169281  0
-0.00165351 0.0172867  0
-0.00183678 0.0173024  0
-0.0018211 0.0169124  0
-0.00197497 0.0161386  0
-0.00194694 0.0153498  0
-0.00161006 0.0161111  0
-0.00196095 0.0157442  0
-0.0017785 0.0157304  0
-0.00179251 0.0161248  0
-0.00197528 0.0161389  0
-0.00160878 0.0161107  0
-0.00200485 0.0169272  0
-0.00179203 0.0161248  0
-0.00180682 0.0165189  0
-0.00199006 0.0165331  0
-0.00197523 0.0161387  0
-0.0023584 0.0161692  0
-0.00194564 0.0153494  0
-0.00216682 0.016154  0
-0.00215202 0.0157593  0
-0.00196044 0.0157441  0
-0.00197479 0.0161387  0
-0.00200582 0.016928  0
-0.00235937 0.0161699  0
-0.00199031 0.0165333  0
-0.0021826 0.0165489  0
-0.00216708 0.0161543  0
-0.000954338 0.0168503  0
-0.00128699 0.0168701  0
-0.000936107 0.0160706  0
-0.00112067 0.0168602  0
-0.00111155 0.0164703  0
-0.000945222 0.0164604  0
-0.000953935 0.01685  0
-0.00093787 0.0160713  0
-0.000629959 0.0168346  0
-0.000945903 0.0164607  0
-0.000783915 0.016453  0
-0.000791947 0.0168423  0
-0.000953741 0.0168501  0
-0.000974337 0.0176208  0
-0.0012886 0.0168712  0
-0.000964039 0.0172354  0
-0.00113147 0.017246  0
-0.00112117 0.0168607  0
-0.000954472 0.0168504  0
-0.00062817 0.016834  0
-0.000972693 0.0176198  0
-0.000791321 0.0168422  0
-0.000800431 0.0172269  0
-0.000963582 0.0172351  0
-0.0027745 0.016204  0
-0.00235781 0.0161689  0
-0.00281052 0.0169981  0
-0.00256615 0.0161864  0
-0.00258416 0.0165835  0
-0.00279251 0.016601  0
-0.00277431 0.0162037  0
-0.0027391 0.0154143  0
-0.00235886 0.0161691  0
-0.0027567 0.015809  0
-0.00254898 0.0157917  0
-0.00256659 0.0161864  0
-0.00277415 0.0162038  0
-0.00281115 0.0169986  0
-0.00321558 0.016241  0
-0.00279265 0.0166012  0
-0.00301337 0.0166198  0
-0.00299486 0.0162224  0
-0.00277454 0.0162037  0
-0.00321489 0.0162408  0
-0.00273798 0.0154143  0
-0.00299471 0.0162223  0
-0.00297643 0.0158275  0
-0.00275626 0.015809  0
-0.00239537 0.0169619  0
-0.00280796 0.0169982  0
-0.00236039 0.016169  0
-0.00260167 0.01698  0
-0.00258417 0.0165836  0
-0.00237788 0.0165654  0
-0.0023952 0.0169614  0
-0.00236145 0.0161703  0
-0.00200367 0.0169275  0
-0.00237833 0.0165659  0
-0.00218256 0.0165489  0
-0.00219944 0.0169445  0
-0.00239498 0.0169615  0
-0.00243406 0.0177539  0
-0.00280865 0.0169999  0
-0.00241452 0.0173577  0
-0.00262136 0.0173769  0
-0.00260182 0.0169807  0
-0.00239542 0.0169621  0
-0.00200253 0.0169261  0
-0.00243328 0.017752  0
-0.00219898 0.0169441  0
-0.00221791 0.0173391  0
-0.00241435 0.0173571  0
-0.00325745 0.0170381  0
-0.00321861 0.0162404  0
-0.00280804 0.016999  0
-0.00323803 0.0166393  0
-0.00301333 0.0166197  0
-0.00303274 0.0170185  0
-0.00325752 0.0170384  0
-0.00373519 0.0170788  0
-0.0032179 0.0162395  0
-0.00349635 0.0170586  0
-0.00347655 0.0166592  0
-0.00323771 0.0166389  0
-0.00325746 0.0170387  0
-0.00280732 0.0169977  0
-0.00329993 0.0178424  0
-0.00303239 0.0170182  0
-0.00305363 0.01742  0
-0.00327869 0.0174405  0
-0.00325723 0.0170381  0
-0.0033001 0.017844  0
-0.00373535 0.0170801  0
-0.00327867 0.0174411  0
-0.00351773 0.0174621  0
-0.00349629 0.0170591  0
-0.00369814 0.0162807  0
-0.00365594 0.0154949  0
-0.00321534 0.0162398  0
-0.00367704 0.0158878  0
-0.00343564 0.0158674  0
-0.00345674 0.0162603  0
-0.00369832 0.0162806  0
-0.00321423 0.0162404  0
-0.00373893 0.0170776  0
-0.00345627 0.0162605  0
-0.00347658 0.016659  0
-0.00371862 0.0166791  0
-0.00369849 0.0162803  0
-0.00421311 0.0163242  0
-0.00365461 0.0154959  0
-0.0039558 0.0163023  0
-0.00393386 0.01591  0
-0.00367655 0.0158881  0
-0.00369801 0.0162807  0
-0.00373954 0.0170771  0
-0.00421396 0.0163232  0
-0.00371878 0.0166789  0
-0.00397675 0.0167002  0
-0.00395598 0.016302  0
-0.00204141 0.0177121  0
-0.00166618 0.0176732  0
-0.00208315 0.0184856  0
-0.0018538 0.0176927  0
-0.00187467 0.0180794  0
-0.00206228 0.0180989  0
-0.00204101 0.0177112  0
-0.00200569 0.0169293  0
-0.00166779 0.0176753  0
-0.00202335 0.0173203  0
-0.00183674 0.0173023  0
-0.0018544 0.0176933  0
-0.00204076 0.0177112  0
-0.0020845 0.0184884  0
-0.0024328 0.017754  0
-0.00206263 0.0180998  0
-0.00225865 0.0181212  0
-0.00223678 0.0177326  0
-0.00204129 0.0177119  0
-0.00243163 0.0177513  0
-0.00200425 0.0169271  0
-0.00223646 0.0177316  0
-0.00221794 0.0173392  0
-0.00202277 0.0173195  0
-0.00131479 0.0176441  0
-0.00166684 0.0176736  0
-0.00128749 0.0168716  0
-0.00149081 0.0176589  0
-0.00147717 0.0172726  0
-0.00130114 0.0172578  0
-0.00131412 0.0176436  0
-0.00134616 0.018404  0
-0.00166858 0.0176757  0
-0.00133014 0.0180238  0
-0.00150737 0.0180399  0
-0.00149135 0.0176597  0
-0.00131435 0.0176436  0
-0.00128939 0.0168731  0
-0.000973479 0.0176188  0
-0.00130187 0.0172584  0
-0.00113143 0.017246  0
-0.00114392 0.0176312  0
-0.00131494 0.0176443  0
-0.000971474 0.0176175  0
-0.0013443 0.0184022  0
-0.00114321 0.0176309  0
-0.00115788 0.0180098  0
-0.00132962 0.0180232  0
-0.00170731 0.0184404  0
-0.00208222 0.0184837  0
-0.0016672 0.0176753  0
-0.00189477 0.018462  0
-0.00187471 0.0180795  0
-0.00168726 0.0180579  0
-0.00170683 0.0184395  0
-0.0016693 0.0176781  0
-0.00134535 0.0184016  0
-0.00168807 0.0180588  0
-0.00150733 0.0180398  0
-0.00152609 0.0184205  0
-0.00170655 0.0184395  0
-0.00175472 0.019189  0
-0.00208418 0.018487  0
-0.00173064 0.0188143  0
-0.00191945 0.018838  0
-0.00189536 0.0184633  0
-0.00170749 0.0184406  0
-0.00134304 0.0183991  0
-0.00175255 0.0191859  0
-0.00152527 0.0184198  0
-0.0015478 0.0187925  0
-0.00173002 0.0188132  0
-0.00285281 0.0177968  0
-0.00281066 0.0170002  0
-0.00243198 0.0177534  0
-0.00283174 0.0173985  0
-0.00262132 0.0173768  0
-0.00264239 0.0177751  0
-0.00285293 0.0177979  0
-0.00243097 0.0177507  0
-0.00290302 0.0185928  0
-0.00264195 0.0177743  0
-0.00266699 0.0181717  0
-0.00287797 0.0181954  0
-0.00285287 0.0177977  0
-0.00329744 0.0178428  0
-0.00280985 0.0169976  0
-0.00307515 0.0178202  0
-0.00305364 0.0174202  0
-0.00283136 0.0173976  0
-0.00285253 0.0177968  0
-0.0029036 0.0185962  0
-0.00329781 0.017846  0
-0.00287807 0.0181965  0
-0.00310071 0.0182211  0
-0.00307517 0.0178214  0
-0.00248265 0.0185369  0
-0.00243395 0.0177556  0
-0.00208327 0.0184867  0
-0.0024583 0.0181462  0
-0.00225861 0.0181211  0
-0.00228296 0.0185118  0
-0.00248291 0.0185381  0
-0.0029016 0.0185919  0
-0.00243247 0.0177519  0
-0.00269225 0.018565  0
-0.00266704 0.0181719  0
-0.00245769 0.018145  0
-0.00248306 0.0185383  0
-0.00208152 0.0184831  0
-0.00254233 0.0193089  0
-0.00228229 0.0185107  0
-0.00231192 0.018896  0
-0.00251269 0.0189236  0
-0.00248233 0.0185369  0
-0.00254383 0.0193133  0
-0.0029028 0.0185964  0
-0.00251308 0.0189251  0
-0.00272332 0.0189548  0
-0.00269257 0.0185666  0
-0.00064306 0.0176006  0
-0.000660591 0.0183505  0
-0.000974241 0.017619  0
-0.000651825 0.0179756  0
-0.000817416 0.0179847  0
-0.000808651 0.0176098  0
-0.000643799 0.0176008  0
-0.000972149 0.0176177  0
-0.000628789 0.0168362  0
-0.000807974 0.0176093  0
-0.000800469 0.017227  0
-0.000636294 0.0172185  0
-0.000643974 0.0176009  0
-0.00031824 0.0175886  0
-0.000658433 0.0183496  0
-0.000481107 0.0175948  0
-0.000488336 0.0179691  0
-0.000651203 0.0179753  0
-0.000643275 0.0176006  0
-0.000630954 0.016837  0
-0.000320459 0.0175891  0
-0.000637114 0.0172188  0
-0.000475707 0.0172131  0
-0.000481867 0.0175948  0
-0.000997658 0.0183701  0
-0.000974609 0.0176219  0
-0.000660138 0.0183476  0
-0.000986133 0.017996  0
-0.000817373 0.0179847  0
-0.000828898 0.0183588  0
-0.000998281 0.0183706  0
-0.00134375 0.0183995  0
-0.000972106 0.0176202  0
-0.00117102 0.0183851  0
-0.00115793 0.0180099  0
-0.000985194 0.0179954  0
-0.000998475 0.0183708  0
-0.000657499 0.0183463  0
-0.00102596 0.0190996  0
-0.000827987 0.0183585  0
-0.000841729 0.0187229  0
-0.00101222 0.0187352  0
-0.000997404 0.0183701  0
-0.00102855 0.0191015  0
-0.00134619 0.0184017  0
-0.00101298 0.0187358  0
-0.00118737 0.0187516  0
-0.0011718 0.0183859  0
-0.000328644 0.0183343  0
-0.000658228 0.0183466  0
-0.000318531 0.0175917  0
-0.000493436 0.0183404  0
-0.00048838 0.0179691  0
-0.000323587 0.017963  0
-0.000327954 0.0183341  0
-0.000321227 0.0175922  0
-1.00494e-06 0.0183288  0
-0.000324591 0.0179632  0
-0.000161116 0.0179605  0
-0.00016448 0.0183315  0
-0.000327721 0.0183342  0
-0.000339675 0.019056  0
-0.000660934 0.0183476  0
-0.000333698 0.0186951  0
-0.000500305 0.0187018  0
-0.000494328 0.0183409  0
-0.000328857 0.0183344  0
1.76527e-06 0.0183287  0
-0.000336886 0.0190554  0
-0.000163546 0.0183315  0
-0.00016756 0.018692  0
-0.000332872 0.0186949  0
-0.00693073 0.0138887  0
-0.00626726 0.0137425  0
-0.00707783 0.014568  0
-0.00659899 0.0138156  0
-0.00667254 0.0141552  0
-0.00700428 0.0142283  0
-0.00692935 0.0138897  0
-0.00677466 0.0132207  0
-0.00627136 0.0137396  0
-0.006852 0.0135552  0
-0.00652301 0.0134801  0
-0.00660036 0.0138147  0
-0.00640744 0.0144302  0
-0.00707407 0.0145678  0
-0.00627106 0.0137426  0
-0.00674076 0.014499  0
-0.00667257 0.0141552  0
-0.00633925 0.0140864  0
-0.0064058 0.0144312  0
-0.00627562 0.0137396  0
-0.00576299 0.0143063  0
-0.00634071 0.0140854  0
-0.0060193 0.0140229  0
-0.0060844 0.0143688  0
-0.00640585 0.0144311  0
-0.00653457 0.0151296  0
-0.00707882 0.0145649  0
-0.00647021 0.0147803  0
-0.0068067 0.0148473  0
-0.00674233 0.014498  0
-0.00640743 0.0144301  0
-0.00575808 0.0143094  0
-0.00652941 0.0151325  0
-0.00608275 0.0143697  0
-0.00614375 0.0147209  0
-0.00646842 0.0147813  0
-0.00587015 0.0150222  0
-0.00597088 0.0157462  0
-0.00653047 0.0151288  0
-0.00592052 0.0153842  0
-0.00625068 0.0154375  0
-0.00620031 0.0150755  0
-0.00587192 0.0150213  0
-0.00652516 0.0151322  0
-0.00576228 0.0143096  0
-0.00619854 0.0150767  0
-0.00614372 0.0147209  0
-0.0058171 0.0146654  0
-0.0058718 0.0150211  0
-0.00523963 0.0149286  0
-0.0059654 0.0157498  0
-0.00555572 0.0149748  0
-0.00560251 0.0153392  0
-0.0059186 0.0153854  0
-0.00587012 0.0150224  0
-0.00576718 0.0143063  0
-0.00524467 0.0149251  0
-0.00581865 0.0146644  0
-0.00550593 0.0146157  0
-0.0055574 0.0149738  0
-0.00721907 0.0152612  0
-0.00708241 0.0145651  0
-0.00653111 0.0151294  0
-0.00715074 0.0149131  0
-0.00680676 0.0148472  0
-0.00687509 0.0151953  0
-0.00722078 0.0152602  0
-0.00652601 0.0151316  0
-0.00735138 0.015969  0
-0.0068734 0.0151959  0
-0.0069387 0.0155503  0
-0.00728608 0.0156146  0
-0.00664472 0.0158498  0
-0.00653484 0.015129  0
-0.0059665 0.0157459  0
-0.00658978 0.0154894  0
-0.00625067 0.0154375  0
-0.00630561 0.0157979  0
-0.00664687 0.0158488  0
-0.00734815 0.0159688  0
-0.00652923 0.0151318  0
-0.00699751 0.0159088  0
-0.00693869 0.0155503  0
-0.00658805 0.0154903  0
-0.00664678 0.0158485  0
-0.00596032 0.0157489  0
-0.00674852 0.0165844  0
-0.00630355 0.0157987  0
-0.00635442 0.0161666  0
-0.00669765 0.0162164  0
-0.00664479 0.0158494  0
-0.00675545 0.0165815  0
-0.0073544 0.0159661  0
-0.00670012 0.0162155  0
-0.00705492 0.0162738  0
-0.00699959 0.0159078  0
-0.00532598 0.0156677  0
-0.00596025 0.0157498  0
-0.00524458 0.0149285  0
-0.00564311 0.0157088  0
-0.00560242 0.0153391  0
-0.00528528 0.0152981  0
-0.00532441 0.015669  0
-0.00524886 0.0149251  0
-0.00472352 0.0155985  0
-0.00528663 0.015297  0
-0.00498619 0.0152618  0
-0.00502396 0.0156338  0
-0.00532441 0.0156688  0
-0.0053962 0.0164233  0
-0.00596482 0.0157461  0
-0.00536031 0.0160461  0
-0.00568051 0.0160847  0
-0.00564462 0.0157074  0
-0.00532572 0.0156678  0
-0.00471947 0.0156019  0
-0.00539188 0.0164271  0
-0.00502259 0.0156348  0
-0.00505567 0.0160145  0
-0.0053588 0.0160474  0
-0.00478178 0.0163713  0
-0.00421226 0.0163237  0
-0.00482921 0.0171625  0
-0.00449702 0.0163475  0
-0.00452074 0.0167431  0
-0.0048055 0.0167669  0
-0.0047812 0.016372  0
-0.00472762 0.0155984  0
-0.00421447 0.0163216  0
-0.00475441 0.0159852  0
-0.00447104 0.01596  0
-0.00449784 0.0163468  0
-0.00478115 0.0163719  0
-0.00483116 0.01716  0
-0.00538856 0.0164252  0
-0.00480616 0.016766  0
-0.00510986 0.0167926  0
-0.00508486 0.0163985  0
-0.00478213 0.016371  0
-0.0053861 0.0164281  0
-0.00472495 0.0156009  0
-0.00508412 0.0163996  0
-0.00505553 0.0160145  0
-0.00475354 0.0159859  0
-0.00426131 0.0171205  0
-0.00482387 0.0171645  0
-0.00421737 0.016322  0
-0.00454259 0.0171425  0
-0.00452062 0.0167433  0
-0.00423934 0.0167213  0
-0.00426111 0.0171207  0
-0.0042183 0.0163217  0
-0.00373508 0.0170785  0
-0.0042397 0.0167212  0
-0.00397669 0.0167001  0
-0.00399809 0.0170996  0
-0.00426094 0.0171207  0
-0.0043044 0.0179362  0
-0.00482411 0.0171642  0
-0.00428267 0.0175285  0
-0.00456426 0.0175502  0
-0.00454252 0.0171424  0
-0.00426103 0.0171209  0
-0.00373441 0.0170782  0
-0.00430446 0.0179358  0
-0.00399772 0.0170995  0
-0.00401943 0.017507  0
-0.00428274 0.0175284  0
-0.00544773 0.0172116  0
-0.00539434 0.0164232  0
-0.00482514 0.0171617  0
-0.00542103 0.0168174  0
-0.00510974 0.0167925  0
-0.00513643 0.0171867  0
-0.00544894 0.0172104  0
-0.00611413 0.0172685  0
-0.00539115 0.0164258  0
-0.00578153 0.0172395  0
-0.00575264 0.0168472  0
-0.00542005 0.0168181  0
-0.00544832 0.0172108  0
-0.00482267 0.0171637  0
-0.00549535 0.0180246  0
-0.0051355 0.0171872  0
-0.00515901 0.0175941  0
-0.00547183 0.0176177  0
-0.00544769 0.0172114  0
-0.00549758 0.0180218  0
-0.00611722 0.0172651  0
-0.00547263 0.0176166  0
-0.0058074 0.0176435  0
-0.00578245 0.0172382  0
-0.00604949 0.016497  0
-0.00597025 0.0157455  0
-0.0053906 0.0164238  0
-0.00600987 0.0161212  0
-0.00568043 0.0160846  0
-0.00572004 0.0164604  0
-0.00605126 0.0164955  0
-0.00538523 0.0164272  0
-0.00612055 0.0172671  0
-0.00571824 0.0164614  0
-0.00575289 0.0168471  0
-0.0060859 0.0168813  0
-0.00605164 0.0164956  0
-0.0067438 0.0165843  0
-0.00596479 0.0157488  0
-0.00639772 0.01654  0
-0.0063543 0.0161666  0
-0.00600822 0.0161222  0
-0.00604954 0.0164966  0
-0.00612672 0.0172631  0
-0.00675005 0.0165804  0
-0.00608813 0.0168798  0
-0.00643839 0.0169217  0
-0.00639979 0.0165385  0
-0.00378262 0.017891  0
-0.00383492 0.0187162  0
-0.00430001 0.0179408  0
-0.00380877 0.0183036  0
-0.00406747 0.0183285  0
-0.00404132 0.0179159  0
-0.00378276 0.0178919  0
-0.00430059 0.0179378  0
-0.0037382 0.0170766  0
-0.00404168 0.0179148  0
-0.0040194 0.0175072  0
-0.00376048 0.0174842  0
-0.00378269 0.0178922  0
-0.00329671 0.017842  0
-0.00383535 0.0187127  0
-0.0035397 0.0178671  0
-0.00356603 0.0182773  0
-0.00380902 0.0183025  0
-0.00378293 0.0178911  0
-0.00373836 0.017079  0
-0.003297 0.0178449  0
-0.00376064 0.017485  0
-0.00351768 0.0174619  0
-0.00353996 0.017868  0
-0.00487289 0.0179833  0
-0.00482878 0.0171615  0
-0.00429956 0.0179385  0
-0.00485083 0.0175724  0
-0.00456417 0.01755  0
-0.00458622 0.0179609  0
-0.0048724 0.017984  0
-0.00429956 0.0179367  0
-0.00492086 0.0188292  0
-0.00458598 0.0179604  0
-0.00461021 0.018383  0
-0.00489663 0.0184066  0
-0.00487287 0.0179834  0
-0.00548915 0.0180279  0
-0.00482845 0.0171608  0
-0.00518101 0.0180056  0
-0.0051588 0.0175944  0
-0.00485066 0.0175721  0
-0.00487264 0.0179832  0
-0.0049197 0.0188312  0
-0.00548839 0.0180286  0
-0.00489617 0.0184072  0
-0.00520405 0.0184299  0
-0.00518052 0.0180059  0
-0.00435681 0.0187754  0
-0.00430274 0.0179391  0
-0.00383207 0.0187176  0
-0.00432978 0.0183572  0
-0.00406741 0.0183283  0
-0.00409444 0.0187465  0
-0.00435629 0.018777  0
-0.00491703 0.0188324  0
-0.00430331 0.0179342  0
-0.00463666 0.0188047  0
-0.00461017 0.0183833  0
-0.0043298 0.0183556  0
-0.00435627 0.0187775  0
-0.00383227 0.0187122  0
-0.00442561 0.0196251  0
-0.00409427 0.0187449  0
-0.00412894 0.0191686  0
-0.00439094 0.0192013  0
-0.00435632 0.0187753  0
-0.0044245 0.0196316  0
-0.00491548 0.0188384  0
-0.00439041 0.0192035  0
-0.00466999 0.019235  0
-0.0046359 0.0188069  0
-0.00335432 0.0186548  0
-0.00383317 0.0187134  0
-0.00329896 0.0178417  0
-0.00359374 0.0186841  0
-0.00356606 0.0182775  0
-0.00332664 0.0182483  0
-0.00335439 0.0186533  0
-0.00329953 0.0178463  0
-0.00290179 0.0185957  0
-0.00332696 0.0182498  0
-0.00310066 0.018221  0
-0.00312809 0.0186245  0
-0.00335401 0.0186533  0
-0.00342316 0.0194653  0
-0.00383325 0.0187189  0
-0.00338859 0.0190593  0
-0.00362821 0.0190921  0
-0.00359363 0.0186861  0
-0.00335443 0.0186551  0
-0.00290087 0.0185911  0
-0.00342269 0.0194597  0
-0.00312765 0.0186231  0
-0.00316178 0.0190254  0
-0.00338856 0.0190574  0
-0.00748262 0.0166966  0
-0.00674483 0.0165826  0
-0.00760106 0.0174476  0
-0.00711373 0.0166396  0
-0.00717295 0.0170151  0
-0.00754184 0.0170721  0
-0.00748005 0.0166978  0
-0.00735753 0.0159663  0
-0.00675252 0.0165811  0
-0.00741879 0.016332  0
-0.00705502 0.0162737  0
-0.00711629 0.0166395  0
-0.00684728 0.0173434  0
-0.00759798 0.0174475  0
-0.00674759 0.0165826  0
-0.00722263 0.0173954  0
-0.00717278 0.017015  0
-0.00679744 0.016963  0
-0.0068441 0.0173446  0
-0.00675524 0.0165799  0
-0.00612132 0.0172634  0
-0.00679967 0.0169623  0
-0.00643828 0.0169216  0
-0.00648271 0.017304  0
-0.00684418 0.0173438  0
-0.00693642 0.0181307  0
-0.00760746 0.0174445  0
-0.0068903 0.0177372  0
-0.00727194 0.0177876  0
-0.00722582 0.0173941  0
-0.00684691 0.0173428  0
-0.00611309 0.0172666  0
-0.0069261 0.0181344  0
-0.00648 0.0173047  0
-0.0065196 0.0177005  0
-0.0068865 0.0177386  0
-0.0061795 0.0180737  0
-0.00548703 0.0180264  0
-0.00622684 0.0189256  0
-0.00583326 0.01805  0
-0.00585693 0.018476  0
-0.00620317 0.0184996  0
-0.00617869 0.0180748  0
-0.0061239 0.0172621  0
-0.00549045 0.0180244  0
-0.0061513 0.0176684  0
-0.00580718 0.0176433  0
-0.00583457 0.0180496  0
-0.0061787 0.0180741  0
-0.00623037 0.0189219  0
-0.0069242 0.0181314  0
-0.00620454 0.018498  0
-0.00657729 0.0185267  0
-0.00655145 0.0181028  0
-0.00618074 0.0180731  0
-0.00691908 0.0181361  0
-0.0061192 0.0172649  0
-0.00654991 0.0181046  0
-0.00651914 0.0177005  0
-0.00614997 0.017669  0
-0.00553971 0.0188853  0
-0.00621901 0.0189314  0
-0.00549399 0.0180215  0
-0.00587936 0.0189083  0
-0.0058565 0.0184765  0
-0.00551685 0.0184534  0
-0.0055402 0.0188847  0
-0.00549341 0.0180242  0
-0.00491439 0.018835  0
-0.0055168 0.0184544  0
-0.0052039 0.0184296  0
-0.00522729 0.0188598  0
-0.00553965 0.0188845  0
-0.00559415 0.019788  0
-0.00621641 0.0189343  0
-0.0055669 0.0193363  0
-0.00590528 0.0193611  0
-0.00587803 0.0189094  0
-0.00553893 0.0188865  0
-0.00491542 0.0188306  0
-0.00559733 0.0197829  0
-0.00522717 0.0188585  0
-0.00525638 0.0193067  0
-0.00556813 0.0193347  0
-0.00772328 0.0182334  0
-0.00761093 0.0174447  0
-0.00693324 0.0181302  0
-0.0076671 0.017839  0
-0.00727209 0.0177874  0
-0.00732826 0.0181818  0
-0.00772815 0.0182307  0
-0.00691847 0.0181305  0
-0.00783858 0.0190595  0
-0.00732331 0.0181806  0
-0.00737853 0.018595  0
-0.00778337 0.0186451  0
-0.0069942 0.0189798  0
-0.00693225 0.0181269  0
-0.00622131 0.0189257  0
-0.00696322 0.0185534  0
-0.00657678 0.0185263  0
-0.00660775 0.0189528  0
-0.00699864 0.0189771  0
-0.00783266 0.0190605  0
-0.00692236 0.018129  0
-0.00741565 0.0190188  0
-0.00737751 0.0185948  0
-0.0069605 0.0185531  0
-0.00699652 0.0189776  0
-0.00621399 0.0189283  0
-0.00704668 0.0198959  0
-0.00660526 0.018953  0
-0.00663034 0.0194121  0
-0.0070216 0.0194368  0
-0.00699389 0.0189779  0
-0.00705728 0.0198888  0
-0.00784662 0.0190546  0
-0.00702559 0.0194333  0
-0.00745195 0.0194717  0
-0.00742026 0.0190163  0
-0.00797014 0.0199515  0
-0.00700424 0.0198859  0
-0.00806209 0.0210362  0
-0.00748719 0.0199187  0
-0.00753316 0.020461  0
-0.00801611 0.0204939  0
-0.00795722 0.019967  0
-0.00785701 0.0190521  0
-0.0070459 0.0198892  0
-0.00790712 0.0195095  0
-0.00745146 0.0194707  0
-0.00750156 0.0199281  0
-0.00709131 0.0209854  0
-0.00802078 0.0210778  0
-0.00702504 0.0198646  0
-0.00755605 0.0210316  0
-0.00752291 0.0204712  0
-0.00705818 0.020425  0
-0.00710659 0.0209722  0
-0.00702744 0.019907  0
-0.00634865 0.0208695  0
-0.00706701 0.0204396  0
-0.00668804 0.0203882  0
-0.00672762 0.0209208  0
-0.00627315 0.0198577  0
-0.00703381 0.019908  0
-0.00622406 0.0189191  0
-0.00665348 0.0198828  0
-0.00662893 0.0194135  0
-0.0062486 0.0193884  0
-0.0062733 0.0198547  0
-0.00635133 0.020859  0
-0.00702659 0.0199187  0
-0.00631232 0.0203568  0
-0.00668896 0.0203889  0
-0.00664995 0.0198867  0
-0.006275 0.0198552  0
-0.00622173 0.0189267  0
-0.00558826 0.0197943  0
-0.00624836 0.0193909  0
-0.00590499 0.0193605  0
-0.00593163 0.0198248  0
-0.0062723 0.0198597  0
-0.00558969 0.0197833  0
-0.00635681 0.0208439  0
-0.00593099 0.0198215  0
-0.00597325 0.0203136  0
-0.00631455 0.0203518  0
-0.00569553 0.0207296  0
-0.00559184 0.0197977  0
-0.00508413 0.0206153  0
-0.00564368 0.0202637  0
-0.00533798 0.0202065  0
-0.00538983 0.0206725  0
-0.00569329 0.0207354  0
-0.00635521 0.0208494  0
-0.0055916 0.0197801  0
-0.00602425 0.0207924  0
-0.00597341 0.0203147  0
-0.00564244 0.0202578  0
-0.00498748 0.0197112  0
-0.0050846 0.0206137  0
-0.00559167 0.0197994  0
-0.00503604 0.0201625  0
-0.00533814 0.0202066  0
-0.00528958 0.0197553  0
-0.00498732 0.0197144  0
-0.00559402 0.0197878  0
-0.00491876 0.0188269  0
-0.00529067 0.0197511  0
-0.00525639 0.0193073  0
-0.00495304 0.0192707  0
-0.00498767 0.0197149  0
-0.00442261 0.0196241  0
-0.0050857 0.0206021  0
-0.00470514 0.0196695  0
-0.00475416 0.0201131  0
-0.00503668 0.0201585  0
-0.00498838 0.0197112  0
-0.00491747 0.0188361  0
-0.00442233 0.0196335  0
-0.00495293 0.0192737  0
-0.0046699 0.0192348  0
-0.00470536 0.0196724  0
-0.00452873 0.0204885  0
-0.00508524 0.0206024  0
-0.00442326 0.0196244  0
-0.00480698 0.0205455  0
-0.00475425 0.0201134  0
-0.004476 0.0200565  0
-0.00452903 0.0204848  0
-0.00442444 0.0196357  0
-0.00400448 0.0203738  0
-0.00447673 0.0200603  0
-0.00421446 0.0200048  0
-0.00426676 0.0204293  0
-0.00390861 0.0195462  0
-0.0044241 0.019626  0
-0.00383391 0.0187118  0
-0.00416636 0.0195861  0
-0.00412901 0.0191689  0
-0.00387126 0.019129  0
-0.00390828 0.0195436  0
-0.0040049 0.0203749  0
-0.00442419 0.0196348  0
-0.00395659 0.0199592  0
-0.00421454 0.0200048  0
-0.00416623 0.0195892  0
-0.00390881 0.0195436  0
-0.00383441 0.0187193  0
-0.00342188 0.0194647  0
-0.00387161 0.0191314  0
-0.00362815 0.019092  0
-0.00366535 0.0195042  0
-0.00390887 0.0195464  0
-0.00342079 0.0194574  0
-0.00400416 0.0203663  0
-0.00366483 0.0195019  0
-0.00371248 0.0199119  0
-0.00395651 0.0199563  0
-0.00351882 0.0202568  0
-0.00342338 0.0194678  0
-0.00305758 0.0201575  0
-0.0034711 0.0198623  0
-0.00324048 0.0198127  0
-0.0032882 0.0202071  0
-0.00351916 0.0202595  0
-0.00400388 0.0203645  0
-0.00342122 0.0194596  0
-0.00376152 0.020312  0
-0.00371255 0.019912  0
-0.00347019 0.0198595  0
-0.00297119 0.0193818  0
-0.00305791 0.0201601  0
-0.00342317 0.0194653  0
-0.00301455 0.019771  0
-0.00324054 0.0198127  0
-0.00319718 0.0194236  0
-0.00297186 0.0193838  0
-0.00342174 0.0194586  0
-0.00290193 0.0185925  0
-0.0031968 0.0194212  0
-0.00316184 0.0190256  0
-0.0029369 0.0189882  0
-0.00297208 0.019384  0
-0.00254088 0.0193056  0
-0.00305604 0.0201536  0
-0.00275648 0.0193448  0
-0.00279846 0.0197296  0
-0.00301406 0.0197688  0
-0.00297158 0.0193818  0
-0.00290358 0.0185983  0
-0.00254295 0.0193112  0
-0.00293758 0.0189901  0
-0.00272326 0.0189548  0
-0.00275726 0.0193465  0
-0.00262453 0.0200611  0
-0.00305584 0.0201505  0
-0.0025412 0.019309  0
-0.00284018 0.0201058  0
-0.00279852 0.0197297  0
-0.00258286 0.019685  0
-0.00262384 0.020059  0
-0.00254415 0.0193151  0
-0.00220995 0.0199773  0
-0.00258399 0.0196871  0
-0.00237705 0.0196462  0
-0.0024169 0.0200182  0
-0.00214049 0.0192438  0
-0.00254169 0.0193064  0
-0.00208226 0.0184857  0
-0.00234109 0.0192751  0
-0.00231198 0.0188961  0
-0.00211138 0.0188648  0
-0.00213959 0.0192424  0
-0.0022102 0.019981  0
-0.002544 0.0193115  0
-0.0021749 0.0196117  0
-0.0023771 0.0196463  0
-0.00234179 0.0192769  0
-0.00213992 0.0192424  0
-0.00208469 0.01849  0
-0.00175411 0.019186  0
-0.0021123 0.0188662  0
-0.0019194 0.018838  0
-0.00194701 0.0192142  0
-0.0021407 0.0192439  0
-0.00175137 0.019182  0
-0.00220756 0.0199763  0
-0.00194604 0.019213  0
-0.00197947 0.0195791  0
-0.00217413 0.0196101  0
-0.00181442 0.0199019  0
-0.00175514 0.0191905  0
-0.00143448 0.0198422  0
-0.00178478 0.0195462  0
-0.00159481 0.0195164  0
-0.00162445 0.019872  0
-0.00181532 0.0199033  0
-0.00220744 0.0199723  0
-0.00175161 0.0191862  0
-0.00201138 0.0199378  0
-0.00197952 0.0195792  0
-0.00178347 0.0195448  0
-0.00138443 0.019136  0
-0.00143466 0.0198466  0
-0.00175505 0.0191861  0
-0.00140955 0.0194913  0
-0.00159486 0.0195164  0
-0.00156974 0.019161  0
-0.00138548 0.0191369  0
-0.00175215 0.0191826  0
-0.00134355 0.0184025  0
-0.00156882 0.0191598  0
-0.00154785 0.0187926  0
-0.00136452 0.0187697  0
-0.0013857 0.019137  0
-0.00102498 0.0190954  0
-0.00143151 0.0198435  0
-0.00120534 0.0191162  0
-0.00122824 0.0194694  0
-0.00140861 0.0194902  0
-0.00138473 0.0191359  0
-0.00134649 0.0184053  0
-0.00102815 0.0190978  0
-0.00136561 0.0187706  0
-0.00118732 0.0187516  0
-0.00120644 0.0191169  0
-0.00106581 0.0197938  0
-0.00143144 0.0198389  0
-0.00102515 0.0191001  0
-0.00124863 0.0198163  0
-0.0012283 0.0194695  0
-0.00104548 0.019447  0
-0.00106477 0.019793  0
-0.00102906 0.0191027  0
-0.00070636 0.0197583  0
-0.00104691 0.0194478  0
-0.000867709 0.0194305  0
-0.000885563 0.0197756  0
-0.000680549 0.01907  0
-0.00102577 0.0190958  0
-0.000657792 0.0183502  0
-0.000853158 0.0190829  0
-0.000841779 0.018723  0
-0.000669171 0.0187101  0
-0.000679419 0.0190695  0
-0.000706478 0.0197631  0
-0.00102904 0.0190978  0
-0.000692949 0.0194163  0
-0.000867758 0.0194305  0
-0.000854228 0.0190837  0
-0.000679688 0.0190695  0
-0.000661032 0.0183516  0
-0.000339481 0.0190521  0
-0.00067036 0.0187105  0
-0.000500257 0.0187018  0
-0.000509584 0.0190608  0
-0.000680783 0.0190701  0
-0.000336078 0.0190511  0
-0.000703031 0.0197616  0
-0.000508431 0.0190606  0
-0.000519554 0.0194064  0
-0.000691907 0.0194158  0
-0.000350616 0.0197374  0
-0.00034028 0.019057  0
-1.71577e-06 0.0197293  0
-0.000345448 0.0193972  0
-0.000170998 0.0193932  0
-0.000176166 0.0197334  0
-0.000351726 0.0197377  0
-0.000703026 0.0197566  0
-0.000336182 0.0190562  0
-0.000527376 0.0197472  0
-0.000519604 0.0194064  0
-0.000343954 0.0193969  0
6.97516e-07 0.0190471  0
-1.77251e-06 0.0197344  0
-0.000340321 0.0190519  0
-5.37497e-07 0.0193908  0
-0.000171047 0.0193932  0
-0.000169812 0.0190495  0
-4.47492e-07 0.0190471  0
-0.000336887 0.0190514  0
1.66896e-06 0.0183327  0
-0.000168667 0.0190492  0
-0.000167609 0.0186921  0
6.10733e-07 0.0186899  0
-6.97516e-07 0.0190471  0
0.000340321 0.0190519  0
1.77251e-06 0.0197344  0
0.000169812 0.0190495  0
0.000171047 0.0193932  0
5.37497e-07 0.0193908  0
4.47492e-07 0.0190471  0
-1.66896e-06 0.0183327  0
0.000336887 0.0190514  0
-6.10733e-07 0.0186899  0
0.000167609 0.0186921  0
0.000168667 0.0190492  0
0.000350616 0.0197374  0
1.71577e-06 0.0197293  0
0.00034028 0.019057  0
0.000176166 0.0197334  0
0.000170998 0.0193932  0
0.000345448 0.0193972  0
0.000351726 0.0197377  0
0.000336182 0.0190562  0
0.000703026 0.0197566  0
0.000343954 0.0193969  0
0.000519604 0.0194064  0
0.000527376 0.0197472  0
0.000679688 0.0190695  0
0.000339481 0.0190521  0
0.000661032 0.0183516  0
0.000509584 0.0190608  0
0.000500257 0.0187018  0
0.00067036 0.0187105  0
0.000680783 0.0190701  0
0.000703031 0.0197616  0
0.000336078 0.0190511  0
0.000691907 0.0194158  0
0.000519554 0.0194064  0
0.000508431 0.0190606  0
0.000680549 0.01907  0
0.000657792 0.0183502  0
0.00102577 0.0190958  0
0.000669171 0.0187101  0
0.000841779 0.018723  0
0.000853158 0.0190829  0
0.000679419 0.0190695  0
0.00102904 0.0190978  0
0.000706478 0.0197631  0
0.000854228 0.0190837  0
0.000867758 0.0194305  0
0.000692949 0.0194163  0
0.00106581 0.0197938  0
0.00102515 0.0191001  0
0.00143144 0.0198389  0
0.00104548 0.019447  0
0.0012283 0.0194695  0
0.00124863 0.0198163  0
0.00106477 0.019793  0
0.00070636 0.0197583  0
0.00102906 0.0191027  0
0.000885563 0.0197756  0
0.000867709 0.0194305  0
0.00104691 0.0194478  0
0.0013857 0.019137  0
0.00143151 0.0198435  0
0.00102498 0.0190954  0
0.00140861 0.0194902  0
0.00122824 0.0194694  0
0.00120534 0.0191162  0
0.00138473 0.0191359  0
0.00102815 0.0190978  0
0.00134649 0.0184053  0
0.00120644 0.0191169  0
0.00118732 0.0187516  0
0.00136561 0.0187706  0
0.00138443 0.019136  0
0.00175505 0.0191861  0
0.00143466 0.0198466  0
0.00156974 0.019161  0
0.00159486 0.0195164  0
0.00140955 0.0194913  0
0.00138548 0.0191369  0
0.00134355 0.0184025  0
0.00175215 0.0191826  0
0.00136452 0.0187697  0
0.00154785 0.0187926  0
0.00156882 0.0191598  0
0.00181442 0.0199019  0
0.00143448 0.0198422  0
0.00175514 0.0191905  0
0.00162445 0.019872  0
0.00159481 0.0195164  0
0.00178478 0.0195462  0
0.00181532 0.0199033  0
0.00175161 0.0191862  0
0.00220744 0.0199723  0
0.00178347 0.0195448  0
0.00197952 0.0195792  0
0.00201138 0.0199378  0
0.00213992 0.0192424  0
0.00175411 0.019186  0
0.00208469 0.01849  0
0.00194701 0.0192142  0
0.0019194 0.018838  0
0.0021123 0.0188662  0
0.0021407 0.0192439  0
0.00220756 0.0199763  0
0.00175137 0.019182  0
0.00217413 0.0196101  0
0.00197947 0.0195791  0
0.00194604 0.019213  0
0.00214049 0.0192438  0
0.00208226 0.0184857  0
0.00254169 0.0193064  0
0.00211138 0.0188648  0
0.00231198 0.0188961  0
0.00234109 0.0192751  0
0.00213959 0.0192424  0
0.002544 0.0193115  0
0.0022102 0.019981  0
0.00234179 0.0192769  0
0.0023771 0.0196463  0
0.0021749 0.0196117  0
0.00262453 0.0200611  0
0.0025412 0.019309  0
0.00305584 0.0201505  0
0.00258286 0.019685  0
0.00279852 0.0197297  0
0.00284018 0.0201058  0
0.00262384 0.020059  0
0.00220995 0.0199773  0
0.00254415 0.0193151  0
0.0024169 0.0200182  0
0.00237705 0.0196462  0
0.00258399 0.0196871  0
0.00297208 0.019384  0
0.00305604 0.0201536  0
0.00254088 0.0193056  0
0.00301406 0.0197688  0
0.00279846 0.0197296  0
0.00275648 0.0193448  0
0.00297158 0.0193818  0
0.00254295 0.0193112  0
0.00290358 0.0185983  0
0.00275726 0.0193465  0
0.00272326 0.0189548  0
0.00293758 0.0189901  0
0.00297119 0.0193818  0
0.00342317 0.0194653  0
0.00305791 0.0201601  0
0.00319718 0.0194236  0
0.00324054 0.0198127  0
0.00301455 0.019771  0
0.00297186 0.0193838  0
0.00290193 0.0185925  0
0.00342174 0.0194586  0
0.0029369 0.0189882  0
0.00316184 0.0190256  0
0.0031968 0.0194212  0
0.00351882 0.0202568  0
0.00305758 0.0201575  0
0.00342338 0.0194678  0
0.0032882 0.0202071  0
0.00324048 0.0198127  0
0.0034711 0.0198623  0
0.00351916 0.0202595  0
0.00342122 0.0194596  0
0.00400388 0.0203645  0
0.00347019 0.0198595  0
0.00371255 0.019912  0
0.00376152 0.020312  0
0.00390881 0.0195436  0
0.00342188 0.0194647  0
0.00383441 0.0187193  0
0.00366535 0.0195042  0
0.00362815 0.019092  0
0.00387161 0.0191314  0
0.00390887 0.0195464  0
0.00400416 0.0203663  0
0.00342079 0.0194574  0
0.00395651 0.0199563  0
0.00371248 0.0199119  0
0.00366483 0.0195019  0
0.00390861 0.0195462  0
0.00383391 0.0187118  0
0.0044241 0.019626  0
0.00387126 0.019129  0
0.00412901 0.0191689  0
0.00416636 0.0195861  0
0.00390828 0.0195436  0
0.00442419 0.0196348  0
0.0040049 0.0203749  0
0.00416623 0.0195892  0
0.00421454 0.0200048  0
0.00395659 0.0199592  0
0.00452873 0.0204885  0
0.00442326 0.0196244  0
0.00508524 0.0206024  0
0.004476 0.0200565  0
0.00475425 0.0201134  0
0.00480698 0.0205455  0
0.00452903 0.0204848  0
0.00400448 0.0203738  0
0.00442444 0.0196357  0
0.00426676 0.0204293  0
0.00421446 0.0200048  0
0.00447673 0.0200603  0
0.00498767 0.0197149  0
0.0050857 0.0206021  0
0.00442261 0.0196241  0
0.00503668 0.0201585  0
0.00475416 0.0201131  0
0.00470514 0.0196695  0
0.00498838 0.0197112  0
0.00442233 0.0196335  0
0.00491747 0.0188361  0
0.00470536 0.0196724  0
0.0046699 0.0192348  0
0.00495293 0.0192737  0
0.00498748 0.0197112  0
0.00559167 0.0197994  0
0.0050846 0.0206137  0
0.00528958 0.0197553  0
0.00533814 0.0202066  0
0.00503604 0.0201625  0
0.00498732 0.0197144  0
0.00491876 0.0188269  0
0.00559402 0.0197878  0
0.00495304 0.0192707  0
0.00525639 0.0193073  0
0.00529067 0.0197511  0
0.00569553 0.0207296  0
0.00508413 0.0206153  0
0.00559184 0.0197977  0
0.00538983 0.0206725  0
0.00533798 0.0202065  0
0.00564368 0.0202637  0
0.00569329 0.0207354  0
0.0055916 0.0197801  0
0.00635521 0.0208494  0
0.00564244 0.0202578  0
0.00597341 0.0203147  0
0.00602425 0.0207924  0
0.006275 0.0198552  0
0.00558826 0.0197943  0
0.00622173 0.0189267  0
0.00593163 0.0198248  0
0.00590499 0.0193605  0
0.00624836 0.0193909  0
0.0062723 0.0198597  0
0.00635681 0.0208439  0
0.00558969 0.0197833  0
0.00631455 0.0203518  0
0.00597325 0.0203136  0
0.00593099 0.0198215  0
0.00627315 0.0198577  0
0.00622406 0.0189191  0
0.00703381 0.019908  0
0.0062486 0.0193884  0
0.00662893 0.0194135  0
0.00665348 0.0198828  0
0.0062733 0.0198547  0
0.00702659 0.0199187  0
0.00635133 0.020859  0
0.00664995 0.0198867  0
0.00668896 0.0203889  0
0.00631232 0.0203568  0
0.00797014 0.0199515  0
0.00806209 0.0210362  0
0.00700424 0.0198859  0
0.00801611 0.0204939  0
0.00753316 0.020461  0
0.00748719 0.0199187  0
0.00795722 0.019967  0
0.0070459 0.0198892  0
0.00785701 0.0190521  0
0.00750156 0.0199281  0
0.00745146 0.0194707  0
0.00790712 0.0195095  0
0.00709131 0.0209854  0
0.00702504 0.0198646  0
0.00802078 0.0210778  0
0.00705818 0.020425  0
0.00752291 0.0204712  0
0.00755605 0.0210316  0
0.00710659 0.0209722  0
0.00634865 0.0208695  0
0.00702744 0.019907  0
0.00672762 0.0209208  0
0.00668804 0.0203882  0
0.00706701 0.0204396  0
SCALARS rotation float
LOOKUP_TABLE default
-0.0112771
-0.0515279
-0.0186035
-0.0314025
-0.0350657
-0.0149403
-0.0112771
-0.0186035
-0.0111249
-0.0149403
-0.0148642
-0.011201
-0.0132285
-0.0186035
-0.014146
-0.015916
-0.0163747
-0.0136873
-0.0132285
-0.0111249
-0.0186035
-0.0121767
-0.0148642
-0.015916
-0.0132285
-0.014146
-0.00998863
-0.0136873
-0.0120673
-0.0116086
-0.0132285
-0.00998863
-0.0111249
-0.0116086
-0.0105568
-0.0121767
-0.026301
-0.0186035
-0.0515279
-0.0224522
-0.0350657
-0.0389145
-0.026301
-0.0209079
-0.0186035
-0.0236045
-0.0197557
-0.0224522
-0.0180833
-0.014146
-0.0186035
-0.0161147
-0.0163747
-0.0183434
-0.0180833
-0.0186035
-0.0209079
-0.0183434
-0.0197557
-0.0194956
-0.0180833
-0.0159784
-0.014146
-0.0170308
-0.0150622
-0.0161147
-0.0180833
-0.0209079
-0.0159784
-0.0194956
-0.0184432
-0.0170308
-0.0070981
-0.00998863
-0.00586168
-0.00854337
-0.00792516
-0.00647989
-0.0070981
-0.0111249
-0.00998863
-0.00911152
-0.0105568
-0.00854337
-0.00783459
-0.00586168
-0.00998863
-0.00684814
-0.00792516
-0.00891161
-0.00783459
-0.00998863
-0.00954347
-0.00891161
-0.00976605
-0.00868903
-0.00783459
-0.006537
-0.00586168
-0.00718579
-0.00619934
-0.00684814
-0.00783459
-0.00954347
-0.006537
-0.00868903
-0.00804024
-0.00718579
-0.0115252
-0.00998863
-0.014146
-0.0107569
-0.0120673
-0.0128356
-0.0115252
-0.00954347
-0.00998863
-0.0105344
-0.00976605
-0.0107569
-0.0115252
-0.014146
-0.0121451
-0.0128356
-0.0131456
-0.0118352
-0.0115252
-0.0121451
-0.00954347
-0.0118352
-0.0108443
-0.0105344
-0.0105965
-0.0121451
-0.0112964
-0.0113708
-0.0117207
-0.0109464
-0.0105965
-0.00954347
-0.0121451
-0.01007
-0.0108443
-0.0113708
-0.0105965
-0.0112964
-0.00926188
-0.0109464
-0.0102791
-0.00992917
-0.0105965
-0.00926188
-0.00954347
-0.00992917
-0.00940268
-0.01007
-0.0126588
-0.0112964
-0.0121451
-0.0119776
-0.0117207
-0.012402
-0.0126588
-0.0121451
-0.0138994
-0.012402
-0.0130222
-0.0132791
-0.0126588
-0.0128561
-0.0112964
-0.0127575
-0.0120762
-0.0119776
-0.0126588
-0.0138994
-0.0128561
-0.0132791
-0.0133777
-0.0127575
-0.0142782
-0.0121451
-0.014146
-0.0132116
-0.0131456
-0.0142121
-0.0142782
-0.0138994
-0.0121451
-0.0140888
-0.0130222
-0.0132116
-0.0142782
-0.014146
-0.0159784
-0.0142121
-0.0150622
-0.0151283
-0.0142782
-0.0159784
-0.0138994
-0.0151283
-0.0149389
-0.0140888
-0.00800919
-0.00926188
-0.0069816
-0.00863554
-0.00812174
-0.0074954
-0.00800919
-0.00954347
-0.00926188
-0.00877633
-0.00940268
-0.00863554
-0.00800919
-0.0069816
-0.006537
-0.0074954
-0.0067593
-0.00727309
-0.00800919
-0.006537
-0.00954347
-0.00727309
-0.00804024
-0.00877633
-0.0102144
-0.00926188
-0.0112964
-0.00973816
-0.0102791
-0.0107554
-0.0102144
-0.00925433
-0.00926188
-0.00973439
-0.00925811
-0.00973816
-0.0102144
-0.0112964
-0.0109513
-0.0107554
-0.0111238
-0.0105829
-0.0102144
-0.0109513
-0.00925433
-0.0105829
-0.0101028
-0.00973439
-0.00819432
-0.0069816
-0.00926188
-0.00758796
-0.00812174
-0.0087281
-0.00819432
-0.00926188
-0.00925433
-0.0087281
-0.00925811
-0.00872433
-0.00819432
-0.00738463
-0.0069816
-0.00778947
-0.00718311
-0.00758796
-0.00819432
-0.00925433
-0.00738463
-0.00872433
-0.00831948
-0.00778947
-0.00453351
-0.00586168
-0.006537
-0.0051976
-0.00619934
-0.00553525
-0.00453351
-0.006537
-0.00372272
-0.00553525
-0.00512986
-0.00412812
-0.00541034
-0.006537
-0.0069816
-0.00597367
-0.0067593
-0.00619597
-0.00541034
-0.00372272
-0.006537
-0.00456653
-0.00512986
-0.00597367
-0.00541034
-0.0069816
-0.00469668
-0.00619597
-0.00583914
-0.00505351
-0.00541034
-0.00469668
-0.00372272
-0.00505351
-0.0042097
-0.00456653
-0.0168987
-0.0160046
-0.0159784
-0.0164516
-0.0159915
-0.0164385
-0.0168987
-0.0159784
-0.0209079
-0.0164385
-0.0184432
-0.0189033
-0.0151301
-0.0159784
-0.0160046
-0.0155543
-0.0159915
-0.0155674
-0.0151301
-0.0138994
-0.0159784
-0.0145148
-0.0149389
-0.0155543
-0.0151301
-0.0160046
-0.0146811
-0.0155674
-0.0153429
-0.0149056
-0.0151301
-0.0146811
-0.0138994
-0.0149056
-0.0142902
-0.0145148
-0.0138863
-0.0139205
-0.0128561
-0.0139034
-0.0133883
-0.0133712
-0.0138863
-0.0128561
-0.0138994
-0.0133712
-0.0133777
-0.0138929
-0.0138863
-0.0146811
-0.0139205
-0.0142837
-0.0143008
-0.0139034
-0.0138863
-0.0138994
-0.0146811
-0.0138929
-0.0142902
-0.0142837
-0.011925
-0.0112964
-0.0128561
-0.0116107
-0.0120762
-0.0123905
-0.011925
-0.0128561
-0.0123769
-0.0123905
-0.0126165
-0.0121509
-0.011925
-0.0109513
-0.0112964
-0.0114381
-0.0111238
-0.0116107
-0.011925
-0.0123769
-0.0109513
-0.0121509
-0.0116641
-0.0114381
-0.0132042
-0.0128561
-0.0139205
-0.0130301
-0.0133883
-0.0135623
-0.0132042
-0.0123769
-0.0128561
-0.0127905
-0.0126165
-0.0130301
-0.0132042
-0.0139205
-0.0135079
-0.0135623
-0.0137142
-0.013356
-0.0132042
-0.0135079
-0.0123769
-0.013356
-0.0129424
-0.0127905
-0.0150758
-0.0146811
-0.0160046
-0.0148784
-0.0153429
-0.0155402
-0.0150758
-0.0149964
-0.0146811
-0.0150361
-0.0148388
-0.0148784
-0.0145285
-0.0139205
-0.0146811
-0.0142245
-0.0143008
-0.0146048
-0.0145285
-0.0146811
-0.0149964
-0.0146048
-0.0148388
-0.0147625
-0.0145285
-0.0146343
-0.0139205
-0.0145814
-0.0142774
-0.0142245
-0.0145285
-0.0149964
-0.0146343
-0.0147625
-0.0148153
-0.0145814
-0.00303988
-0.00469668
-0.00255655
-0.00386828
-0.00362661
-0.00279822
-0.00303988
-0.00372272
-0.00469668
-0.0033813
-0.0042097
-0.00386828
-0.0040447
-0.00255655
-0.00469668
-0.00330063
-0.00362661
-0.00437069
-0.0040447
-0.00469668
-0.00547144
-0.00437069
-0.00508406
-0.00475807
-0.0040447
-0.00361817
-0.00255655
-0.00383144
-0.00308736
-0.00330063
-0.0040447
-0.00547144
-0.00361817
-0.00475807
-0.00454481
-0.00383144
-0.00608261
-0.00469668
-0.0069816
-0.00538964
-0.00583914
-0.00653211
-0.00608261
-0.00547144
-0.00469668
-0.00577703
-0.00508406
-0.00538964
-0.00608261
-0.0069816
-0.00738463
-0.00653211
-0.00718311
-0.00673362
-0.00608261
-0.00738463
-0.00547144
-0.00673362
-0.00642803
-0.00577703
-0.00668546
-0.00738463
-0.00782371
-0.00703504
-0.00760417
-0.00725459
-0.00668546
-0.00547144
-0.00738463
-0.00607845
-0.00642803
-0.00703504
-0.00668546
-0.00782371
-0.00617719
-0.00725459
-0.00700045
-0.00643132
-0.00668546
-0.00617719
-0.00547144
-0.00643132
-0.00582431
-0.00607845
-0.00846027
-0.00782371
-0.00738463
-0.00814199
-0.00760417
-0.00792245
-0.00846027
-0.00738463
-0.00925433
-0.00792245
-0.00831948
-0.0088573
-0.00846027
-0.009422
-0.00782371
-0.00894113
-0.00862286
-0.00814199
-0.00846027
-0.00925433
-0.009422
-0.0088573
-0.00933817
-0.00894113
-0.0049199
-0.00454505
-0.00361817
-0.00473247
-0.00408161
-0.00426904
-0.0049199
-0.00361817
-0.00547144
-0.00426904
-0.00454481
-0.00519567
-0.0049199
-0.00617719
-0.00454505
-0.00554854
-0.00536112
-0.00473247
-0.0049199
-0.00547144
-0.00617719
-0.00519567
-0.00582431
-0.00554854
-0.00215748
-0.00255655
-0.00361817
-0.00235702
-0.00308736
-0.00288783
-0.00215748
-0.00361817
-0.00186869
-0.00288783
-0.00274343
-0.00201309
-0.00322553
-0.00361817
-0.00454505
-0.00342185
-0.00408161
-0.00388529
-0.00322553
-0.00186869
-0.00361817
-0.00254711
-0.00274343
-0.00342185
-0.00322553
-0.00454505
-0.00297115
-0.00388529
-0.0037581
-0.00309834
-0.00322553
-0.00297115
-0.00186869
-0.00309834
-0.00241992
-0.00254711
-0.00727546
-0.00617719
-0.00782371
-0.00672632
-0.00700045
-0.00754959
-0.00727546
-0.00686196
-0.00617719
-0.00706871
-0.00651957
-0.00672632
-0.00727546
-0.00782371
-0.00830866
-0.00754959
-0.00806619
-0.00779206
-0.00727546
-0.00830866
-0.00686196
-0.00779206
-0.00758531
-0.00706871
-0.0057258
-0.00454505
-0.00617719
-0.00513542
-0.00536112
-0.0059515
-0.0057258
-0.00617719
-0.00686196
-0.0059515
-0.00651957
-0.00629388
-0.0057258
-0.00541142
-0.00454505
-0.00556861
-0.00497823
-0.00513542
-0.0057258
-0.00686196
-0.00541142
-0.00629388
-0.00613669
-0.00556861
-0.0101478
-0.0109513
-0.0109021
-0.0105496
-0.0109267
-0.010525
-0.0101478
-0.00925433
-0.0109513
-0.00970108
-0.0101028
-0.0105496
-0.0101478
-0.0109021
-0.009422
-0.010525
-0.010162
-0.00978492
-0.0101478
-0.009422
-0.00925433
-0.00978492
-0.00933817
-0.00970108
-0.0116422
-0.0109021
-0.0109513
-0.0112721
-0.0109267
-0.0112967
-0.0116422
-0.0109513
-0.0123769
-0.0112967
-0.0116641
-0.0120096
-0.0116422
-0.0122115
-0.0109021
-0.0119269
-0.0115568
-0.0112721
-0.0116422
-0.0123769
-0.0122115
-0.0120096
-0.0122942
-0.0119269
-0.00881196
-0.00782371
-0.009422
-0.00831784
-0.00862286
-0.00911698
-0.00881196
-0.009422
-0.00971232
-0.00911698
-0.00956716
-0.00926214
-0.00881196
-0.00830866
-0.00782371
-0.00856031
-0.00806619
-0.00831784
-0.00881196
-0.00971232
-0.00830866
-0.00926214
-0.00901049
-0.00856031
-0.0102776
-0.009422
-0.0109021
-0.00984982
-0.010162
-0.0105899
-0.0102776
-0.00971232
-0.009422
-0.00999497
-0.00956716
-0.00984982
-0.0102776
-0.0109021
-0.0110328
-0.0105899
-0.0109675
-0.0106552
-0.0102776
-0.0110328
-0.00971232
-0.0106552
-0.0103726
-0.00999497
-0.0105357
-0.0110328
-0.011281
-0.0107843
-0.0111569
-0.0109084
-0.0105357
-0.00971232
-0.0110328
-0.010124
-0.0103726
-0.0107843
-0.0105357
-0.011281
-0.0100883
-0.0109084
-0.0106846
-0.010312
-0.0105357
-0.0100883
-0.00971232
-0.010312
-0.00990029
-0.010124
-0.0117512
-0.011281
-0.0110328
-0.0115161
-0.0111569
-0.011392
-0.0117512
-0.0110328
-0.0122411
-0.011392
-0.0116369
-0.0119961
-0.0117512
-0.0123971
-0.011281
-0.0120741
-0.0118391
-0.0115161
-0.0117512
-0.0122411
-0.0123971
-0.0119961
-0.0123191
-0.0120741
-0.0116167
-0.0110328
-0.0109021
-0.0113248
-0.0109675
-0.0112594
-0.0116167
-0.0122411
-0.0110328
-0.0119289
-0.0116369
-0.0113248
-0.0116167
-0.0109021
-0.0122115
-0.0112594
-0.0115568
-0.0119141
-0.0116167
-0.0122115
-0.0122411
-0.0119141
-0.0122263
-0.0119289
-0.00923407
-0.0100883
-0.00883608
-0.00966117
-0.00946217
-0.00903507
-0.00923407
-0.00971232
-0.0100883
-0.00947319
-0.00990029
-0.00966117
-0.00923407
-0.00883608
-0.00830866
-0.00903507
-0.00857237
-0.00877136
-0.00923407
-0.00830866
-0.00971232
-0.00877136
-0.00901049
-0.00947319
-0.0108809
-0.0100883
-0.011281
-0.0104846
-0.0106846
-0.0110809
-0.0108809
-0.0105252
-0.0100883
-0.0107031
-0.0103068
-0.0104846
-0.0108809
-0.011281
-0.0116085
-0.0110809
-0.0114448
-0.0112447
-0.0108809
-0.0116085
-0.0105252
-0.0112447
-0.0110669
-0.0107031
-0.00971103
-0.00883608
-0.0100883
-0.00927355
-0.00946217
-0.00989965
-0.00971103
-0.0100883
-0.0105252
-0.00989965
-0.0103068
-0.0101181
-0.00971103
-0.00939912
-0.00883608
-0.00955508
-0.0091176
-0.00927355
-0.00971103
-0.0105252
-0.00939912
-0.0101181
-0.00996218
-0.00955508
-0.00787765
-0.00830866
-0.00883608
-0.00809315
-0.00857237
-0.00835686
-0.00787765
-0.00686196
-0.00830866
-0.00736981
-0.00758531
-0.00809315
-0.00787765
-0.00883608
-0.00754827
-0.00835686
-0.00819218
-0.00771296
-0.00787765
-0.00754827
-0.00686196
-0.00771296
-0.00720512
-0.00736981
-0.0127986
-0.0122115
-0.013337
-0.0125051
-0.0127743
-0.0130678
-0.0127986
-0.0122411
-0.0122115
-0.0125198
-0.0122263
-0.0125051
-0.0127986
-0.013337
-0.0133281
-0.0130678
-0.0133325
-0.0130633
-0.0127986
-0.0133281
-0.0122411
-0.0130633
-0.0127846
-0.0125198
-0.0128856
-0.013337
-0.0122115
-0.0131113
-0.0127743
-0.0125486
-0.0128856
-0.0122115
-0.0123769
-0.0125486
-0.0122942
-0.0126313
-0.0128856
-0.0135079
-0.013337
-0.0131968
-0.0134225
-0.0131113
-0.0128856
-0.0123769
-0.0135079
-0.0126313
-0.0129424
-0.0131968
-0.0128631
-0.0134309
-0.0123971
-0.013147
-0.012914
-0.0126301
-0.0128631
-0.0123971
-0.0122411
-0.0126301
-0.0123191
-0.0125521
-0.0128631
-0.0133281
-0.0134309
-0.0130956
-0.0133795
-0.013147
-0.0128631
-0.0122411
-0.0133281
-0.0125521
-0.0127846
-0.0130956
-0.0119906
-0.011281
-0.0123971
-0.0116358
-0.0118391
-0.0121938
-0.0119906
-0.0123971
-0.0126386
-0.0121938
-0.0125179
-0.0123146
-0.0119906
-0.0116085
-0.011281
-0.0117996
-0.0114448
-0.0116358
-0.0119906
-0.0126386
-0.0116085
-0.0123146
-0.0121236
-0.0117996
-0.0130298
-0.0123971
-0.0134309
-0.0127135
-0.012914
-0.0132303
-0.0130298
-0.0126386
-0.0123971
-0.0128342
-0.0125179
-0.0127135
-0.0130298
-0.0134309
-0.0136117
-0.0132303
-0.0135213
-0.0133207
-0.0130298
-0.0136117
-0.0126386
-0.0133207
-0.0131251
-0.0128342
-0.0138309
-0.0133281
-0.013337
-0.0135795
-0.0133325
-0.0135839
-0.0138309
-0.0143071
-0.0133281
-0.014069
-0.0138176
-0.0135795
-0.0138309
-0.013337
-0.0143058
-0.0135839
-0.0138214
-0.0140683
-0.0138309
-0.0143058
-0.0143071
-0.0140683
-0.0143064
-0.014069
-0.0138737
-0.0134309
-0.0133281
-0.0136523
-0.0133795
-0.0136009
-0.0138737
-0.0133281
-0.0143071
-0.0136009
-0.0138176
-0.0140904
-0.0138737
-0.0143888
-0.0134309
-0.0141313
-0.0139098
-0.0136523
-0.0138737
-0.0143071
-0.0143888
-0.0140904
-0.0143479
-0.0141313
-0.0139008
-0.013337
-0.0135079
-0.0136189
-0.0134225
-0.0137043
-0.0139008
-0.0135079
-0.0144086
-0.0137043
-0.0139583
-0.0141547
-0.0139008
-0.0143058
-0.013337
-0.0141033
-0.0138214
-0.0136189
-0.0139008
-0.0144086
-0.0143058
-0.0141547
-0.0143572
-0.0141033
-0.0141215
-0.0135079
-0.0139205
-0.0138147
-0.0137142
-0.014021
-0.0141215
-0.0144086
-0.0135079
-0.014265
-0.0139583
-0.0138147
-0.0141215
-0.0139205
-0.0146343
-0.014021
-0.0142774
-0.0143779
-0.0141215
-0.0146343
-0.0144086
-0.0143779
-0.0145214
-0.014265
-0.00650097
-0.00754827
-0.00624901
-0.00702462
-0.00689864
-0.00637499
-0.00650097
-0.00686196
-0.00754827
-0.00668147
-0.00720512
-0.00702462
-0.00650097
-0.00624901
-0.00541142
-0.00637499
-0.00583021
-0.00595619
-0.00650097
-0.00541142
-0.00686196
-0.00595619
-0.00613669
-0.00668147
-0.00726742
-0.00624901
-0.00754827
-0.00675821
-0.00689864
-0.00740785
-0.00726742
-0.00754827
-0.00824469
-0.00740785
-0.00789648
-0.00775605
-0.00726742
-0.00707706
-0.00624901
-0.00717224
-0.00666304
-0.00675821
-0.00726742
-0.00824469
-0.00707706
-0.00775605
-0.00766088
-0.00717224
-0.00849953
-0.00754827
-0.00883608
-0.0080239
-0.00819218
-0.0086678
-0.00849953
-0.00824469
-0.00754827
-0.00837211
-0.00789648
-0.0080239
-0.00849953
-0.00883608
-0.00939912
-0.0086678
-0.0091176
-0.00894932
-0.00849953
-0.00939912
-0.00824469
-0.00894932
-0.0088219
-0.00837211
-0.00513251
-0.00541142
-0.00624901
-0.00527196
-0.00583021
-0.00569076
-0.00513251
-0.00398554
-0.00541142
-0.00455902
-0.00469848
-0.00527196
-0.00513251
-0.00624901
-0.00495756
-0.00569076
-0.00560329
-0.00504503
-0.00513251
-0.00495756
-0.00398554
-0.00504503
-0.00447155
-0.00455902
-0.00420539
-0.00454505
-0.00541142
-0.00437522
-0.00497823
-0.0048084
-0.00420539
-0.00541142
-0.00398554
-0.0048084
-0.00469848
-0.00409547
-0.00420539
-0.00297115
-0.00454505
-0.00358827
-0.0037581
-0.00437522
-0.00420539
-0.00398554
-0.00297115
-0.00409547
-0.00347834
-0.00358827
-0.0102298
-0.00999056
-0.00939912
-0.0101102
-0.00969484
-0.00981445
-0.0102298
-0.00939912
-0.0105252
-0.00981445
-0.00996218
-0.0103775
-0.0102298
-0.011006
-0.00999056
-0.0106179
-0.0104983
-0.0101102
-0.0102298
-0.0105252
-0.011006
-0.0103775
-0.0107656
-0.0106179
-0.00914178
-0.00939912
-0.00999056
-0.00927045
-0.00969484
-0.00956617
-0.00914178
-0.00824469
-0.00939912
-0.00869324
-0.0088219
-0.00927045
-0.00914178
-0.00999056
-0.00895362
-0.00956617
-0.00947209
-0.0090477
-0.00914178
-0.00895362
-0.00824469
-0.0090477
-0.00859915
-0.00869324
-0.0112866
-0.0116085
-0.0119909
-0.0114476
-0.0117997
-0.0116388
-0.0112866
-0.0105252
-0.0116085
-0.0109059
-0.0110669
-0.0114476
-0.0112866
-0.0119909
-0.011006
-0.0116388
-0.0114985
-0.0111463
-0.0112866
-0.011006
-0.0105252
-0.0111463
-0.0107656
-0.0109059
-0.0123012
-0.0119909
-0.0116085
-0.012146
-0.0117997
-0.0119549
-0.0123012
-0.0116085
-0.0126386
-0.0119549
-0.0121236
-0.0124699
-0.0123012
-0.0129388
-0.0119909
-0.01262
-0.0124648
-0.012146
-0.0123012
-0.0126386
-0.0129388
-0.0124699
-0.0127887
-0.01262
-0.0107797
-0.00999056
-0.011006
-0.0103852
-0.0104983
-0.0108929
-0.0107797
-0.011006
-0.011518
-0.0108929
-0.011262
-0.0111489
-0.0107797
-0.0106036
-0.00999056
-0.0106917
-0.0102971
-0.0103852
-0.0107797
-0.011518
-0.0106036
-0.0111489
-0.0110608
-0.0106917
-0.011735
-0.011006
-0.0119909
-0.0113705
-0.0114985
-0.011863
-0.011735
-0.011518
-0.011006
-0.0116265
-0.011262
-0.0113705
-0.011735
-0.0119909
-0.0124113
-0.011863
-0.0122011
-0.0120732
-0.011735
-0.0124113
-0.011518
-0.0120732
-0.0119647
-0.0116265
-0.00803572
-0.00790478
-0.00707706
-0.00797025
-0.00749092
-0.00755639
-0.00803572
-0.00707706
-0.00824469
-0.00755639
-0.00766088
-0.00814021
-0.00803572
-0.00895362
-0.00790478
-0.00849467
-0.0084292
-0.00797025
-0.00803572
-0.00824469
-0.00895362
-0.00814021
-0.00859915
-0.00849467
-0.00603301
-0.00624901
-0.00707706
-0.00614101
-0.00666304
-0.00655504
-0.00603301
-0.00707706
-0.00590846
-0.00655504
-0.00649276
-0.00597074
-0.00603301
-0.00495756
-0.00624901
-0.00549529
-0.00560329
-0.00614101
-0.00603301
-0.00590846
-0.00495756
-0.00597074
-0.00543301
-0.00549529
-0.00692332
-0.00707706
-0.00790478
-0.00700019
-0.00749092
-0.00741405
-0.00692332
-0.00590846
-0.00707706
-0.00641589
-0.00649276
-0.00700019
-0.00692332
-0.00790478
-0.00685193
-0.00741405
-0.00737836
-0.00688763
-0.00692332
-0.00685193
-0.00590846
-0.00688763
-0.0063802
-0.00641589
-0.009802
-0.00895362
-0.00999056
-0.00937781
-0.00947209
-0.00989628
-0.009802
-0.00967402
-0.00895362
-0.00973801
-0.00931382
-0.00937781
-0.009802
-0.00999056
-0.0106036
-0.00989628
-0.0102971
-0.0102028
-0.009802
-0.0106036
-0.00967402
-0.0102028
-0.0101388
-0.00973801
-0.00881013
-0.00790478
-0.00895362
-0.00835746
-0.0084292
-0.00888187
-0.00881013
-0.00895362
-0.00967402
-0.00888187
-0.00931382
-0.00924207
-0.00881013
-0.0087357
-0.00790478
-0.00877291
-0.00832024
-0.00835746
-0.00881013
-0.00967402
-0.0087357
-0.00924207
-0.00920486
-0.00877291
-0.00163272
-0.00297115
-0.00146672
-0.00230193
-0.00221893
-0.00154972
-0.00163272
-0.00186869
-0.00297115
-0.0017507
-0.00241992
-0.00230193
-0.00273891
-0.00146672
-0.00297115
-0.00210281
-0.00221893
-0.00285503
-0.00273891
-0.00297115
-0.00398554
-0.00285503
-0.00347834
-0.00336222
-0.00273891
-0.00260144
-0.00146672
-0.00267017
-0.00203408
-0.00210281
-0.00273891
-0.00398554
-0.00260144
-0.00336222
-0.00329349
-0.00267017
-0.0037898
-0.00495756
-0.00368445
-0.00437368
-0.00432101
-0.00373713
-0.0037898
-0.00398554
-0.00495756
-0.00388767
-0.00447155
-0.00437368
-0.0037898
-0.00368445
-0.00260144
-0.00373713
-0.00314295
-0.00319562
-0.0037898
-0.00260144
-0.00398554
-0.00319562
-0.00329349
-0.00388767
-0.00480848
-0.00368445
-0.00495756
-0.00424647
-0.00432101
-0.00488302
-0.00480848
-0.00495756
-0.00590846
-0.00488302
-0.00543301
-0.00535847
-0.00480848
-0.00474594
-0.00368445
-0.00477721
-0.0042152
-0.00424647
-0.00480848
-0.00590846
-0.00474594
-0.00535847
-0.0053272
-0.00477721
-0.00133673
-0.00146672
-0.00260144
-0.00140173
-0.00203408
-0.00196908
-0.00133673
-0.00260144
-0.00125605
-0.00196908
-0.00192874
-0.00129639
-0.00248021
-0.00260144
-0.00368445
-0.00254082
-0.00314295
-0.00308233
-0.00248021
-0.00125605
-0.00260144
-0.00186813
-0.00192874
-0.00254082
-0.00248021
-0.00368445
-0.00243278
-0.00308233
-0.00305862
-0.0024565
-0.00248021
-0.00243278
-0.00125605
-0.0024565
-0.00184442
-0.00186813
-0.0149611
-0.0152207
-0.0146343
-0.0150909
-0.0149275
-0.0147977
-0.0149611
-0.0146343
-0.0149964
-0.0147977
-0.0148153
-0.0149788
-0.0148448
-0.0146343
-0.0152207
-0.0147395
-0.0149275
-0.0150328
-0.0148448
-0.0144086
-0.0146343
-0.0146267
-0.0145214
-0.0147395
-0.0148448
-0.0152207
-0.0151801
-0.0150328
-0.0152004
-0.0150124
-0.0148448
-0.0151801
-0.0144086
-0.0150124
-0.0147943
-0.0146267
-0.014764
-0.0151801
-0.0151712
-0.0149721
-0.0151756
-0.0149676
-0.014764
-0.0144086
-0.0151801
-0.0145863
-0.0147943
-0.0149721
-0.014764
-0.0151712
-0.0143058
-0.0149676
-0.0147385
-0.0145349
-0.014764
-0.0143058
-0.0144086
-0.0145349
-0.0143572
-0.0145863
-0.0155128
-0.0151801
-0.0152207
-0.0153464
-0.0152004
-0.0153668
-0.0155128
-0.0159203
-0.0151801
-0.0157166
-0.0155502
-0.0153464
-0.0155575
-0.0151712
-0.0151801
-0.0153644
-0.0151756
-0.0153688
-0.0155575
-0.0151801
-0.0159203
-0.0153688
-0.0155502
-0.0157389
-0.0155575
-0.0159885
-0.0151712
-0.015773
-0.0155799
-0.0153644
-0.0155575
-0.0159203
-0.0159885
-0.0157389
-0.0159544
-0.015773
-0.0147505
-0.0143058
-0.0151712
-0.0145282
-0.0147385
-0.0149609
-0.0147505
-0.0143071
-0.0143058
-0.0145288
-0.0143064
-0.0145282
-0.0147505
-0.0151712
-0.0152063
-0.0149609
-0.0151888
-0.0149784
-0.0147505
-0.0152063
-0.0143071
-0.0149784
-0.0147567
-0.0145288
-0.0148022
-0.0152869
-0.0143888
-0.0150445
-0.0148378
-0.0145955
-0.0148022
-0.0143888
-0.0143071
-0.0145955
-0.0143479
-0.0145546
-0.0148022
-0.0152063
-0.0152869
-0.0150042
-0.0152466
-0.0150445
-0.0148022
-0.0143071
-0.0152063
-0.0145546
-0.0147567
-0.0150042
-0.0149088
-0.0143888
-0.0152869
-0.0146488
-0.0148378
-0.0150979
-0.0149088
-0.0145313
-0.0143888
-0.0147201
-0.0144601
-0.0146488
-0.0149088
-0.0152869
-0.0154069
-0.0150979
-0.0153469
-0.0151579
-0.0149088
-0.0154069
-0.0145313
-0.0151579
-0.0149691
-0.0147201
-0.0139991
-0.0134309
-0.0143888
-0.013715
-0.0139098
-0.014194
-0.0139991
-0.0143888
-0.0145313
-0.014194
-0.0144601
-0.0142652
-0.0139991
-0.0136117
-0.0134309
-0.0138054
-0.0135213
-0.013715
-0.0139991
-0.0145313
-0.0136117
-0.0142652
-0.0140715
-0.0138054
-0.0156754
-0.0152869
-0.0152063
-0.0154811
-0.0152466
-0.0154408
-0.0156754
-0.0152063
-0.0160592
-0.0154408
-0.0156328
-0.0158673
-0.0156754
-0.016145
-0.0152869
-0.0159102
-0.0157159
-0.0154811
-0.0156754
-0.0160592
-0.016145
-0.0158673
-0.0161021
-0.0159102
-0.0156045
-0.0152063
-0.0151712
-0.0154054
-0.0151888
-0.0153879
-0.0156045
-0.0160592
-0.0152063
-0.0158318
-0.0156328
-0.0154054
-0.0156045
-0.0151712
-0.0159885
-0.0153879
-0.0155799
-0.0157965
-0.0156045
-0.0159885
-0.0160592
-0.0157965
-0.0160239
-0.0158318
-0.0132671
-0.0136117
-0.0138472
-0.0134394
-0.0137294
-0.0135572
-0.0132671
-0.0126386
-0.0136117
-0.0129528
-0.0131251
-0.0134394
-0.0132671
-0.0138472
-0.0129388
-0.0135572
-0.013393
-0.0131029
-0.0132671
-0.0129388
-0.0126386
-0.0131029
-0.0127887
-0.0129528
-0.0141844
-0.0138472
-0.0136117
-0.0140158
-0.0137294
-0.013898
-0.0141844
-0.0136117
-0.0145313
-0.013898
-0.0140715
-0.0143578
-0.0141844
-0.0147185
-0.0138472
-0.0144515
-0.0142829
-0.0140158
-0.0141844
-0.0145313
-0.0147185
-0.0143578
-0.0146249
-0.0144515
-0.0135533
-0.0129388
-0.0138472
-0.013246
-0.013393
-0.0137003
-0.0135533
-0.0132794
-0.0129388
-0.0134163
-0.0131091
-0.013246
-0.0135533
-0.0138472
-0.0141209
-0.0137003
-0.0139841
-0.0138371
-0.0135533
-0.0141209
-0.0132794
-0.0138371
-0.0137001
-0.0134163
-0.0126608
-0.0119909
-0.0129388
-0.0123259
-0.0124648
-0.0127998
-0.0126608
-0.0129388
-0.0132794
-0.0127998
-0.0131091
-0.0129701
-0.0126608
-0.0124113
-0.0119909
-0.0125361
-0.0122011
-0.0123259
-0.0126608
-0.0132794
-0.0124113
-0.0129701
-0.0128454
-0.0125361
-0.0150592
-0.0154069
-0.0155586
-0.015233
-0.0154828
-0.0153089
-0.0150592
-0.0145313
-0.0154069
-0.0147952
-0.0149691
-0.015233
-0.0150592
-0.0155586
-0.0147185
-0.0153089
-0.0151386
-0.0148888
-0.0150592
-0.0147185
-0.0145313
-0.0148888
-0.0146249
-0.0147952
-0.0157749
-0.0154069
-0.0152869
-0.0155909
-0.0153469
-0.0155309
-0.0157749
-0.0162509
-0.0154069
-0.0160129
-0.0158289
-0.0155909
-0.0157749
-0.0152869
-0.016145
-0.0155309
-0.0157159
-0.0159599
-0.0157749
-0.016145
-0.0162509
-0.0159599
-0.0161979
-0.0160129
-0.0159012
-0.0155586
-0.0154069
-0.0157299
-0.0154828
-0.0156541
-0.0159012
-0.0154069
-0.0162509
-0.0156541
-0.0158289
-0.016076
-0.0159012
-0.0163755
-0.0155586
-0.0161384
-0.0159671
-0.0157299
-0.0159012
-0.0162509
-0.0163755
-0.016076
-0.0163132
-0.0161384
-0.0144124
-0.0138472
-0.0147185
-0.0141298
-0.0142829
-0.0145655
-0.0144124
-0.0147185
-0.0149375
-0.0145655
-0.014828
-0.0146749
-0.0144124
-0.0141209
-0.0138472
-0.0142667
-0.0139841
-0.0141298
-0.0144124
-0.0149375
-0.0141209
-0.0146749
-0.0145292
-0.0142667
-0.0152422
-0.0147185
-0.0155586
-0.0149804
-0.0151386
-0.0154004
-0.0152422
-0.0149375
-0.0147185
-0.0150898
-0.014828
-0.0149804
-0.0152422
-0.0155586
-0.0157334
-0.0154004
-0.015646
-0.0154878
-0.0152422
-0.0157334
-0.0149375
-0.0154878
-0.0153354
-0.0150898
-0.0163416
-0.0168027
-0.0159885
-0.0165721
-0.0163956
-0.0161651
-0.0163416
-0.0159885
-0.0159203
-0.0161651
-0.0159544
-0.0161309
-0.0164334
-0.0159885
-0.0168027
-0.016211
-0.0163956
-0.0166181
-0.0164334
-0.0160592
-0.0159885
-0.0162463
-0.0160239
-0.016211
-0.0164334
-0.0168027
-0.0168943
-0.0166181
-0.0168485
-0.0166639
-0.0164334
-0.0168943
-0.0160592
-0.0166639
-0.0164767
-0.0162463
-0.0165195
-0.016982
-0.016145
-0.0167507
-0.0165635
-0.0163322
-0.0165195
-0.016145
-0.0160592
-0.0163322
-0.0161021
-0.0162893
-0.0165195
-0.0168943
-0.016982
-0.0167069
-0.0169381
-0.0167507
-0.0165195
-0.0160592
-0.0168943
-0.0162893
-0.0164767
-0.0167069
-0.016614
-0.016145
-0.016982
-0.0163795
-0.0165635
-0.016798
-0.016614
-0.0162509
-0.016145
-0.0164324
-0.0161979
-0.0163795
-0.016614
-0.016982
-0.0170753
-0.016798
-0.0170286
-0.0168446
-0.016614
-0.0170753
-0.0162509
-0.0168446
-0.0166631
-0.0164324
-0.0172656
-0.0168943
-0.0168027
-0.0170799
-0.0168485
-0.0170341
-0.0172656
-0.0177319
-0.0168943
-0.0174988
-0.0173131
-0.0170799
-0.0173547
-0.016982
-0.0168943
-0.0171683
-0.0169381
-0.0171245
-0.0173547
-0.0168943
-0.0177319
-0.0171245
-0.0173131
-0.0175433
-0.0173547
-0.0178116
-0.016982
-0.0175831
-0.0173968
-0.0171683
-0.0173547
-0.0177319
-0.0178116
-0.0175433
-0.0177717
-0.0175831
-0.00120313
-0.00243278
-0.0011905
-0.00181796
-0.00181164
-0.00119681
-0.00120313
-0.00125605
-0.00243278
-0.00122959
-0.00184442
-0.00181796
-0.00239903
-0.0011905
-0.00243278
-0.00179476
-0.00181164
-0.00241591
-0.00239903
-0.00243278
-0.00358935
-0.00241591
-0.00301107
-0.00299419
-0.00239903
-0.00243278
-0.0011905
-0.00241591
-0.00181164
-0.00179476
-0.00239903
-0.00358935
-0.00243278
-0.00299419
-0.00301107
-0.00241591
-0.00359808
-0.00243278
-0.00368445
-0.00301543
-0.00305862
-0.00364127
-0.00359808
-0.00358935
-0.00243278
-0.00359372
-0.00301107
-0.00301543
-0.00359808
-0.00368445
-0.00474594
-0.00364127
-0.0042152
-0.00417201
-0.00359808
-0.00474594
-0.00358935
-0.00417201
-0.00416765
-0.00359372
-0.00470538
-0.00474594
-0.00579924
-0.00472566
-0.00527259
-0.00525231
-0.00470538
-0.00358935
-0.00474594
-0.00414737
-0.00416765
-0.00472566
-0.00470538
-0.00579924
-0.00474594
-0.00525231
-0.00527259
-0.00472566
-0.00470538
-0.00474594
-0.00358935
-0.00472566
-0.00416765
-0.00414737
-0.0058124
-0.00579924
-0.00474594
-0.00580582
-0.00527259
-0.00527917
-0.0058124
-0.00474594
-0.00590846
-0.00527917
-0.0053272
-0.00586043
-0.0058124
-0.00685193
-0.00579924
-0.00633217
-0.00632559
-0.00580582
-0.0058124
-0.00590846
-0.00685193
-0.00586043
-0.0063802
-0.00633217
-0.00359808
-0.00368445
-0.00243278
-0.00364127
-0.00305862
-0.00301543
-0.00359808
-0.00243278
-0.00358935
-0.00301543
-0.00301107
-0.00359372
-0.00359808
-0.00474594
-0.00368445
-0.00417201
-0.0042152
-0.00364127
-0.00359808
-0.00358935
-0.00474594
-0.00359372
-0.00416765
-0.00417201
-0.00120313
-0.0011905
-0.00243278
-0.00119681
-0.00181164
-0.00181796
-0.00120313
-0.00243278
-0.00125605
-0.00181796
-0.00184442
-0.00122959
-0.00248021
-0.00243278
-0.00368445
-0.0024565
-0.00305862
-0.00308233
-0.00248021
-0.00125605
-0.00243278
-0.00186813
-0.00184442
-0.0024565
-0.00248021
-0.00368445
-0.00260144
-0.00308233
-0.00314295
-0.00254082
-0.00248021
-0.00260144
-0.00125605
-0.00254082
-0.00192874
-0.00186813
-0.0058124
-0.00474594
-0.00579924
-0.00527917
-0.00527259
-0.00580582
-0.0058124
-0.00590846
-0.00474594
-0.00586043
-0.0053272
-0.00527917
-0.0058124
-0.00579924
-0.00685193
-0.00580582
-0.00632559
-0.00633217
-0.0058124
-0.00685193
-0.00590846
-0.00633217
-0.0063802
-0.00586043
-0.00480848
-0.00368445
-0.00474594
-0.00424647
-0.0042152
-0.00477721
-0.00480848
-0.00474594
-0.00590846
-0.00477721
-0.0053272
-0.00535847
-0.00480848
-0.00495756
-0.00368445
-0.00488302
-0.00432101
-0.00424647
-0.00480848
-0.00590846
-0.00495756
-0.00535847
-0.00543301
-0.00488302
-0.00681218
-0.00579924
-0.00685193
-0.00630571
-0.00632559
-0.00683206
-0.00681218
-0.00685193
-0.00779402
-0.00683206
-0.00732298
-0.0073031
-0.00681218
-0.00685193
-0.00579924
-0.00683206
-0.00632559
-0.00630571
-0.00681218
-0.00779402
-0.00685193
-0.0073031
-0.00732298
-0.00683206
-0.00781181
-0.00685193
-0.00790478
-0.00733187
-0.00737836
-0.00785829
-0.00781181
-0.00779402
-0.00685193
-0.00780291
-0.00732298
-0.00733187
-0.00781181
-0.00790478
-0.0087357
-0.00785829
-0.00832024
-0.00827375
-0.00781181
-0.0087357
-0.00779402
-0.00827375
-0.00826486
-0.00780291
-0.00870136
-0.0087357
-0.0095694
-0.00871853
-0.00915255
-0.00913538
-0.00870136
-0.00779402
-0.0087357
-0.00824769
-0.00826486
-0.00871853
-0.00870136
-0.0095694
-0.0087357
-0.00913538
-0.00915255
-0.00871853
-0.00870136
-0.0087357
-0.00779402
-0.00871853
-0.00826486
-0.00824769
-0.00959082
-0.0095694
-0.0087357
-0.00958011
-0.00915255
-0.00916326
-0.00959082
-0.0087357
-0.00967402
-0.00916326
-0.00920486
-0.00963242
-0.00959082
-0.0104029
-0.0095694
-0.00999688
-0.00998616
-0.00958011
-0.00959082
-0.00967402
-0.0104029
-0.00963242
-0.0100385
-0.00999688
-0.00781181
-0.0087357
-0.00790478
-0.00827375
-0.00832024
-0.00785829
-0.00781181
-0.00779402
-0.0087357
-0.00780291
-0.00826486
-0.00827375
-0.00781181
-0.00790478
-0.00685193
-0.00785829
-0.00737836
-0.00733187
-0.00781181
-0.00685193
-0.00779402
-0.00733187
-0.00732298
-0.00780291
-0.00959082
-0.0087357
-0.0095694
-0.00916326
-0.00915255
-0.00958011
-0.00959082
-0.00967402
-0.0087357
-0.00963242
-0.00920486
-0.00916326
-0.00959082
-0.0095694
-0.0104029
-0.00958011
-0.00998616
-0.00999688
-0.00959082
-0.0104029
-0.00967402
-0.00999688
-0.0100385
-0.00963242
-0.00881013
-0.00790478
-0.0087357
-0.00835746
-0.00832024
-0.00877291
-0.00881013
-0.0087357
-0.00967402
-0.00877291
-0.00920486
-0.00924207
-0.00881013
-0.00895362
-0.00790478
-0.00888187
-0.0084292
-0.00835746
-0.00881013
-0.00967402
-0.00895362
-0.00924207
-0.00931382
-0.00888187
-0.00692332
-0.00685193
-0.00790478
-0.00688763
-0.00737836
-0.00741405
-0.00692332
-0.00590846
-0.00685193
-0.00641589
-0.0063802
-0.00688763
-0.00692332
-0.00790478
-0.00707706
-0.00741405
-0.00749092
-0.00700019
-0.00692332
-0.00707706
-0.00590846
-0.00700019
-0.00649276
-0.00641589
-0.0104763
-0.0112319
-0.0104029
-0.0108541
-0.0108174
-0.0104396
-0.0104763
-0.0104029
-0.00967402
-0.0104396
-0.0100385
-0.0100751
-0.0104763
-0.0106036
-0.0112319
-0.0105399
-0.0109178
-0.0108541
-0.0104763
-0.00967402
-0.0106036
-0.0100751
-0.0101388
-0.0105399
-0.0103754
-0.0095694
-0.0104029
-0.00997241
-0.00998616
-0.0103892
-0.0103754
-0.0104029
-0.0111363
-0.0103892
-0.0107696
-0.0107559
-0.0103754
-0.0104029
-0.0095694
-0.0103892
-0.00998616
-0.00997241
-0.0103754
-0.0111363
-0.0104029
-0.0107559
-0.0107696
-0.0103892
-0.01116
-0.0104029
-0.0112319
-0.0107815
-0.0108174
-0.011196
-0.01116
-0.0111363
-0.0104029
-0.0111482
-0.0107696
-0.0107815
-0.01116
-0.0112319
-0.0118697
-0.011196
-0.0115508
-0.0115149
-0.01116
-0.0118697
-0.0111363
-0.0115149
-0.011503
-0.0111482
-0.0113522
-0.0112319
-0.0106036
-0.0112921
-0.0109178
-0.0109779
-0.0113522
-0.0106036
-0.011518
-0.0109779
-0.0110608
-0.0114351
-0.0113522
-0.0120515
-0.0112319
-0.0117019
-0.0116417
-0.0112921
-0.0113522
-0.011518
-0.0120515
-0.0114351
-0.0117848
-0.0117019
-0.00603301
-0.00624901
-0.00495756
-0.00614101
-0.00560329
-0.00549529
-0.00603301
-0.00495756
-0.00590846
-0.00549529
-0.00543301
-0.00597074
-0.00603301
-0.00707706
-0.00624901
-0.00655504
-0.00666304
-0.00614101
-0.00603301
-0.00590846
-0.00707706
-0.00597074
-0.00649276
-0.00655504
-0.00513251
-0.00495756
-0.00624901
-0.00504503
-0.00560329
-0.00569076
-0.00513251
-0.00398554
-0.00495756
-0.00455902
-0.00447155
-0.00504503
-0.00513251
-0.00624901
-0.00541142
-0.00569076
-0.00583021
-0.00527196
-0.00513251
-0.00541142
-0.00398554
-0.00527196
-0.00469848
-0.00455902
-0.0037898
-0.00368445
-0.00495756
-0.00373713
-0.00432101
-0.00437368
-0.0037898
-0.00495756
-0.00398554
-0.00437368
-0.00447155
-0.00388767
-0.0037898
-0.00260144
-0.00368445
-0.00319562
-0.00314295
-0.00373713
-0.0037898
-0.00398554
-0.00260144
-0.00388767
-0.00329349
-0.00319562
-0.00726742
-0.00624901
-0.00707706
-0.00675821
-0.00666304
-0.00717224
-0.00726742
-0.00707706
-0.00824469
-0.00717224
-0.00766088
-0.00775605
-0.00726742
-0.00754827
-0.00624901
-0.00740785
-0.00689864
-0.00675821
-0.00726742
-0.00824469
-0.00754827
-0.00775605
-0.00789648
-0.00740785
-0.00803572
-0.00707706
-0.00790478
-0.00755639
-0.00749092
-0.00797025
-0.00803572
-0.00824469
-0.00707706
-0.00814021
-0.00766088
-0.00755639
-0.00803572
-0.00790478
-0.00895362
-0.00797025
-0.0084292
-0.00849467
-0.00803572
-0.00895362
-0.00824469
-0.00849467
-0.00859915
-0.00814021
-0.00133673
-0.00260144
-0.00146672
-0.00196908
-0.00203408
-0.00140173
-0.00133673
-0.00125605
-0.00260144
-0.00129639
-0.00192874
-0.00196908
-0.00273891
-0.00146672
-0.00260144
-0.00210281
-0.00203408
-0.00267017
-0.00273891
-0.00260144
-0.00398554
-0.00267017
-0.00329349
-0.00336222
-0.00273891
-0.00297115
-0.00146672
-0.00285503
-0.00221893
-0.00210281
-0.00273891
-0.00398554
-0.00297115
-0.00336222
-0.00347834
-0.00285503
-0.00420539
-0.00541142
-0.00454505
-0.0048084
-0.00497823
-0.00437522
-0.00420539
-0.00398554
-0.00541142
-0.00409547
-0.00469848
-0.0048084
-0.00420539
-0.00454505
-0.00297115
-0.00437522
-0.0037581
-0.00358827
-0.00420539
-0.00297115
-0.00398554
-0.00358827
-0.00347834
-0.00409547
-0.00650097
-0.00541142
-0.00624901
-0.00595619
-0.00583021
-0.00637499
-0.00650097
-0.00686196
-0.00541142
-0.00668147
-0.00613669
-0.00595619
-0.00650097
-0.00624901
-0.00754827
-0.00637499
-0.00689864
-0.00702462
-0.00650097
-0.00754827
-0.00686196
-0.00702462
-0.00720512
-0.00668147
-0.0057258
-0.00454505
-0.00541142
-0.00513542
-0.00497823
-0.00556861
-0.0057258
-0.00541142
-0.00686196
-0.00556861
-0.00613669
-0.00629388
-0.0057258
-0.00617719
-0.00454505
-0.0059515
-0.00536112
-0.00513542
-0.0057258
-0.00686196
-0.00617719
-0.00629388
-0.00651957
-0.0059515
-0.00163272
-0.00146672
-0.00297115
-0.00154972
-0.00221893
-0.00230193
-0.00163272
-0.00297115
-0.00186869
-0.00230193
-0.00241992
-0.0017507
-0.00322553
-0.00297115
-0.00454505
-0.00309834
-0.0037581
-0.00388529
-0.00322553
-0.00186869
-0.00297115
-0.00254711
-0.00241992
-0.00309834
-0.00322553
-0.00454505
-0.00361817
-0.00388529
-0.00408161
-0.00342185
-0.00322553
-0.00361817
-0.00186869
-0.00342185
-0.00274343
-0.00254711
-0.009802
-0.00999056
-0.00895362
-0.00989628
-0.00947209
-0.00937781
-0.009802
-0.00895362
-0.00967402
-0.00937781
-0.00931382
-0.00973801
-0.009802
-0.0106036
-0.00999056
-0.0102028
-0.0102971
-0.00989628
-0.009802
-0.00967402
-0.0106036
-0.00973801
-0.0101388
-0.0102028
-0.00914178
-0.00895362
-0.00999056
-0.0090477
-0.00947209
-0.00956617
-0.00914178
-0.00824469
-0.00895362
-0.00869324
-0.00859915
-0.0090477
-0.00914178
-0.00999056
-0.00939912
-0.00956617
-0.00969484
-0.00927045
-0.00914178
-0.00939912
-0.00824469
-0.00927045
-0.0088219
-0.00869324
-0.0104763
-0.0104029
-0.0112319
-0.0104396
-0.0108174
-0.0108541
-0.0104763
-0.00967402
-0.0104029
-0.0100751
-0.0100385
-0.0104396
-0.0104763
-0.0112319
-0.0106036
-0.0108541
-0.0109178
-0.0105399
-0.0104763
-0.0106036
-0.00967402
-0.0105399
-0.0101388
-0.0100751
-0.01116
-0.0112319
-0.0104029
-0.011196
-0.0108174
-0.0107815
-0.01116
-0.0104029
-0.0111363
-0.0107815
-0.0107696
-0.0111482
-0.01116
-0.0118697
-0.0112319
-0.0115149
-0.0115508
-0.011196
-0.01116
-0.0111363
-0.0118697
-0.0111482
-0.011503
-0.0115149
-0.0107797
-0.00999056
-0.0106036
-0.0103852
-0.0102971
-0.0106917
-0.0107797
-0.0106036
-0.011518
-0.0106917
-0.0110608
-0.0111489
-0.0107797
-0.011006
-0.00999056
-0.0108929
-0.0104983
-0.0103852
-0.0107797
-0.011518
-0.011006
-0.0111489
-0.011262
-0.0108929
-0.0113522
-0.0106036
-0.0112319
-0.0109779
-0.0109178
-0.0112921
-0.0113522
-0.011518
-0.0106036
-0.0114351
-0.0110608
-0.0109779
-0.0113522
-0.0112319
-0.0120515
-0.0112921
-0.0116417
-0.0117019
-0.0113522
-0.0120515
-0.011518
-0.0117019
-0.0117848
-0.0114351
-0.00849953
-0.00883608
-0.00754827
-0.0086678
-0.00819218
-0.0080239
-0.00849953
-0.00754827
-0.00824469
-0.0080239
-0.00789648
-0.00837211
-0.00849953
-0.00939912
-0.00883608
-0.00894932
-0.0091176
-0.0086678
-0.00849953
-0.00824469
-0.00939912
-0.00837211
-0.0088219
-0.00894932
-0.00787765
-0.00754827
-0.00883608
-0.00771296
-0.00819218
-0.00835686
-0.00787765
-0.00686196
-0.00754827
-0.00736981
-0.00720512
-0.00771296
-0.00787765
-0.00883608
-0.00830866
-0.00835686
-0.00857237
-0.00809315
-0.00787765
-0.00830866
-0.00686196
-0.00809315
-0.00758531
-0.00736981
-0.0102298
-0.00939912
-0.00999056
-0.00981445
-0.00969484
-0.0101102
-0.0102298
-0.0105252
-0.00939912
-0.0103775
-0.00996218
-0.00981445
-0.0102298
-0.00999056
-0.011006
-0.0101102
-0.0104983
-0.0106179
-0.0102298
-0.011006
-0.0105252
-0.0106179
-0.0107656
-0.0103775
-0.00971103
-0.00883608
-0.00939912
-0.00927355
-0.0091176
-0.00955508
-0.00971103
-0.00939912
-0.0105252
-0.00955508
-0.00996218
-0.0101181
-0.00971103
-0.0100883
-0.00883608
-0.00989965
-0.00946217
-0.00927355
-0.00971103
-0.0105252
-0.0100883
-0.0101181
-0.0103068
-0.00989965
-0.0122131
-0.0124113
-0.0128576
-0.0123122
-0.0126344
-0.0125353
-0.0122131
-0.011518
-0.0124113
-0.0118655
-0.0119647
-0.0123122
-0.0122131
-0.0128576
-0.0120515
-0.0125353
-0.0124546
-0.0121323
-0.0122131
-0.0120515
-0.011518
-0.0121323
-0.0117848
-0.0118655
-0.0130541
-0.0128576
-0.0124113
-0.0129558
-0.0126344
-0.0127327
-0.0130541
-0.0124113
-0.0132794
-0.0127327
-0.0128454
-0.0131668
-0.0130541
-0.0136473
-0.0128576
-0.0133507
-0.0132525
-0.0129558
-0.0130541
-0.0132794
-0.0136473
-0.0131668
-0.0134634
-0.0133507
-0.012711
-0.0120515
-0.0128576
-0.0123812
-0.0124546
-0.0127843
-0.012711
-0.0125989
-0.0120515
-0.012655
-0.0123252
-0.0123812
-0.012711
-0.0128576
-0.0133206
-0.0127843
-0.0130891
-0.0130158
-0.012711
-0.0133206
-0.0125989
-0.0130158
-0.0129598
-0.012655
-0.01194
-0.0112319
-0.0120515
-0.0115859
-0.0116417
-0.0119957
-0.01194
-0.0120515
-0.0125989
-0.0119957
-0.0123252
-0.0122695
-0.01194
-0.0118697
-0.0112319
-0.0119048
-0.0115508
-0.0115859
-0.01194
-0.0125989
-0.0118697
-0.0122695
-0.0122343
-0.0119048
-0.013873
-0.0144201
-0.0136473
-0.0141465
-0.0140337
-0.0137602
-0.013873
-0.0136473
-0.0132794
-0.0137602
-0.0134634
-0.0135762
-0.013873
-0.0141209
-0.0144201
-0.0139969
-0.0142705
-0.0141465
-0.013873
-0.0132794
-0.0141209
-0.0135762
-0.0137001
-0.0139969
-0.0134697
-0.0128576
-0.0136473
-0.0131637
-0.0132525
-0.0135585
-0.0134697
-0.0136473
-0.0140328
-0.0135585
-0.0138401
-0.0137513
-0.0134697
-0.0133206
-0.0128576
-0.0133952
-0.0130891
-0.0131637
-0.0134697
-0.0140328
-0.0133206
-0.0137513
-0.0136767
-0.0133952
-0.0142147
-0.0136473
-0.0144201
-0.013931
-0.0140337
-0.0143174
-0.0142147
-0.0140328
-0.0136473
-0.0141238
-0.0138401
-0.013931
-0.0142147
-0.0144201
-0.0147352
-0.0143174
-0.0145777
-0.014475
-0.0142147
-0.0147352
-0.0140328
-0.014475
-0.014384
-0.0141238
-0.01467
-0.0144201
-0.0141209
-0.014545
-0.0142705
-0.0143954
-0.01467
-0.0141209
-0.0149375
-0.0143954
-0.0145292
-0.0148037
-0.01467
-0.0151774
-0.0144201
-0.0149237
-0.0147988
-0.014545
-0.01467
-0.0149375
-0.0151774
-0.0148037
-0.0150574
-0.0149237
-0.0118483
-0.0118697
-0.0125119
-0.011859
-0.0121908
-0.0121801
-0.0118483
-0.0111363
-0.0118697
-0.0114923
-0.011503
-0.011859
-0.0118483
-0.0125119
-0.0118697
-0.0121801
-0.0121908
-0.011859
-0.0118483
-0.0118697
-0.0111363
-0.011859
-0.011503
-0.0114923
-0.0125367
-0.0125119
-0.0118697
-0.0125243
-0.0121908
-0.0122032
-0.0125367
-0.0118697
-0.0125989
-0.0122032
-0.0122343
-0.0125678
-0.0125367
-0.0131542
-0.0125119
-0.0128455
-0.0128331
-0.0125243
-0.0125367
-0.0125989
-0.0131542
-0.0125678
-0.0128766
-0.0128455
-0.0125367
-0.0118697
-0.0125119
-0.0122032
-0.0121908
-0.0125243
-0.0125367
-0.0125989
-0.0118697
-0.0125678
-0.0122343
-0.0122032
-0.0125367
-0.0125119
-0.0131542
-0.0125243
-0.0128331
-0.0128455
-0.0125367
-0.0131542
-0.0125989
-0.0128455
-0.0128766
-0.0125678
-0.01194
-0.0112319
-0.0118697
-0.0115859
-0.0115508
-0.0119048
-0.01194
-0.0118697
-0.0125989
-0.0119048
-0.0122343
-0.0122695
-0.01194
-0.0120515
-0.0112319
-0.0119957
-0.0116417
-0.0115859
-0.01194
-0.0125989
-0.0120515
-0.0122695
-0.0123252
-0.0119957
-0.0132212
-0.0133206
-0.0137936
-0.0132709
-0.0135571
-0.0135074
-0.0132212
-0.0125989
-0.0133206
-0.0129101
-0.0129598
-0.0132709
-0.0132212
-0.0137936
-0.0131542
-0.0135074
-0.0134739
-0.0131877
-0.0132212
-0.0131542
-0.0125989
-0.0131877
-0.0128766
-0.0129101
-0.0138993
-0.0137936
-0.0133206
-0.0138464
-0.0135571
-0.0136099
-0.0138993
-0.0133206
-0.0140328
-0.0136099
-0.0136767
-0.013966
-0.0138993
-0.0144284
-0.0137936
-0.0141638
-0.014111
-0.0138464
-0.0138993
-0.0140328
-0.0144284
-0.013966
-0.0142306
-0.0141638
-0.0131374
-0.0125119
-0.0131542
-0.0128246
-0.0128331
-0.0131458
-0.0131374
-0.0131542
-0.0137127
-0.0131458
-0.0134335
-0.0134251
-0.0131374
-0.0131542
-0.0125119
-0.0131458
-0.0128331
-0.0128246
-0.0131374
-0.0137127
-0.0131542
-0.0134251
-0.0134335
-0.0131458
-0.0137381
-0.0131542
-0.0137936
-0.0134461
-0.0134739
-0.0137658
-0.0137381
-0.0137127
-0.0131542
-0.0137254
-0.0134335
-0.0134461
-0.0137381
-0.0137936
-0.0142715
-0.0137658
-0.0140325
-0.0140048
-0.0137381
-0.0142715
-0.0137127
-0.0140048
-0.0139921
-0.0137254
-0.0142574
-0.0142715
-0.014751
-0.0142644
-0.0145113
-0.0145042
-0.0142574
-0.0137127
-0.0142715
-0.0139851
-0.0139921
-0.0142644
-0.0142574
-0.014751
-0.0142715
-0.0145042
-0.0145113
-0.0142644
-0.0142574
-0.0142715
-0.0137127
-0.0142644
-0.0139921
-0.0139851
-0.0147768
-0.014751
-0.0142715
-0.0147639
-0.0145113
-0.0145241
-0.0147768
-0.0142715
-0.0148289
-0.0145241
-0.0145502
-0.0148028
-0.0147768
-0.0152308
-0.014751
-0.0150038
-0.0149909
-0.0147639
-0.0147768
-0.0148289
-0.0152308
-0.0148028
-0.0150299
-0.0150038
-0.0143364
-0.0142715
-0.0137936
-0.0143039
-0.0140325
-0.014065
-0.0143364
-0.0148289
-0.0142715
-0.0145826
-0.0145502
-0.0143039
-0.0143364
-0.0137936
-0.0144284
-0.014065
-0.014111
-0.0143824
-0.0143364
-0.0144284
-0.0148289
-0.0143824
-0.0146287
-0.0145826
-0.0137381
-0.0142715
-0.0137936
-0.0140048
-0.0140325
-0.0137658
-0.0137381
-0.0137127
-0.0142715
-0.0137254
-0.0139921
-0.0140048
-0.0137381
-0.0137936
-0.0131542
-0.0137658
-0.0134739
-0.0134461
-0.0137381
-0.0131542
-0.0137127
-0.0134461
-0.0134335
-0.0137254
-0.0147768
-0.0142715
-0.014751
-0.0145241
-0.0145113
-0.0147639
-0.0147768
-0.0148289
-0.0142715
-0.0148028
-0.0145502
-0.0145241
-0.0147768
-0.014751
-0.0152308
-0.0147639
-0.0149909
-0.0150038
-0.0147768
-0.0152308
-0.0148289
-0.0150038
-0.0150299
-0.0148028
-0.0143364
-0.0137936
-0.0142715
-0.014065
-0.0140325
-0.0143039
-0.0143364
-0.0142715
-0.0148289
-0.0143039
-0.0145502
-0.0145826
-0.0143364
-0.0144284
-0.0137936
-0.0143824
-0.014111
-0.014065
-0.0143364
-0.0148289
-0.0144284
-0.0145826
-0.0146287
-0.0143824
-0.0132212
-0.0131542
-0.0137936
-0.0131877
-0.0134739
-0.0135074
-0.0132212
-0.0125989
-0.0131542
-0.0129101
-0.0128766
-0.0131877
-0.0132212
-0.0137936
-0.0133206
-0.0135074
-0.0135571
-0.0132709
-0.0132212
-0.0133206
-0.0125989
-0.0132709
-0.0129598
-0.0129101
-0.0149316
-0.0144284
-0.0150588
-0.01468
-0.0147436
-0.0149952
-0.0149316
-0.0148289
-0.0144284
-0.0148803
-0.0146287
-0.01468
-0.0149316
-0.0150588
-0.0153853
-0.0149952
-0.0152221
-0.0151585
-0.0149316
-0.0153853
-0.0148289
-0.0151585
-0.0151071
-0.0148803
-0.0145698
-0.0150588
-0.0144284
-0.0148143
-0.0147436
-0.0144991
-0.0145698
-0.0144284
-0.0140328
-0.0144991
-0.0142306
-0.0143013
-0.0145698
-0.0147352
-0.0150588
-0.0146525
-0.014897
-0.0148143
-0.0145698
-0.0140328
-0.0147352
-0.0143013
-0.014384
-0.0146525
-0.0152955
-0.0157112
-0.0152308
-0.0155034
-0.015471
-0.0152632
-0.0152955
-0.0152308
-0.0148289
-0.0152632
-0.0150299
-0.0150622
-0.0152955
-0.0153853
-0.0157112
-0.0153404
-0.0155482
-0.0155034
-0.0152955
-0.0148289
-0.0153853
-0.0150622
-0.0151071
-0.0153404
-0.0152178
-0.014751
-0.0152308
-0.0149844
-0.0149909
-0.0152243
-0.0152178
-0.0152308
-0.0156326
-0.0152243
-0.0154317
-0.0154252
-0.0152178
-0.0152308
-0.014751
-0.0152243
-0.0149909
-0.0149844
-0.0152178
-0.0156326
-0.0152308
-0.0154252
-0.0154317
-0.0152243
-0.0156589
-0.0152308
-0.0157112
-0.0154449
-0.015471
-0.015685
-0.0156589
-0.0156326
-0.0152308
-0.0156457
-0.0154317
-0.0154449
-0.0156589
-0.0157112
-0.0160346
-0.015685
-0.0158729
-0.0158467
-0.0156589
-0.0160346
-0.0156326
-0.0158467
-0.0158336
-0.0156457
-0.0155248
-0.0153853
-0.0150588
-0.0154551
-0.0152221
-0.0152918
-0.0155248
-0.0159429
-0.0153853
-0.0157338
-0.0156641
-0.0154551
-0.0155248
-0.0150588
-0.0156866
-0.0152918
-0.0153727
-0.0156057
-0.0155248
-0.0156866
-0.0159429
-0.0156057
-0.0158147
-0.0157338
-0.015815
-0.0157112
-0.0153853
-0.0157631
-0.0155482
-0.0156002
-0.015815
-0.0153853
-0.0159429
-0.0156002
-0.0156641
-0.0158789
-0.015815
-0.0161944
-0.0157112
-0.0160047
-0.0159528
-0.0157631
-0.015815
-0.0159429
-0.0161944
-0.0158789
-0.0160686
-0.0160047
-0.0152337
-0.0150588
-0.0147352
-0.0151462
-0.014897
-0.0149845
-0.0152337
-0.0147352
-0.0154296
-0.0149845
-0.0150824
-0.0153316
-0.0152337
-0.0156866
-0.0150588
-0.0154602
-0.0153727
-0.0151462
-0.0152337
-0.0154296
-0.0156866
-0.0153316
-0.0155581
-0.0154602
-0.0149466
-0.0147352
-0.0144201
-0.0148409
-0.0145777
-0.0146833
-0.0149466
-0.0154296
-0.0147352
-0.0151881
-0.0150824
-0.0148409
-0.0149466
-0.0144201
-0.0151774
-0.0146833
-0.0147988
-0.015062
-0.0149466
-0.0151774
-0.0154296
-0.015062
-0.0153035
-0.0151881
-0.012711
-0.0133206
-0.0128576
-0.0130158
-0.0130891
-0.0127843
-0.012711
-0.0125989
-0.0133206
-0.012655
-0.0129598
-0.0130158
-0.012711
-0.0128576
-0.0120515
-0.0127843
-0.0124546
-0.0123812
-0.012711
-0.0120515
-0.0125989
-0.0123812
-0.0123252
-0.012655
-0.0134697
-0.0128576
-0.0133206
-0.0131637
-0.0130891
-0.0133952
-0.0134697
-0.0133206
-0.0140328
-0.0133952
-0.0136767
-0.0137513
-0.0134697
-0.0136473
-0.0128576
-0.0135585
-0.0132525
-0.0131637
-0.0134697
-0.0140328
-0.0136473
-0.0137513
-0.0138401
-0.0135585
-0.0138993
-0.0133206
-0.0137936
-0.0136099
-0.0135571
-0.0138464
-0.0138993
-0.0140328
-0.0133206
-0.013966
-0.0136767
-0.0136099
-0.0138993
-0.0137936
-0.0144284
-0.0138464
-0.014111
-0.0141638
-0.0138993
-0.0144284
-0.0140328
-0.0141638
-0.0142306
-0.013966
-0.0122131
-0.0120515
-0.0128576
-0.0121323
-0.0124546
-0.0125353
-0.0122131
-0.011518
-0.0120515
-0.0118655
-0.0117848
-0.0121323
-0.0122131
-0.0128576
-0.0124113
-0.0125353
-0.0126344
-0.0123122
-0.0122131
-0.0124113
-0.011518
-0.0123122
-0.0119647
-0.0118655
-0.0149316
-0.0150588
-0.0144284
-0.0149952
-0.0147436
-0.01468
-0.0149316
-0.0144284
-0.0148289
-0.01468
-0.0146287
-0.0148803
-0.0149316
-0.0153853
-0.0150588
-0.0151585
-0.0152221
-0.0149952
-0.0149316
-0.0148289
-0.0153853
-0.0148803
-0.0151071
-0.0151585
-0.0145698
-0.0144284
-0.0150588
-0.0144991
-0.0147436
-0.0148143
-0.0145698
-0.0140328
-0.0144284
-0.0143013
-0.0142306
-0.0144991
-0.0145698
-0.0150588
-0.0147352
-0.0148143
-0.014897
-0.0146525
-0.0145698
-0.0147352
-0.0140328
-0.0146525
-0.014384
-0.0143013
-0.0152955
-0.0152308
-0.0157112
-0.0152632
-0.015471
-0.0155034
-0.0152955
-0.0148289
-0.0152308
-0.0150622
-0.0150299
-0.0152632
-0.0152955
-0.0157112
-0.0153853
-0.0155034
-0.0155482
-0.0153404
-0.0152955
-0.0153853
-0.0148289
-0.0153404
-0.0151071
-0.0150622
-0.0156589
-0.0157112
-0.0152308
-0.015685
-0.015471
-0.0154449
-0.0156589
-0.0152308
-0.0156326
-0.0154449
-0.0154317
-0.0156457
-0.0156589
-0.0160346
-0.0157112
-0.0158467
-0.0158729
-0.015685
-0.0156589
-0.0156326
-0.0160346
-0.0156457
-0.0158336
-0.0158467
-0.0155248
-0.0150588
-0.0153853
-0.0152918
-0.0152221
-0.0154551
-0.0155248
-0.0153853
-0.0159429
-0.0154551
-0.0156641
-0.0157338
-0.0155248
-0.0156866
-0.0150588
-0.0156057
-0.0153727
-0.0152918
-0.0155248
-0.0159429
-0.0156866
-0.0157338
-0.0158147
-0.0156057
-0.015815
-0.0153853
-0.0157112
-0.0156002
-0.0155482
-0.0157631
-0.015815
-0.0159429
-0.0153853
-0.0158789
-0.0156641
-0.0156002
-0.015815
-0.0157112
-0.0161944
-0.0157631
-0.0159528
-0.0160047
-0.015815
-0.0161944
-0.0159429
-0.0160047
-0.0160686
-0.0158789
-0.0142147
-0.0144201
-0.0136473
-0.0143174
-0.0140337
-0.013931
-0.0142147
-0.0136473
-0.0140328
-0.013931
-0.0138401
-0.0141238
-0.0142147
-0.0147352
-0.0144201
-0.014475
-0.0145777
-0.0143174
-0.0142147
-0.0140328
-0.0147352
-0.0141238
-0.014384
-0.014475
-0.0130541
-0.0128576
-0.0136473
-0.0129558
-0.0132525
-0.0133507
-0.0130541
-0.0136473
-0.0132794
-0.0133507
-0.0134634
-0.0131668
-0.0130541
-0.0124113
-0.0128576
-0.0127327
-0.0126344
-0.0129558
-0.0130541
-0.0132794
-0.0124113
-0.0131668
-0.0128454
-0.0127327
-0.013873
-0.0136473
-0.0144201
-0.0137602
-0.0140337
-0.0141465
-0.013873
-0.0132794
-0.0136473
-0.0135762
-0.0134634
-0.0137602
-0.013873
-0.0144201
-0.0141209
-0.0141465
-0.0142705
-0.0139969
-0.013873
-0.0141209
-0.0132794
-0.0139969
-0.0137001
-0.0135762
-0.0152337
-0.0147352
-0.0150588
-0.0149845
-0.014897
-0.0151462
-0.0152337
-0.0154296
-0.0147352
-0.0153316
-0.0150824
-0.0149845
-0.0152337
-0.0150588
-0.0156866
-0.0151462
-0.0153727
-0.0154602
-0.0152337
-0.0156866
-0.0154296
-0.0154602
-0.0155581
-0.0153316
-0.0149466
-0.0144201
-0.0147352
-0.0146833
-0.0145777
-0.0148409
-0.0149466
-0.0147352
-0.0154296
-0.0148409
-0.0150824
-0.0151881
-0.0149466
-0.0151774
-0.0144201
-0.015062
-0.0147988
-0.0146833
-0.0149466
-0.0154296
-0.0151774
-0.0151881
-0.0153035
-0.015062
-0.011735
-0.0124113
-0.0119909
-0.0120732
-0.0122011
-0.011863
-0.011735
-0.011518
-0.0124113
-0.0116265
-0.0119647
-0.0120732
-0.011735
-0.0119909
-0.011006
-0.011863
-0.0114985
-0.0113705
-0.011735
-0.011006
-0.011518
-0.0113705
-0.011262
-0.0116265
-0.0126608
-0.0119909
-0.0124113
-0.0123259
-0.0122011
-0.0125361
-0.0126608
-0.0124113
-0.0132794
-0.0125361
-0.0128454
-0.0129701
-0.0126608
-0.0129388
-0.0119909
-0.0127998
-0.0124648
-0.0123259
-0.0126608
-0.0132794
-0.0129388
-0.0129701
-0.0131091
-0.0127998
-0.0112866
-0.011006
-0.0119909
-0.0111463
-0.0114985
-0.0116388
-0.0112866
-0.0105252
-0.011006
-0.0109059
-0.0107656
-0.0111463
-0.0112866
-0.0119909
-0.0116085
-0.0116388
-0.0117997
-0.0114476
-0.0112866
-0.0116085
-0.0105252
-0.0114476
-0.0110669
-0.0109059
-0.0156679
-0.0151774
-0.0159229
-0.0154227
-0.0155502
-0.0157954
-0.0156679
-0.0154296
-0.0151774
-0.0155487
-0.0153035
-0.0154227
-0.0156679
-0.0159229
-0.0161194
-0.0157954
-0.0160212
-0.0158937
-0.0156679
-0.0161194
-0.0154296
-0.0158937
-0.0157745
-0.0155487
-0.0154481
-0.0159229
-0.0151774
-0.0156855
-0.0155502
-0.0153128
-0.0154481
-0.0151774
-0.0149375
-0.0153128
-0.0150574
-0.0151928
-0.0154481
-0.0157334
-0.0159229
-0.0155907
-0.0158282
-0.0156855
-0.0154481
-0.0149375
-0.0157334
-0.0151928
-0.0153354
-0.0155907
-0.0158937
-0.0161194
-0.0163156
-0.0160066
-0.0162175
-0.0161047
-0.0158937
-0.0154296
-0.0161194
-0.0156617
-0.0157745
-0.0160066
-0.0158937
-0.0163156
-0.0156866
-0.0161047
-0.0160011
-0.0157902
-0.0158937
-0.0156866
-0.0154296
-0.0157902
-0.0155581
-0.0156617
-0.0163833
-0.0161194
-0.0159229
-0.0162513
-0.0160212
-0.0161531
-0.0163833
-0.0168097
-0.0161194
-0.0165965
-0.0164646
-0.0162513
-0.0163833
-0.0159229
-0.0166617
-0.0161531
-0.0162923
-0.0165225
-0.0163833
-0.0166617
-0.0168097
-0.0165225
-0.0167357
-0.0165965
-0.0165545
-0.0163156
-0.0161194
-0.0164351
-0.0162175
-0.0163369
-0.0165545
-0.0161194
-0.0168097
-0.0163369
-0.0164646
-0.0166821
-0.0165545
-0.0169512
-0.0163156
-0.0167528
-0.0166334
-0.0164351
-0.0165545
-0.0168097
-0.0169512
-0.0166821
-0.0168805
-0.0167528
-0.016119
-0.0156866
-0.0163156
-0.0159028
-0.0160011
-0.0162173
-0.016119
-0.0159429
-0.0156866
-0.0160309
-0.0158147
-0.0159028
-0.016119
-0.0163156
-0.0165056
-0.0162173
-0.0164106
-0.0163123
-0.016119
-0.0165056
-0.0159429
-0.0163123
-0.0162242
-0.0160309
-0.0162124
-0.0159229
-0.0157334
-0.0160677
-0.0158282
-0.0159729
-0.0162124
-0.0157334
-0.0165146
-0.0159729
-0.016124
-0.0163635
-0.0162124
-0.0166617
-0.0159229
-0.0164371
-0.0162923
-0.0160677
-0.0162124
-0.0165146
-0.0166617
-0.0163635
-0.0165882
-0.0164371
-0.0160492
-0.0157334
-0.0155586
-0.0158913
-0.015646
-0.0158039
-0.0160492
-0.0165146
-0.0157334
-0.0162819
-0.016124
-0.0158913
-0.0160492
-0.0155586
-0.0163755
-0.0158039
-0.0159671
-0.0162124
-0.0160492
-0.0163755
-0.0165146
-0.0162124
-0.0164451
-0.0162819
-0.0163384
-0.0166848
-0.0161944
-0.0165116
-0.0164396
-0.0162664
-0.0163384
-0.0161944
-0.0159429
-0.0162664
-0.0160686
-0.0161406
-0.0163384
-0.0165056
-0.0166848
-0.016422
-0.0165952
-0.0165116
-0.0163384
-0.0159429
-0.0165056
-0.0161406
-0.0162242
-0.016422
-0.0165488
-0.0161944
-0.0166848
-0.0163716
-0.0164396
-0.0166168
-0.0165488
-0.0164392
-0.0161944
-0.016494
-0.0163168
-0.0163716
-0.0165488
-0.0166848
-0.0168509
-0.0166168
-0.0167679
-0.0166999
-0.0165488
-0.0168509
-0.0164392
-0.0166999
-0.0166451
-0.016494
-0.0161014
-0.0157112
-0.0161944
-0.0159063
-0.0159528
-0.0161479
-0.0161014
-0.0161944
-0.0164392
-0.0161479
-0.0163168
-0.0162703
-0.0161014
-0.0160346
-0.0157112
-0.016068
-0.0158729
-0.0159063
-0.0161014
-0.0164392
-0.0160346
-0.0162703
-0.0162369
-0.016068
-0.016871
-0.0166848
-0.0165056
-0.0167779
-0.0165952
-0.0166883
-0.016871
-0.0165056
-0.0170794
-0.0166883
-0.0167925
-0.0169752
-0.016871
-0.0171889
-0.0166848
-0.01703
-0.0169369
-0.0167779
-0.016871
-0.0170794
-0.0171889
-0.0169752
-0.0171342
-0.01703
-0.016719
-0.0165056
-0.0163156
-0.0166123
-0.0164106
-0.0165173
-0.016719
-0.0170794
-0.0165056
-0.0168992
-0.0167925
-0.0166123
-0.016719
-0.0163156
-0.0169512
-0.0165173
-0.0166334
-0.0168351
-0.016719
-0.0169512
-0.0170794
-0.0168351
-0.0170153
-0.0168992
-0.016021
-0.0160346
-0.0163558
-0.0160278
-0.0161952
-0.0161884
-0.016021
-0.0156326
-0.0160346
-0.0158268
-0.0158336
-0.0160278
-0.016021
-0.0163558
-0.0160346
-0.0161884
-0.0161952
-0.0160278
-0.016021
-0.0160346
-0.0156326
-0.0160278
-0.0158336
-0.0158268
-0.0163831
-0.0163558
-0.0160346
-0.0163695
-0.0161952
-0.0162088
-0.0163831
-0.0160346
-0.0164392
-0.0162088
-0.0162369
-0.0164111
-0.0163831
-0.0166773
-0.0163558
-0.0165302
-0.0165166
-0.0163695
-0.0163831
-0.0164392
-0.0166773
-0.0164111
-0.0165583
-0.0165302
-0.0163831
-0.0160346
-0.0163558
-0.0162088
-0.0161952
-0.0163695
-0.0163831
-0.0164392
-0.0160346
-0.0164111
-0.0162369
-0.0162088
-0.0163831
-0.0163558
-0.0166773
-0.0163695
-0.0165166
-0.0165302
-0.0163831
-0.0166773
-0.0164392
-0.0165302
-0.0165583
-0.0164111
-0.0161014
-0.0157112
-0.0160346
-0.0159063
-0.0158729
-0.016068
-0.0161014
-0.0160346
-0.0164392
-0.016068
-0.0162369
-0.0162703
-0.0161014
-0.0161944
-0.0157112
-0.0161479
-0.0159528
-0.0159063
-0.0161014
-0.0164392
-0.0161944
-0.0162703
-0.0163168
-0.0161479
-0.0167488
-0.0168509
-0.0170037
-0.0167999
-0.0169273
-0.0168762
-0.0167488
-0.0164392
-0.0168509
-0.016594
-0.0166451
-0.0167999
-0.0167488
-0.0170037
-0.0166773
-0.0168762
-0.0168405
-0.0167131
-0.0167488
-0.0166773
-0.0164392
-0.0167131
-0.0165583
-0.016594
-0.0170066
-0.0168509
-0.0166848
-0.0169288
-0.0167679
-0.0168457
-0.0170066
-0.0172766
-0.0168509
-0.0171416
-0.0170638
-0.0169288
-0.0170066
-0.0166848
-0.0171889
-0.0168457
-0.0169369
-0.0170977
-0.0170066
-0.0171889
-0.0172766
-0.0170977
-0.0172328
-0.0171416
-0.0171239
-0.0170037
-0.0168509
-0.0170638
-0.0169273
-0.0169874
-0.0171239
-0.0168509
-0.0172766
-0.0169874
-0.0170638
-0.0172002
-0.0171239
-0.0173418
-0.0170037
-0.0172328
-0.0171727
-0.0170638
-0.0171239
-0.0172766
-0.0173418
-0.0172002
-0.0173092
-0.0172328
-0.0166613
-0.0163558
-0.0166773
-0.0165086
-0.0165166
-0.0166693
-0.0166613
-0.0166773
-0.0169112
-0.0166693
-0.0167943
-0.0167862
-0.0166613
-0.0166773
-0.0163558
-0.0166693
-0.0165166
-0.0165086
-0.0166613
-0.0169112
-0.0166773
-0.0167862
-0.0167943
-0.0166693
-0.0169396
-0.0166773
-0.0170037
-0.0168085
-0.0168405
-0.0169717
-0.0169396
-0.0169112
-0.0166773
-0.0169254
-0.0167943
-0.0168085
-0.0169396
-0.0170037
-0.0171452
-0.0169717
-0.0170745
-0.0170424
-0.0169396
-0.0171452
-0.0169112
-0.0170424
-0.0170282
-0.0169254
-0.017222
-0.0176004
-0.0169512
-0.0174112
-0.0172758
-0.0170866
-0.017222
-0.0169512
-0.0168097
-0.0170866
-0.0168805
-0.0170159
-0.017222
-0.0175068
-0.0176004
-0.0173644
-0.0175536
-0.0174112
-0.017222
-0.0168097
-0.0175068
-0.0170159
-0.0171582
-0.0173644
-0.0173316
-0.0169512
-0.0176004
-0.0171414
-0.0172758
-0.017466
-0.0173316
-0.0170794
-0.0169512
-0.0172055
-0.0170153
-0.0171414
-0.0173316
-0.0176004
-0.0176723
-0.017466
-0.0176364
-0.017502
-0.0173316
-0.0176723
-0.0170794
-0.017502
-0.0173759
-0.0172055
-0.0170984
-0.0166617
-0.0173996
-0.0168801
-0.0170307
-0.017249
-0.0170984
-0.0168097
-0.0166617
-0.0169541
-0.0167357
-0.0168801
-0.0170984
-0.0173996
-0.0175068
-0.017249
-0.0174532
-0.0173026
-0.0170984
-0.0175068
-0.0168097
-0.0173026
-0.0171582
-0.0169541
-0.0169689
-0.0173996
-0.0166617
-0.0171843
-0.0170307
-0.0168153
-0.0169689
-0.0166617
-0.0165146
-0.0168153
-0.0165882
-0.0167417
-0.0169689
-0.0172875
-0.0173996
-0.0171282
-0.0173436
-0.0171843
-0.0169689
-0.0165146
-0.0172875
-0.0167417
-0.016901
-0.0171282
-0.0179034
-0.0176004
-0.0175068
-0.0177519
-0.0175536
-0.0177051
-0.0179034
-0.0175068
-0.0182172
-0.0177051
-0.017862
-0.0180603
-0.0179034
-0.0182717
-0.0176004
-0.0180876
-0.0179361
-0.0177519
-0.0179034
-0.0182172
-0.0182717
-0.0180603
-0.0182445
-0.0180876
-0.0178194
-0.0175068
-0.0173996
-0.0176631
-0.0174532
-0.0176095
-0.0178194
-0.0182172
-0.0175068
-0.0180183
-0.017862
-0.0176631
-0.0178194
-0.0173996
-0.0181422
-0.0176095
-0.0177709
-0.0179808
-0.0178194
-0.0181422
-0.0182172
-0.0179808
-0.0181797
-0.0180183
-0.0174203
-0.0177155
-0.0171889
-0.0175679
-0.0174522
-0.0173046
-0.0174203
-0.0171889
-0.0170794
-0.0173046
-0.0171342
-0.0172498
-0.0174203
-0.0176723
-0.0177155
-0.0175463
-0.0176939
-0.0175679
-0.0174203
-0.0170794
-0.0176723
-0.0172498
-0.0173759
-0.0175463
-0.0174827
-0.0171889
-0.0177155
-0.0173358
-0.0174522
-0.0175991
-0.0174827
-0.0172766
-0.0171889
-0.0173797
-0.0172328
-0.0173358
-0.0174827
-0.0177155
-0.0177255
-0.0175991
-0.0177205
-0.0176041
-0.0174827
-0.0177255
-0.0172766
-0.0176041
-0.017501
-0.0173797
-0.0179654
-0.0176723
-0.0176004
-0.0178189
-0.0176364
-0.0177829
-0.0179654
-0.0182946
-0.0176723
-0.01813
-0.0179834
-0.0178189
-0.0179654
-0.0176004
-0.0182717
-0.0177829
-0.0179361
-0.0181186
-0.0179654
-0.0182717
-0.0182946
-0.0181186
-0.0182831
-0.01813
-0.0179959
-0.0177155
-0.0176723
-0.0178557
-0.0176939
-0.0178341
-0.0179959
-0.0176723
-0.0182946
-0.0178341
-0.0179834
-0.0181453
-0.0179959
-0.018276
-0.0177155
-0.018136
-0.0179957
-0.0178557
-0.0179959
-0.0182946
-0.018276
-0.0181453
-0.0182853
-0.018136
-0.0168411
-0.0163755
-0.0171777
-0.0166083
-0.0167766
-0.0170094
-0.0168411
-0.0165146
-0.0163755
-0.0166778
-0.0164451
-0.0166083
-0.0168411
-0.0171777
-0.0172875
-0.0170094
-0.0172326
-0.0170643
-0.0168411
-0.0172875
-0.0165146
-0.0170643
-0.016901
-0.0166778
-0.0167214
-0.0171777
-0.0163755
-0.0169496
-0.0167766
-0.0165485
-0.0167214
-0.0163755
-0.0162509
-0.0165485
-0.0163132
-0.0164861
-0.0167214
-0.0170753
-0.0171777
-0.0168984
-0.0171265
-0.0169496
-0.0167214
-0.0162509
-0.0170753
-0.0164861
-0.0166631
-0.0168984
-0.0176247
-0.0172875
-0.0171777
-0.0174561
-0.0172326
-0.0174012
-0.0176247
-0.0180576
-0.0172875
-0.0178411
-0.0176725
-0.0174561
-0.0176247
-0.0171777
-0.0179717
-0.0174012
-0.0175747
-0.0177982
-0.0176247
-0.0179717
-0.0180576
-0.0177982
-0.0180147
-0.0178411
-0.0177236
-0.0173996
-0.0172875
-0.0175616
-0.0173436
-0.0175055
-0.0177236
-0.0172875
-0.0180576
-0.0175055
-0.0176725
-0.0178906
-0.0177236
-0.0181422
-0.0173996
-0.0179329
-0.0177709
-0.0175616
-0.0177236
-0.0180576
-0.0181422
-0.0178906
-0.0180999
-0.0179329
-0.0175292
-0.0171777
-0.0170753
-0.0173534
-0.0171265
-0.0173022
-0.0175292
-0.0170753
-0.0178897
-0.0173022
-0.0174825
-0.0177094
-0.0175292
-0.0179717
-0.0171777
-0.0177505
-0.0175747
-0.0173534
-0.0175292
-0.0178897
-0.0179717
-0.0177094
-0.0179307
-0.0177505
-0.0174398
-0.0170753
-0.016982
-0.0172576
-0.0170286
-0.0172109
-0.0174398
-0.0178897
-0.0170753
-0.0176647
-0.0174825
-0.0172576
-0.0174398
-0.016982
-0.0178116
-0.0172109
-0.0173968
-0.0176257
-0.0174398
-0.0178116
-0.0178897
-0.0176257
-0.0178506
-0.0176647
-0.0108809
-0.0116085
-0.011281
-0.0112447
-0.0114448
-0.0110809
-0.0108809
-0.0105252
-0.0116085
-0.0107031
-0.0110669
-0.0112447
-0.0108809
-0.011281
-0.0100883
-0.0110809
-0.0106846
-0.0104846
-0.0108809
-0.0100883
-0.0105252
-0.0104846
-0.0103068
-0.0107031
-0.0119906
-0.011281
-0.0116085
-0.0116358
-0.0114448
-0.0117996
-0.0119906
-0.0116085
-0.0126386
-0.0117996
-0.0121236
-0.0123146
-0.0119906
-0.0123971
-0.011281
-0.0121938
-0.0118391
-0.0116358
-0.0119906
-0.0126386
-0.0123971
-0.0123146
-0.0125179
-0.0121938
-0.0123012
-0.0116085
-0.0119909
-0.0119549
-0.0117997
-0.012146
-0.0123012
-0.0126386
-0.0116085
-0.0124699
-0.0121236
-0.0119549
-0.0123012
-0.0119909
-0.0129388
-0.012146
-0.0124648
-0.01262
-0.0123012
-0.0129388
-0.0126386
-0.01262
-0.0127887
-0.0124699
-0.0105357
-0.0100883
-0.011281
-0.010312
-0.0106846
-0.0109084
-0.0105357
-0.00971232
-0.0100883
-0.010124
-0.00990029
-0.010312
-0.0105357
-0.011281
-0.0110328
-0.0109084
-0.0111569
-0.0107843
-0.0105357
-0.0110328
-0.00971232
-0.0107843
-0.0103726
-0.010124
-0.00923407
-0.00883608
-0.0100883
-0.00903507
-0.00946217
-0.00966117
-0.00923407
-0.0100883
-0.00971232
-0.00966117
-0.00990029
-0.00947319
-0.00923407
-0.00830866
-0.00883608
-0.00877136
-0.00857237
-0.00903507
-0.00923407
-0.00971232
-0.00830866
-0.00947319
-0.00901049
-0.00877136
-0.0132671
-0.0129388
-0.0138472
-0.0131029
-0.013393
-0.0135572
-0.0132671
-0.0126386
-0.0129388
-0.0129528
-0.0127887
-0.0131029
-0.0132671
-0.0138472
-0.0136117
-0.0135572
-0.0137294
-0.0134394
-0.0132671
-0.0136117
-0.0126386
-0.0134394
-0.0131251
-0.0129528
-0.0135533
-0.0138472
-0.0129388
-0.0137003
-0.013393
-0.013246
-0.0135533
-0.0129388
-0.0132794
-0.013246
-0.0131091
-0.0134163
-0.0135533
-0.0141209
-0.0138472
-0.0138371
-0.0139841
-0.0137003
-0.0135533
-0.0132794
-0.0141209
-0.0134163
-0.0137001
-0.0138371
-0.0130298
-0.0134309
-0.0123971
-0.0132303
-0.012914
-0.0127135
-0.0130298
-0.0123971
-0.0126386
-0.0127135
-0.0125179
-0.0128342
-0.0130298
-0.0136117
-0.0134309
-0.0133207
-0.0135213
-0.0132303
-0.0130298
-0.0126386
-0.0136117
-0.0128342
-0.0131251
-0.0133207
-0.0117512
-0.011281
-0.0123971
-0.0115161
-0.0118391
-0.0120741
-0.0117512
-0.0123971
-0.0122411
-0.0120741
-0.0123191
-0.0119961
-0.0117512
-0.0110328
-0.011281
-0.011392
-0.0111569
-0.0115161
-0.0117512
-0.0122411
-0.0110328
-0.0119961
-0.0116369
-0.011392
-0.0128631
-0.0123971
-0.0134309
-0.0126301
-0.012914
-0.013147
-0.0128631
-0.0122411
-0.0123971
-0.0125521
-0.0123191
-0.0126301
-0.0128631
-0.0134309
-0.0133281
-0.013147
-0.0133795
-0.0130956
-0.0128631
-0.0133281
-0.0122411
-0.0130956
-0.0127846
-0.0125521
-0.0141844
-0.0136117
-0.0138472
-0.013898
-0.0137294
-0.0140158
-0.0141844
-0.0145313
-0.0136117
-0.0143578
-0.0140715
-0.013898
-0.0141844
-0.0138472
-0.0147185
-0.0140158
-0.0142829
-0.0144515
-0.0141844
-0.0147185
-0.0145313
-0.0144515
-0.0146249
-0.0143578
-0.0139991
-0.0134309
-0.0136117
-0.013715
-0.0135213
-0.0138054
-0.0139991
-0.0136117
-0.0145313
-0.0138054
-0.0140715
-0.0142652
-0.0139991
-0.0143888
-0.0134309
-0.014194
-0.0139098
-0.013715
-0.0139991
-0.0145313
-0.0143888
-0.0142652
-0.0144601
-0.014194
-0.0144124
-0.0138472
-0.0141209
-0.0141298
-0.0139841
-0.0142667
-0.0144124
-0.0141209
-0.0149375
-0.0142667
-0.0145292
-0.0146749
-0.0144124
-0.0147185
-0.0138472
-0.0145655
-0.0142829
-0.0141298
-0.0144124
-0.0149375
-0.0147185
-0.0146749
-0.014828
-0.0145655
-0.01467
-0.0141209
-0.0144201
-0.0143954
-0.0142705
-0.014545
-0.01467
-0.0149375
-0.0141209
-0.0148037
-0.0145292
-0.0143954
-0.01467
-0.0144201
-0.0151774
-0.014545
-0.0147988
-0.0149237
-0.01467
-0.0151774
-0.0149375
-0.0149237
-0.0150574
-0.0148037
-0.00881196
-0.00782371
-0.00830866
-0.00831784
-0.00806619
-0.00856031
-0.00881196
-0.00830866
-0.00971232
-0.00856031
-0.00901049
-0.00926214
-0.00881196
-0.009422
-0.00782371
-0.00911698
-0.00862286
-0.00831784
-0.00881196
-0.00971232
-0.009422
-0.00926214
-0.00956716
-0.00911698
-0.00727546
-0.00830866
-0.00782371
-0.00779206
-0.00806619
-0.00754959
-0.00727546
-0.00686196
-0.00830866
-0.00706871
-0.00758531
-0.00779206
-0.00727546
-0.00782371
-0.00617719
-0.00754959
-0.00700045
-0.00672632
-0.00727546
-0.00617719
-0.00686196
-0.00672632
-0.00651957
-0.00706871
-0.0102776
-0.0110328
-0.0109021
-0.0106552
-0.0109675
-0.0105899
-0.0102776
-0.00971232
-0.0110328
-0.00999497
-0.0103726
-0.0106552
-0.0102776
-0.0109021
-0.009422
-0.0105899
-0.010162
-0.00984982
-0.0102776
-0.009422
-0.00971232
-0.00984982
-0.00956716
-0.00999497
-0.0116167
-0.0109021
-0.0110328
-0.0112594
-0.0109675
-0.0113248
-0.0116167
-0.0110328
-0.0122411
-0.0113248
-0.0116369
-0.0119289
-0.0116167
-0.0122115
-0.0109021
-0.0119141
-0.0115568
-0.0112594
-0.0116167
-0.0122411
-0.0122115
-0.0119289
-0.0122263
-0.0119141
-0.00846027
-0.00782371
-0.009422
-0.00814199
-0.00862286
-0.00894113
-0.00846027
-0.009422
-0.00925433
-0.00894113
-0.00933817
-0.0088573
-0.00846027
-0.00738463
-0.00782371
-0.00792245
-0.00760417
-0.00814199
-0.00846027
-0.00925433
-0.00738463
-0.0088573
-0.00831948
-0.00792245
-0.0101478
-0.009422
-0.0109021
-0.00978492
-0.010162
-0.010525
-0.0101478
-0.00925433
-0.009422
-0.00970108
-0.00933817
-0.00978492
-0.0101478
-0.0109021
-0.0109513
-0.010525
-0.0109267
-0.0105496
-0.0101478
-0.0109513
-0.00925433
-0.0105496
-0.0101028
-0.00970108
-0.00668546
-0.00617719
-0.00782371
-0.00643132
-0.00700045
-0.00725459
-0.00668546
-0.00547144
-0.00617719
-0.00607845
-0.00582431
-0.00643132
-0.00668546
-0.00782371
-0.00738463
-0.00725459
-0.00760417
-0.00703504
-0.00668546
-0.00738463
-0.00547144
-0.00703504
-0.00642803
-0.00607845
-0.0049199
-0.00454505
-0.00617719
-0.00473247
-0.00536112
-0.00554854
-0.0049199
-0.00617719
-0.00547144
-0.00554854
-0.00582431
-0.00519567
-0.0049199
-0.00361817
-0.00454505
-0.00426904
-0.00408161
-0.00473247
-0.0049199
-0.00547144
-0.00361817
-0.00519567
-0.00454481
-0.00426904
-0.0156679
-0.0159229
-0.0151774
-0.0157954
-0.0155502
-0.0154227
-0.0156679
-0.0151774
-0.0154296
-0.0154227
-0.0153035
-0.0155487
-0.0156679
-0.0161194
-0.0159229
-0.0158937
-0.0160212
-0.0157954
-0.0156679
-0.0154296
-0.0161194
-0.0155487
-0.0157745
-0.0158937
-0.0154481
-0.0151774
-0.0159229
-0.0153128
-0.0155502
-0.0156855
-0.0154481
-0.0149375
-0.0151774
-0.0151928
-0.0150574
-0.0153128
-0.0154481
-0.0159229
-0.0157334
-0.0156855
-0.0158282
-0.0155907
-0.0154481
-0.0157334
-0.0149375
-0.0155907
-0.0153354
-0.0151928
-0.0158937
-0.0163156
-0.0161194
-0.0161047
-0.0162175
-0.0160066
-0.0158937
-0.0161194
-0.0154296
-0.0160066
-0.0157745
-0.0156617
-0.0158937
-0.0156866
-0.0163156
-0.0157902
-0.0160011
-0.0161047
-0.0158937
-0.0154296
-0.0156866
-0.0156617
-0.0155581
-0.0157902
-0.0163833
-0.0159229
-0.0161194
-0.0161531
-0.0160212
-0.0162513
-0.0163833
-0.0161194
-0.0168097
-0.0162513
-0.0164646
-0.0165965
-0.0163833
-0.0166617
-0.0159229
-0.0165225
-0.0162923
-0.0161531
-0.0163833
-0.0168097
-0.0166617
-0.0165965
-0.0167357
-0.0165225
-0.0165545
-0.0161194
-0.0163156
-0.0163369
-0.0162175
-0.0164351
-0.0165545
-0.0168097
-0.0161194
-0.0166821
-0.0164646
-0.0163369
-0.0165545
-0.0163156
-0.0169512
-0.0164351
-0.0166334
-0.0167528
-0.0165545
-0.0169512
-0.0168097
-0.0167528
-0.0168805
-0.0166821
-0.016119
-0.0163156
-0.0156866
-0.0162173
-0.0160011
-0.0159028
-0.016119
-0.0156866
-0.0159429
-0.0159028
-0.0158147
-0.0160309
-0.016119
-0.0165056
-0.0163156
-0.0163123
-0.0164106
-0.0162173
-0.016119
-0.0159429
-0.0165056
-0.0160309
-0.0162242
-0.0163123
-0.0152422
-0.0157334
-0.0155586
-0.0154878
-0.015646
-0.0154004
-0.0152422
-0.0149375
-0.0157334
-0.0150898
-0.0153354
-0.0154878
-0.0152422
-0.0155586
-0.0147185
-0.0154004
-0.0151386
-0.0149804
-0.0152422
-0.0147185
-0.0149375
-0.0149804
-0.014828
-0.0150898
-0.0162124
-0.0157334
-0.0159229
-0.0159729
-0.0158282
-0.0160677
-0.0162124
-0.0165146
-0.0157334
-0.0163635
-0.016124
-0.0159729
-0.0162124
-0.0159229
-0.0166617
-0.0160677
-0.0162923
-0.0164371
-0.0162124
-0.0166617
-0.0165146
-0.0164371
-0.0165882
-0.0163635
-0.0160492
-0.0155586
-0.0157334
-0.0158039
-0.015646
-0.0158913
-0.0160492
-0.0157334
-0.0165146
-0.0158913
-0.016124
-0.0162819
-0.0160492
-0.0163755
-0.0155586
-0.0162124
-0.0159671
-0.0158039
-0.0160492
-0.0165146
-0.0163755
-0.0162819
-0.0164451
-0.0162124
-0.0150592
-0.0147185
-0.0155586
-0.0148888
-0.0151386
-0.0153089
-0.0150592
-0.0145313
-0.0147185
-0.0147952
-0.0146249
-0.0148888
-0.0150592
-0.0155586
-0.0154069
-0.0153089
-0.0154828
-0.015233
-0.0150592
-0.0154069
-0.0145313
-0.015233
-0.0149691
-0.0147952
-0.0163384
-0.0161944
-0.0166848
-0.0162664
-0.0164396
-0.0165116
-0.0163384
-0.0159429
-0.0161944
-0.0161406
-0.0160686
-0.0162664
-0.0163384
-0.0166848
-0.0165056
-0.0165116
-0.0165952
-0.016422
-0.0163384
-0.0165056
-0.0159429
-0.016422
-0.0162242
-0.0161406
-0.0165488
-0.0166848
-0.0161944
-0.0166168
-0.0164396
-0.0163716
-0.0165488
-0.0161944
-0.0164392
-0.0163716
-0.0163168
-0.016494
-0.0165488
-0.0168509
-0.0166848
-0.0166999
-0.0167679
-0.0166168
-0.0165488
-0.0164392
-0.0168509
-0.016494
-0.0166451
-0.0166999
-0.016871
-0.0165056
-0.0166848
-0.0166883
-0.0165952
-0.0167779
-0.016871
-0.0170794
-0.0165056
-0.0169752
-0.0167925
-0.0166883
-0.016871
-0.0166848
-0.0171889
-0.0167779
-0.0169369
-0.01703
-0.016871
-0.0171889
-0.0170794
-0.01703
-0.0171342
-0.0169752
-0.016719
-0.0163156
-0.0165056
-0.0165173
-0.0164106
-0.0166123
-0.016719
-0.0165056
-0.0170794
-0.0166123
-0.0167925
-0.0168992
-0.016719
-0.0169512
-0.0163156
-0.0168351
-0.0166334
-0.0165173
-0.016719
-0.0170794
-0.0169512
-0.0168992
-0.0170153
-0.0168351
-0.0167488
-0.0170037
-0.0168509
-0.0168762
-0.0169273
-0.0167999
-0.0167488
-0.0168509
-0.0164392
-0.0167999
-0.0166451
-0.016594
-0.0167488
-0.0166773
-0.0170037
-0.0167131
-0.0168405
-0.0168762
-0.0167488
-0.0164392
-0.0166773
-0.016594
-0.0165583
-0.0167131
-0.0170066
-0.0166848
-0.0168509
-0.0168457
-0.0167679
-0.0169288
-0.0170066
-0.0168509
-0.0172766
-0.0169288
-0.0170638
-0.0171416
-0.0170066
-0.0171889
-0.0166848
-0.0170977
-0.0169369
-0.0168457
-0.0170066
-0.0172766
-0.0171889
-0.0171416
-0.0172328
-0.0170977
-0.0171239
-0.0168509
-0.0170037
-0.0169874
-0.0169273
-0.0170638
-0.0171239
-0.0172766
-0.0168509
-0.0172002
-0.0170638
-0.0169874
-0.0171239
-0.0170037
-0.0173418
-0.0170638
-0.0171727
-0.0172328
-0.0171239
-0.0173418
-0.0172766
-0.0172328
-0.0173092
-0.0172002
-0.0169396
-0.0170037
-0.0166773
-0.0169717
-0.0168405
-0.0168085
-0.0169396
-0.0166773
-0.0169112
-0.0168085
-0.0167943
-0.0169254
-0.0169396
-0.0171452
-0.0170037
-0.0170424
-0.0170745
-0.0169717
-0.0169396
-0.0169112
-0.0171452
-0.0169254
-0.0170282
-0.0170424
-0.017222
-0.0169512
-0.0176004
-0.0170866
-0.0172758
-0.0174112
-0.017222
-0.0168097
-0.0169512
-0.0170159
-0.0168805
-0.0170866
-0.017222
-0.0176004
-0.0175068
-0.0174112
-0.0175536
-0.0173644
-0.017222
-0.0175068
-0.0168097
-0.0173644
-0.0171582
-0.0170159
-0.0173316
-0.0176004
-0.0169512
-0.017466
-0.0172758
-0.0171414
-0.0173316
-0.0169512
-0.0170794
-0.0171414
-0.0170153
-0.0172055
-0.0173316
-0.0176723
-0.0176004
-0.017502
-0.0176364
-0.017466
-0.0173316
-0.0170794
-0.0176723
-0.0172055
-0.0173759
-0.017502
-0.0170984
-0.0173996
-0.0166617
-0.017249
-0.0170307
-0.0168801
-0.0170984
-0.0166617
-0.0168097
-0.0168801
-0.0167357
-0.0169541
-0.0170984
-0.0175068
-0.0173996
-0.0173026
-0.0174532
-0.017249
-0.0170984
-0.0168097
-0.0175068
-0.0169541
-0.0171582
-0.0173026
-0.0169689
-0.0166617
-0.0173996
-0.0168153
-0.0170307
-0.0171843
-0.0169689
-0.0165146
-0.0166617
-0.0167417
-0.0165882
-0.0168153
-0.0169689
-0.0173996
-0.0172875
-0.0171843
-0.0173436
-0.0171282
-0.0169689
-0.0172875
-0.0165146
-0.0171282
-0.016901
-0.0167417
-0.0179034
-0.0175068
-0.0176004
-0.0177051
-0.0175536
-0.0177519
-0.0179034
-0.0182172
-0.0175068
-0.0180603
-0.017862
-0.0177051
-0.0179034
-0.0176004
-0.0182717
-0.0177519
-0.0179361
-0.0180876
-0.0179034
-0.0182717
-0.0182172
-0.0180876
-0.0182445
-0.0180603
-0.0178194
-0.0173996
-0.0175068
-0.0176095
-0.0174532
-0.0176631
-0.0178194
-0.0175068
-0.0182172
-0.0176631
-0.017862
-0.0180183
-0.0178194
-0.0181422
-0.0173996
-0.0179808
-0.0177709
-0.0176095
-0.0178194
-0.0182172
-0.0181422
-0.0180183
-0.0181797
-0.0179808
-0.0174203
-0.0171889
-0.0177155
-0.0173046
-0.0174522
-0.0175679
-0.0174203
-0.0170794
-0.0171889
-0.0172498
-0.0171342
-0.0173046
-0.0174203
-0.0177155
-0.0176723
-0.0175679
-0.0176939
-0.0175463
-0.0174203
-0.0176723
-0.0170794
-0.0175463
-0.0173759
-0.0172498
-0.0174827
-0.0177155
-0.0171889
-0.0175991
-0.0174522
-0.0173358
-0.0174827
-0.0171889
-0.0172766
-0.0173358
-0.0172328
-0.0173797
-0.0174827
-0.0177255
-0.0177155
-0.0176041
-0.0177205
-0.0175991
-0.0174827
-0.0172766
-0.0177255
-0.0173797
-0.017501
-0.0176041
-0.0179654
-0.0176004
-0.0176723
-0.0177829
-0.0176364
-0.0178189
-0.0179654
-0.0176723
-0.0182946
-0.0178189
-0.0179834
-0.01813
-0.0179654
-0.0182717
-0.0176004
-0.0181186
-0.0179361
-0.0177829
-0.0179654
-0.0182946
-0.0182717
-0.01813
-0.0182831
-0.0181186
-0.0179959
-0.0176723
-0.0177155
-0.0178341
-0.0176939
-0.0178557
-0.0179959
-0.0182946
-0.0176723
-0.0181453
-0.0179834
-0.0178341
-0.0179959
-0.0177155
-0.018276
-0.0178557
-0.0179957
-0.018136
-0.0179959
-0.018276
-0.0182946
-0.018136
-0.0182853
-0.0181453
-0.0149088
-0.0152869
-0.0143888
-0.0150979
-0.0148378
-0.0146488
-0.0149088
-0.0143888
-0.0145313
-0.0146488
-0.0144601
-0.0147201
-0.0149088
-0.0154069
-0.0152869
-0.0151579
-0.0153469
-0.0150979
-0.0149088
-0.0145313
-0.0154069
-0.0147201
-0.0149691
-0.0151579
-0.0148022
-0.0143888
-0.0152869
-0.0145955
-0.0148378
-0.0150445
-0.0148022
-0.0143071
-0.0143888
-0.0145546
-0.0143479
-0.0145955
-0.0148022
-0.0152869
-0.0152063
-0.0150445
-0.0152466
-0.0150042
-0.0148022
-0.0152063
-0.0143071
-0.0150042
-0.0147567
-0.0145546
-0.0138737
-0.0134309
-0.0143888
-0.0136523
-0.0139098
-0.0141313
-0.0138737
-0.0143888
-0.0143071
-0.0141313
-0.0143479
-0.0140904
-0.0138737
-0.0133281
-0.0134309
-0.0136009
-0.0133795
-0.0136523
-0.0138737
-0.0143071
-0.0133281
-0.0140904
-0.0138176
-0.0136009
-0.0157749
-0.0152869
-0.0154069
-0.0155309
-0.0153469
-0.0155909
-0.0157749
-0.0154069
-0.0162509
-0.0155909
-0.0158289
-0.0160129
-0.0157749
-0.016145
-0.0152869
-0.0159599
-0.0157159
-0.0155309
-0.0157749
-0.0162509
-0.016145
-0.0160129
-0.0161979
-0.0159599
-0.0159012
-0.0154069
-0.0155586
-0.0156541
-0.0154828
-0.0157299
-0.0159012
-0.0162509
-0.0154069
-0.016076
-0.0158289
-0.0156541
-0.0159012
-0.0155586
-0.0163755
-0.0157299
-0.0159671
-0.0161384
-0.0159012
-0.0163755
-0.0162509
-0.0161384
-0.0163132
-0.016076
-0.0127986
-0.0133281
-0.013337
-0.0130633
-0.0133325
-0.0130678
-0.0127986
-0.0122411
-0.0133281
-0.0125198
-0.0127846
-0.0130633
-0.0127986
-0.013337
-0.0122115
-0.0130678
-0.0127743
-0.0125051
-0.0127986
-0.0122115
-0.0122411
-0.0125051
-0.0122263
-0.0125198
-0.0138309
-0.013337
-0.0133281
-0.0135839
-0.0133325
-0.0135795
-0.0138309
-0.0133281
-0.0143071
-0.0135795
-0.0138176
-0.014069
-0.0138309
-0.0143058
-0.013337
-0.0140683
-0.0138214
-0.0135839
-0.0138309
-0.0143071
-0.0143058
-0.014069
-0.0143064
-0.0140683
-0.0128856
-0.0122115
-0.013337
-0.0125486
-0.0127743
-0.0131113
-0.0128856
-0.0123769
-0.0122115
-0.0126313
-0.0122942
-0.0125486
-0.0128856
-0.013337
-0.0135079
-0.0131113
-0.0134225
-0.0131968
-0.0128856
-0.0135079
-0.0123769
-0.0131968
-0.0129424
-0.0126313
-0.0116422
-0.0109021
-0.0122115
-0.0112721
-0.0115568
-0.0119269
-0.0116422
-0.0122115
-0.0123769
-0.0119269
-0.0122942
-0.0120096
-0.0116422
-0.0109513
-0.0109021
-0.0112967
-0.0109267
-0.0112721
-0.0116422
-0.0123769
-0.0109513
-0.0120096
-0.0116641
-0.0112967
-0.0147505
-0.0152063
-0.0151712
-0.0149784
-0.0151888
-0.0149609
-0.0147505
-0.0143071
-0.0152063
-0.0145288
-0.0147567
-0.0149784
-0.0147505
-0.0151712
-0.0143058
-0.0149609
-0.0147385
-0.0145282
-0.0147505
-0.0143058
-0.0143071
-0.0145282
-0.0143064
-0.0145288
-0.0156754
-0.0152063
-0.0152869
-0.0154408
-0.0152466
-0.0154811
-0.0156754
-0.0160592
-0.0152063
-0.0158673
-0.0156328
-0.0154408
-0.0156754
-0.0152869
-0.016145
-0.0154811
-0.0157159
-0.0159102
-0.0156754
-0.016145
-0.0160592
-0.0159102
-0.0161021
-0.0158673
-0.0156045
-0.0151712
-0.0152063
-0.0153879
-0.0151888
-0.0154054
-0.0156045
-0.0152063
-0.0160592
-0.0154054
-0.0156328
-0.0158318
-0.0156045
-0.0159885
-0.0151712
-0.0157965
-0.0155799
-0.0153879
-0.0156045
-0.0160592
-0.0159885
-0.0158318
-0.0160239
-0.0157965
-0.0139008
-0.013337
-0.0143058
-0.0136189
-0.0138214
-0.0141033
-0.0139008
-0.0143058
-0.0144086
-0.0141033
-0.0143572
-0.0141547
-0.0139008
-0.0135079
-0.013337
-0.0137043
-0.0134225
-0.0136189
-0.0139008
-0.0144086
-0.0135079
-0.0141547
-0.0139583
-0.0137043
-0.014764
-0.0143058
-0.0151712
-0.0145349
-0.0147385
-0.0149676
-0.014764
-0.0144086
-0.0143058
-0.0145863
-0.0143572
-0.0145349
-0.014764
-0.0151712
-0.0151801
-0.0149676
-0.0151756
-0.0149721
-0.014764
-0.0151801
-0.0144086
-0.0149721
-0.0147943
-0.0145863
-0.0168411
-0.0171777
-0.0163755
-0.0170094
-0.0167766
-0.0166083
-0.0168411
-0.0163755
-0.0165146
-0.0166083
-0.0164451
-0.0166778
-0.0168411
-0.0172875
-0.0171777
-0.0170643
-0.0172326
-0.0170094
-0.0168411
-0.0165146
-0.0172875
-0.0166778
-0.016901
-0.0170643
-0.0167214
-0.0163755
-0.0171777
-0.0165485
-0.0167766
-0.0169496
-0.0167214
-0.0162509
-0.0163755
-0.0164861
-0.0163132
-0.0165485
-0.0167214
-0.0171777
-0.0170753
-0.0169496
-0.0171265
-0.0168984
-0.0167214
-0.0170753
-0.0162509
-0.0168984
-0.0166631
-0.0164861
-0.0176247
-0.0171777
-0.0172875
-0.0174012
-0.0172326
-0.0174561
-0.0176247
-0.0172875
-0.0180576
-0.0174561
-0.0176725
-0.0178411
-0.0176247
-0.0179717
-0.0171777
-0.0177982
-0.0175747
-0.0174012
-0.0176247
-0.0180576
-0.0179717
-0.0178411
-0.0180147
-0.0177982
-0.0177236
-0.0172875
-0.0173996
-0.0175055
-0.0173436
-0.0175616
-0.0177236
-0.0180576
-0.0172875
-0.0178906
-0.0176725
-0.0175055
-0.0177236
-0.0173996
-0.0181422
-0.0175616
-0.0177709
-0.0179329
-0.0177236
-0.0181422
-0.0180576
-0.0179329
-0.0180999
-0.0178906
-0.016614
-0.016982
-0.016145
-0.016798
-0.0165635
-0.0163795
-0.016614
-0.016145
-0.0162509
-0.0163795
-0.0161979
-0.0164324
-0.016614
-0.0170753
-0.016982
-0.0168446
-0.0170286
-0.016798
-0.016614
-0.0162509
-0.0170753
-0.0164324
-0.0166631
-0.0168446
-0.0165195
-0.016145
-0.016982
-0.0163322
-0.0165635
-0.0167507
-0.0165195
-0.0160592
-0.016145
-0.0162893
-0.0161021
-0.0163322
-0.0165195
-0.016982
-0.0168943
-0.0167507
-0.0169381
-0.0167069
-0.0165195
-0.0168943
-0.0160592
-0.0167069
-0.0164767
-0.0162893
-0.0175292
-0.0170753
-0.0171777
-0.0173022
-0.0171265
-0.0173534
-0.0175292
-0.0178897
-0.0170753
-0.0177094
-0.0174825
-0.0173022
-0.0175292
-0.0171777
-0.0179717
-0.0173534
-0.0175747
-0.0177505
-0.0175292
-0.0179717
-0.0178897
-0.0177505
-0.0179307
-0.0177094
-0.0174398
-0.016982
-0.0170753
-0.0172109
-0.0170286
-0.0172576
-0.0174398
-0.0170753
-0.0178897
-0.0172576
-0.0174825
-0.0176647
-0.0174398
-0.0178116
-0.016982
-0.0176257
-0.0173968
-0.0172109
-0.0174398
-0.0178897
-0.0178116
-0.0176647
-0.0178506
-0.0176257
-0.00215748
-0.00361817
-0.00255655
-0.00288783
-0.00308736
-0.00235702
-0.00215748
-0.00186869
-0.00361817
-0.00201309
-0.00274343
-0.00288783
-0.0040447
-0.00255655
-0.00361817
-0.00330063
-0.00308736
-0.00383144
-0.0040447
-0.00361817
-0.00547144
-0.00383144
-0.00454481
-0.00475807
-0.0040447
-0.00469668
-0.00255655
-0.00437069
-0.00362661
-0.00330063
-0.0040447
-0.00547144
-0.00469668
-0.00475807
-0.00508406
-0.00437069
-0.00608261
-0.0069816
-0.00469668
-0.00653211
-0.00583914
-0.00538964
-0.00608261
-0.00469668
-0.00547144
-0.00538964
-0.00508406
-0.00577703
-0.00608261
-0.00738463
-0.0069816
-0.00673362
-0.00718311
-0.00653211
-0.00608261
-0.00547144
-0.00738463
-0.00577703
-0.00642803
-0.00673362
-0.00303988
-0.00255655
-0.00469668
-0.00279822
-0.00362661
-0.00386828
-0.00303988
-0.00469668
-0.00372272
-0.00386828
-0.0042097
-0.0033813
-0.00541034
-0.00469668
-0.0069816
-0.00505351
-0.00583914
-0.00619597
-0.00541034
-0.00372272
-0.00469668
-0.00456653
-0.0042097
-0.00505351
-0.00541034
-0.0069816
-0.006537
-0.00619597
-0.0067593
-0.00597367
-0.00541034
-0.006537
-0.00372272
-0.00597367
-0.00512986
-0.00456653
-0.00819432
-0.0069816
-0.00738463
-0.00758796
-0.00718311
-0.00778947
-0.00819432
-0.00738463
-0.00925433
-0.00778947
-0.00831948
-0.00872433
-0.00819432
-0.00926188
-0.0069816
-0.0087281
-0.00812174
-0.00758796
-0.00819432
-0.00925433
-0.00926188
-0.00872433
-0.00925811
-0.0087281
-0.0102144
-0.0109513
-0.0112964
-0.0105829
-0.0111238
-0.0107554
-0.0102144
-0.00925433
-0.0109513
-0.00973439
-0.0101028
-0.0105829
-0.0102144
-0.0112964
-0.00926188
-0.0107554
-0.0102791
-0.00973816
-0.0102144
-0.00926188
-0.00925433
-0.00973816
-0.00925811
-0.00973439
-0.011925
-0.0112964
-0.0109513
-0.0116107
-0.0111238
-0.0114381
-0.011925
-0.0109513
-0.0123769
-0.0114381
-0.0116641
-0.0121509
-0.011925
-0.0128561
-0.0112964
-0.0123905
-0.0120762
-0.0116107
-0.011925
-0.0123769
-0.0128561
-0.0121509
-0.0126165
-0.0123905
-0.0105965
-0.00926188
-0.0112964
-0.00992917
-0.0102791
-0.0109464
-0.0105965
-0.00954347
-0.00926188
-0.01007
-0.00940268
-0.00992917
-0.0105965
-0.0112964
-0.0121451
-0.0109464
-0.0117207
-0.0113708
-0.0105965
-0.0121451
-0.00954347
-0.0113708
-0.0108443
-0.01007
-0.00800919
-0.0069816
-0.00926188
-0.0074954
-0.00812174
-0.00863554
-0.00800919
-0.00926188
-0.00954347
-0.00863554
-0.00940268
-0.00877633
-0.00800919
-0.006537
-0.0069816
-0.00727309
-0.0067593
-0.0074954
-0.00800919
-0.00954347
-0.006537
-0.00877633
-0.00804024
-0.00727309
-0.0132042
-0.0139205
-0.0128561
-0.0135623
-0.0133883
-0.0130301
-0.0132042
-0.0128561
-0.0123769
-0.0130301
-0.0126165
-0.0127905
-0.0132042
-0.0135079
-0.0139205
-0.013356
-0.0137142
-0.0135623
-0.0132042
-0.0123769
-0.0135079
-0.0127905
-0.0129424
-0.013356
-0.0126588
-0.0112964
-0.0128561
-0.0119776
-0.0120762
-0.0127575
-0.0126588
-0.0128561
-0.0138994
-0.0127575
-0.0133777
-0.0132791
-0.0126588
-0.0121451
-0.0112964
-0.012402
-0.0117207
-0.0119776
-0.0126588
-0.0138994
-0.0121451
-0.0132791
-0.0130222
-0.012402
-0.0138863
-0.0128561
-0.0139205
-0.0133712
-0.0133883
-0.0139034
-0.0138863
-0.0138994
-0.0128561
-0.0138929
-0.0133777
-0.0133712
-0.0138863
-0.0139205
-0.0146811
-0.0139034
-0.0143008
-0.0142837
-0.0138863
-0.0146811
-0.0138994
-0.0142837
-0.0142902
-0.0138929
-0.0141215
-0.0139205
-0.0135079
-0.014021
-0.0137142
-0.0138147
-0.0141215
-0.0135079
-0.0144086
-0.0138147
-0.0139583
-0.014265
-0.0141215
-0.0146343
-0.0139205
-0.0143779
-0.0142774
-0.014021
-0.0141215
-0.0144086
-0.0146343
-0.014265
-0.0145214
-0.0143779
-0.00453351
-0.006537
-0.00586168
-0.00553525
-0.00619934
-0.0051976
-0.00453351
-0.00372272
-0.006537
-0.00412812
-0.00512986
-0.00553525
-0.00783459
-0.00586168
-0.006537
-0.00684814
-0.00619934
-0.00718579
-0.00783459
-0.006537
-0.00954347
-0.00718579
-0.00804024
-0.00868903
-0.00783459
-0.00998863
-0.00586168
-0.00891161
-0.00792516
-0.00684814
-0.00783459
-0.00954347
-0.00998863
-0.00868903
-0.00976605
-0.00891161
-0.0115252
-0.0121451
-0.014146
-0.0118352
-0.0131456
-0.0128356
-0.0115252
-0.00954347
-0.0121451
-0.0105344
-0.0108443
-0.0118352
-0.0115252
-0.014146
-0.00998863
-0.0128356
-0.0120673
-0.0107569
-0.0115252
-0.00998863
-0.00954347
-0.0107569
-0.00976605
-0.0105344
-0.0142782
-0.014146
-0.0121451
-0.0142121
-0.0131456
-0.0132116
-0.0142782
-0.0121451
-0.0138994
-0.0132116
-0.0130222
-0.0140888
-0.0142782
-0.0159784
-0.014146
-0.0151283
-0.0150622
-0.0142121
-0.0142782
-0.0138994
-0.0159784
-0.0140888
-0.0149389
-0.0151283
-0.0070981
-0.00586168
-0.00998863
-0.00647989
-0.00792516
-0.00854337
-0.0070981
-0.00998863
-0.0111249
-0.00854337
-0.0105568
-0.00911152
-0.0132285
-0.00998863
-0.014146
-0.0116086
-0.0120673
-0.0136873
-0.0132285
-0.0111249
-0.00998863
-0.0121767
-0.0105568
-0.0116086
-0.0132285
-0.014146
-0.0186035
-0.0136873
-0.0163747
-0.015916
-0.0132285
-0.0186035
-0.0111249
-0.015916
-0.0148642
-0.0121767
-0.0181934
-0.0186411
-0.0178116
-0.0184172
-0.0182263
-0.0180025
-0.0181934
-0.0178116
-0.0177319
-0.0180025
-0.0177717
-0.0179627
-0.0182611
-0.0178116
-0.0186411
-0.0180363
-0.0182263
-0.0184511
-0.0182611
-0.0178897
-0.0178116
-0.0180754
-0.0178506
-0.0180363
-0.0182611
-0.0186411
-0.0186988
-0.0184511
-0.0186699
-0.0184799
-0.0182611
-0.0186988
-0.0178897
-0.0184799
-0.0182942
-0.0180754
-0.0183305
-0.0186988
-0.018761
-0.0185147
-0.0187299
-0.0185458
-0.0183305
-0.0178897
-0.0186988
-0.0181101
-0.0182942
-0.0185147
-0.0183305
-0.018761
-0.0179717
-0.0185458
-0.0183664
-0.0181511
-0.0183305
-0.0179717
-0.0178897
-0.0181511
-0.0179307
-0.0181101
-0.0190809
-0.0186988
-0.0186411
-0.0188899
-0.0186699
-0.018861
-0.0190809
-0.0195016
-0.0186988
-0.0192913
-0.0191002
-0.0188899
-0.019127
-0.018761
-0.0186988
-0.018944
-0.0187299
-0.0189129
-0.019127
-0.0186988
-0.0195016
-0.0189129
-0.0191002
-0.0193143
-0.019127
-0.0195439
-0.018761
-0.0193355
-0.0191524
-0.018944
-0.019127
-0.0195016
-0.0195439
-0.0193143
-0.0195228
-0.0193355
-0.0184047
-0.0179717
-0.018761
-0.0181882
-0.0183664
-0.0185828
-0.0184047
-0.0180576
-0.0179717
-0.0182311
-0.0180147
-0.0181882
-0.0184047
-0.018761
-0.018828
-0.0185828
-0.0187945
-0.0186163
-0.0184047
-0.018828
-0.0180576
-0.0186163
-0.0184428
-0.0182311
-0.0184811
-0.018828
-0.018894
-0.0186545
-0.018861
-0.0186876
-0.0184811
-0.0180576
-0.018828
-0.0182693
-0.0184428
-0.0186545
-0.0184811
-0.018894
-0.0181422
-0.0186876
-0.0185181
-0.0183117
-0.0184811
-0.0181422
-0.0180576
-0.0183117
-0.0180999
-0.0182693
-0.0192436
-0.018894
-0.018828
-0.0190688
-0.018861
-0.0190358
-0.0192436
-0.018828
-0.0195981
-0.0190358
-0.019213
-0.0194209
-0.0192436
-0.019657
-0.018894
-0.0194503
-0.0192755
-0.0190688
-0.0192436
-0.0195981
-0.019657
-0.0194209
-0.0196276
-0.0194503
-0.0191823
-0.018828
-0.018761
-0.0190051
-0.0187945
-0.0189716
-0.0191823
-0.0195981
-0.018828
-0.0193902
-0.019213
-0.0190051
-0.0191823
-0.018761
-0.0195439
-0.0189716
-0.0191524
-0.0193631
-0.0191823
-0.0195439
-0.0195981
-0.0193631
-0.019571
-0.0193902
-0.0185523
-0.0181422
-0.018894
-0.0183473
-0.0185181
-0.0187232
-0.0185523
-0.0182172
-0.0181422
-0.0183848
-0.0181797
-0.0183473
-0.0185523
-0.018894
-0.0189481
-0.0187232
-0.0189211
-0.0187502
-0.0185523
-0.0189481
-0.0182172
-0.0187502
-0.0185826
-0.0183848
-0.0199144
-0.0203132
-0.0195439
-0.0201138
-0.0199286
-0.0197292
-0.0199144
-0.0195439
-0.0195016
-0.0197292
-0.0195228
-0.019708
-0.0199534
-0.0195439
-0.0203132
-0.0197487
-0.0199286
-0.0201333
-0.0199534
-0.0195981
-0.0195439
-0.0197758
-0.019571
-0.0197487
-0.0199534
-0.0203132
-0.0203615
-0.0201333
-0.0203374
-0.0201575
-0.0199534
-0.0203615
-0.0195981
-0.0201575
-0.0199798
-0.0197758
-0.0200092
-0.0204288
-0.019657
-0.020219
-0.0200429
-0.0198331
-0.0200092
-0.019657
-0.0195981
-0.0198331
-0.0196276
-0.0198037
-0.0200092
-0.0203615
-0.0204288
-0.0201854
-0.0203952
-0.020219
-0.0200092
-0.0195981
-0.0203615
-0.0198037
-0.0199798
-0.0201854
-0.0193017
-0.018894
-0.019657
-0.0190979
-0.0192755
-0.0194793
-0.0193017
-0.019657
-0.0197055
-0.0194793
-0.0196813
-0.0195036
-0.0193017
-0.0189481
-0.018894
-0.0191249
-0.0189211
-0.0190979
-0.0193017
-0.0197055
-0.0189481
-0.0195036
-0.0193268
-0.0191249
-0.0200698
-0.019657
-0.0204288
-0.0198634
-0.0200429
-0.0202493
-0.0200698
-0.0197055
-0.019657
-0.0198877
-0.0196813
-0.0198634
-0.0200698
-0.0204288
-0.0204941
-0.0202493
-0.0204615
-0.020282
-0.0200698
-0.0204941
-0.0197055
-0.020282
-0.0200998
-0.0198877
-0.0207069
-0.0203615
-0.0203132
-0.0205342
-0.0203374
-0.0205101
-0.0207069
-0.0211047
-0.0203615
-0.0209058
-0.0207331
-0.0205342
-0.0207694
-0.0204288
-0.0203615
-0.0205991
-0.0203952
-0.0205655
-0.0207694
-0.0203615
-0.0211047
-0.0205655
-0.0207331
-0.020937
-0.0207694
-0.0211991
-0.0204288
-0.0209842
-0.0208139
-0.0205991
-0.0207694
-0.0211047
-0.0211991
-0.020937
-0.0211519
-0.0209842
-0.0186068
-0.0189481
-0.0189751
-0.0187774
-0.0189616
-0.0187909
-0.0186068
-0.0182172
-0.0189481
-0.018412
-0.0185826
-0.0187774
-0.0186068
-0.0189751
-0.0182717
-0.0187909
-0.0186234
-0.0184393
-0.0186068
-0.0182717
-0.0182172
-0.0184393
-0.0182445
-0.018412
-0.0193406
-0.0189751
-0.0189481
-0.0191579
-0.0189616
-0.0191443
-0.0193406
-0.0189481
-0.0197055
-0.0191443
-0.0193268
-0.0195231
-0.0193406
-0.0197221
-0.0189751
-0.0195313
-0.0193486
-0.0191579
-0.0193406
-0.0197055
-0.0197221
-0.0195231
-0.0197138
-0.0195313
-0.0186307
-0.0182717
-0.0189751
-0.0184512
-0.0186234
-0.0188029
-0.0186307
-0.0182946
-0.0182717
-0.0184626
-0.0182831
-0.0184512
-0.0186307
-0.0189751
-0.018959
-0.0188029
-0.018967
-0.0187948
-0.0186307
-0.018959
-0.0182946
-0.0187948
-0.0186268
-0.0184626
-0.0186105
-0.0188853
-0.018276
-0.0187479
-0.0185806
-0.0184432
-0.0186105
-0.018276
-0.0182946
-0.0184432
-0.0182853
-0.0184525
-0.0186105
-0.018959
-0.0188853
-0.0187847
-0.0189221
-0.0187479
-0.0186105
-0.0182946
-0.018959
-0.0184525
-0.0186268
-0.0187847
-0.0185355
-0.018276
-0.0188853
-0.0184057
-0.0185806
-0.0187104
-0.0185355
-0.0182095
-0.018276
-0.0183725
-0.0182428
-0.0184057
-0.0185355
-0.0188853
-0.0187446
-0.0187104
-0.0188149
-0.01864
-0.0185355
-0.0187446
-0.0182095
-0.01864
-0.0184771
-0.0183725
-0.0179878
-0.0177155
-0.018276
-0.0178516
-0.0179957
-0.0181319
-0.0179878
-0.018276
-0.0182095
-0.0181319
-0.0182428
-0.0180987
-0.0179878
-0.0177255
-0.0177155
-0.0178566
-0.0177205
-0.0178516
-0.0179878
-0.0182095
-0.0177255
-0.0180987
-0.0179675
-0.0178566
-0.0192803
-0.0188853
-0.018959
-0.0190828
-0.0189221
-0.0191196
-0.0192803
-0.018959
-0.019682
-0.0191196
-0.0193205
-0.0194812
-0.0192803
-0.0195632
-0.0188853
-0.0194217
-0.0192243
-0.0190828
-0.0192803
-0.019682
-0.0195632
-0.0194812
-0.0196226
-0.0194217
-0.0193404
-0.018959
-0.0189751
-0.0191497
-0.018967
-0.0191578
-0.0193404
-0.019682
-0.018959
-0.0195112
-0.0193205
-0.0191497
-0.0193404
-0.0189751
-0.0197221
-0.0191578
-0.0193486
-0.0195312
-0.0193404
-0.0197221
-0.019682
-0.0195312
-0.0197021
-0.0195112
-0.0179372
-0.0177009
-0.0177255
-0.0178191
-0.0177132
-0.0178314
-0.0179372
-0.0177255
-0.0182095
-0.0178314
-0.0179675
-0.0180734
-0.0179372
-0.0180932
-0.0177009
-0.0180152
-0.0178971
-0.0178191
-0.0179372
-0.0182095
-0.0180932
-0.0180734
-0.0181514
-0.0180152
-0.0175164
-0.0177255
-0.0177009
-0.0176209
-0.0177132
-0.0176087
-0.0175164
-0.0172766
-0.0177255
-0.0173965
-0.017501
-0.0176209
-0.0175164
-0.0177009
-0.0173418
-0.0176087
-0.0175213
-0.0174291
-0.0175164
-0.0173418
-0.0172766
-0.0174291
-0.0173092
-0.0173965
-0.0184002
-0.0187446
-0.0185339
-0.0185724
-0.0186392
-0.0184671
-0.0184002
-0.0182095
-0.0187446
-0.0183049
-0.0184771
-0.0185724
-0.0184002
-0.0185339
-0.0180932
-0.0184671
-0.0183135
-0.0182467
-0.0184002
-0.0180932
-0.0182095
-0.0182467
-0.0181514
-0.0183049
-0.0191438
-0.0187446
-0.0188853
-0.0189442
-0.0188149
-0.0190146
-0.0191438
-0.0193512
-0.0187446
-0.0192475
-0.0190479
-0.0189442
-0.0191438
-0.0188853
-0.0195632
-0.0190146
-0.0192243
-0.0193535
-0.0191438
-0.0195632
-0.0193512
-0.0193535
-0.0194572
-0.0192475
-0.0189232
-0.0185339
-0.0187446
-0.0187285
-0.0186392
-0.0188339
-0.0189232
-0.0187446
-0.0193512
-0.0188339
-0.0190479
-0.0191372
-0.0189232
-0.0190422
-0.0185339
-0.0189827
-0.018788
-0.0187285
-0.0189232
-0.0193512
-0.0190422
-0.0191372
-0.0191967
-0.0189827
-0.0178448
-0.0177009
-0.0180932
-0.0177729
-0.0178971
-0.017969
-0.0178448
-0.0180932
-0.0179294
-0.017969
-0.0180113
-0.0178871
-0.0178448
-0.017644
-0.0177009
-0.0177444
-0.0176724
-0.0177729
-0.0178448
-0.0179294
-0.017644
-0.0178871
-0.0177867
-0.0177444
-0.0182054
-0.0180932
-0.0185339
-0.0181493
-0.0183135
-0.0183696
-0.0182054
-0.0179294
-0.0180932
-0.0180674
-0.0180113
-0.0181493
-0.0182054
-0.0185339
-0.0182567
-0.0183696
-0.0183953
-0.018231
-0.0182054
-0.0182567
-0.0179294
-0.018231
-0.018093
-0.0180674
-0.017522
-0.0173418
-0.0177009
-0.0174319
-0.0175213
-0.0176115
-0.017522
-0.0173864
-0.0173418
-0.0174542
-0.0173641
-0.0174319
-0.017522
-0.0177009
-0.017644
-0.0176115
-0.0176724
-0.017583
-0.017522
-0.017644
-0.0173864
-0.017583
-0.0175152
-0.0174542
-0.0172238
-0.0170037
-0.0173418
-0.0171137
-0.0171727
-0.0172828
-0.0172238
-0.0173418
-0.0173864
-0.0172828
-0.0173641
-0.0173051
-0.0172238
-0.0171452
-0.0170037
-0.0171845
-0.0170745
-0.0171137
-0.0172238
-0.0173864
-0.0171452
-0.0173051
-0.0172658
-0.0171845
-0.0201103
-0.0197221
-0.0205261
-0.0199162
-0.0201241
-0.0203182
-0.0201103
-0.019682
-0.0197221
-0.0198961
-0.0197021
-0.0199162
-0.0201103
-0.0205261
-0.0204858
-0.0203182
-0.0205059
-0.020298
-0.0201103
-0.0204858
-0.019682
-0.020298
-0.0200839
-0.0198961
-0.0201136
-0.0205261
-0.0197221
-0.0203198
-0.0201241
-0.0199178
-0.0201136
-0.0197221
-0.0197055
-0.0199178
-0.0197138
-0.0199095
-0.0201136
-0.0204941
-0.0205261
-0.0203039
-0.0205101
-0.0203198
-0.0201136
-0.0197055
-0.0204941
-0.0199095
-0.0200998
-0.0203039
-0.0200269
-0.020337
-0.0195632
-0.020182
-0.0199501
-0.0197951
-0.0200269
-0.0195632
-0.019682
-0.0197951
-0.0196226
-0.0198545
-0.0200269
-0.0204858
-0.020337
-0.0202563
-0.0204114
-0.020182
-0.0200269
-0.019682
-0.0204858
-0.0198545
-0.0200839
-0.0202563
-0.019837
-0.0195632
-0.020337
-0.0197001
-0.0199501
-0.020087
-0.019837
-0.0193512
-0.0195632
-0.0195941
-0.0194572
-0.0197001
-0.019837
-0.020337
-0.0200571
-0.020087
-0.0201971
-0.019947
-0.019837
-0.0200571
-0.0193512
-0.019947
-0.0197041
-0.0195941
-0.0209605
-0.0204858
-0.0205261
-0.0207231
-0.0205059
-0.0207433
-0.0209605
-0.0214012
-0.0204858
-0.0211808
-0.0209435
-0.0207231
-0.0209605
-0.0205261
-0.0214028
-0.0207433
-0.0209645
-0.0211816
-0.0209605
-0.0214028
-0.0214012
-0.0211816
-0.021402
-0.0211808
-0.0208811
-0.020337
-0.0204858
-0.020609
-0.0204114
-0.0206834
-0.0208811
-0.0204858
-0.0214012
-0.0206834
-0.0209435
-0.0211411
-0.0208811
-0.0212467
-0.020337
-0.0210639
-0.0207919
-0.020609
-0.0208811
-0.0214012
-0.0212467
-0.0211411
-0.021324
-0.0210639
-0.0209332
-0.0205261
-0.0204941
-0.0207297
-0.0205101
-0.0207137
-0.0209332
-0.0204941
-0.0213146
-0.0207137
-0.0209044
-0.0211239
-0.0209332
-0.0214028
-0.0205261
-0.021168
-0.0209645
-0.0207297
-0.0209332
-0.0213146
-0.0214028
-0.0211239
-0.0213587
-0.021168
-0.0208544
-0.0204941
-0.0204288
-0.0206743
-0.0204615
-0.0206416
-0.0208544
-0.0213146
-0.0204941
-0.0210845
-0.0209044
-0.0206743
-0.0208544
-0.0204288
-0.0211991
-0.0206416
-0.0208139
-0.0210267
-0.0208544
-0.0211991
-0.0213146
-0.0210267
-0.0212568
-0.0210845
-0.0171247
-0.0171452
-0.0172802
-0.017135
-0.0172127
-0.0172024
-0.0171247
-0.0169112
-0.0171452
-0.0170179
-0.0170282
-0.017135
-0.0171247
-0.0172802
-0.0171452
-0.0172024
-0.0172127
-0.017135
-0.0171247
-0.0171452
-0.0169112
-0.017135
-0.0170282
-0.0170179
-0.0173099
-0.0172802
-0.0171452
-0.017295
-0.0172127
-0.0172276
-0.0173099
-0.0171452
-0.0173864
-0.0172276
-0.0172658
-0.0173482
-0.0173099
-0.0174153
-0.0172802
-0.0173626
-0.0173477
-0.017295
-0.0173099
-0.0173864
-0.0174153
-0.0173482
-0.0174009
-0.0173626
-0.0173099
-0.0171452
-0.0172802
-0.0172276
-0.0172127
-0.017295
-0.0173099
-0.0173864
-0.0171452
-0.0173482
-0.0172658
-0.0172276
-0.0173099
-0.0172802
-0.0174153
-0.017295
-0.0173477
-0.0173626
-0.0173099
-0.0174153
-0.0173864
-0.0173626
-0.0174009
-0.0173482
-0.0172238
-0.0170037
-0.0171452
-0.0171137
-0.0170745
-0.0171845
-0.0172238
-0.0171452
-0.0173864
-0.0171845
-0.0172658
-0.0173051
-0.0172238
-0.0173418
-0.0170037
-0.0172828
-0.0171727
-0.0171137
-0.0172238
-0.0173864
-0.0173418
-0.0173051
-0.0173641
-0.0172828
-0.0175031
-0.0175597
-0.0174153
-0.0175314
-0.0174875
-0.0174592
-0.0175031
-0.0174153
-0.0173864
-0.0174592
-0.0174009
-0.0174448
-0.0175031
-0.017644
-0.0175597
-0.0175735
-0.0176018
-0.0175314
-0.0175031
-0.0173864
-0.017644
-0.0174448
-0.0175152
-0.0175735
-0.017388
-0.0172802
-0.0174153
-0.0173341
-0.0173477
-0.0174016
-0.017388
-0.0174153
-0.0174354
-0.0174016
-0.0174254
-0.0174117
-0.017388
-0.0174153
-0.0172802
-0.0174016
-0.0173477
-0.0173341
-0.017388
-0.0174354
-0.0174153
-0.0174117
-0.0174254
-0.0174016
-0.0174661
-0.0174153
-0.0175597
-0.0174407
-0.0174875
-0.0175129
-0.0174661
-0.0174354
-0.0174153
-0.0174508
-0.0174254
-0.0174407
-0.0174661
-0.0175597
-0.0174557
-0.0175129
-0.0175077
-0.0174609
-0.0174661
-0.0174557
-0.0174354
-0.0174609
-0.0174455
-0.0174508
-0.0177146
-0.0175597
-0.017644
-0.0176372
-0.0176018
-0.0176793
-0.0177146
-0.017644
-0.0179294
-0.0176793
-0.0177867
-0.017822
-0.0177146
-0.0177242
-0.0175597
-0.0177194
-0.0176419
-0.0176372
-0.0177146
-0.0179294
-0.0177242
-0.017822
-0.0178268
-0.0177194
-0.017522
-0.0177009
-0.0173418
-0.0176115
-0.0175213
-0.0174319
-0.017522
-0.0173418
-0.0173864
-0.0174319
-0.0173641
-0.0174542
-0.017522
-0.017644
-0.0177009
-0.017583
-0.0176724
-0.0176115
-0.017522
-0.0173864
-0.017644
-0.0174542
-0.0175152
-0.017583
-0.0175164
-0.0173418
-0.0177009
-0.0174291
-0.0175213
-0.0176087
-0.0175164
-0.0172766
-0.0173418
-0.0173965
-0.0173092
-0.0174291
-0.0175164
-0.0177009
-0.0177255
-0.0176087
-0.0177132
-0.0176209
-0.0175164
-0.0177255
-0.0172766
-0.0176209
-0.017501
-0.0173965
-0.0175031
-0.0174153
-0.0175597
-0.0174592
-0.0174875
-0.0175314
-0.0175031
-0.0173864
-0.0174153
-0.0174448
-0.0174009
-0.0174592
-0.0175031
-0.0175597
-0.017644
-0.0175314
-0.0176018
-0.0175735
-0.0175031
-0.017644
-0.0173864
-0.0175735
-0.0175152
-0.0174448
-0.0174661
-0.0175597
-0.0174153
-0.0175129
-0.0174875
-0.0174407
-0.0174661
-0.0174153
-0.0174354
-0.0174407
-0.0174254
-0.0174508
-0.0174661
-0.0174557
-0.0175597
-0.0174609
-0.0175077
-0.0175129
-0.0174661
-0.0174354
-0.0174557
-0.0174508
-0.0174455
-0.0174609
-0.0178448
-0.0177009
-0.017644
-0.0177729
-0.0176724
-0.0177444
-0.0178448
-0.017644
-0.0179294
-0.0177444
-0.0177867
-0.0178871
-0.0178448
-0.0180932
-0.0177009
-0.017969
-0.0178971
-0.0177729
-0.0178448
-0.0179294
-0.0180932
-0.0178871
-0.0180113
-0.017969
-0.0177146
-0.017644
-0.0175597
-0.0176793
-0.0176018
-0.0176372
-0.0177146
-0.0179294
-0.017644
-0.017822
-0.0177867
-0.0176793
-0.0177146
-0.0175597
-0.0177242
-0.0176372
-0.0176419
-0.0177194
-0.0177146
-0.0177242
-0.0179294
-0.0177194
-0.0178268
-0.017822
-0.0179372
-0.0177255
-0.0177009
-0.0178314
-0.0177132
-0.0178191
-0.0179372
-0.0182095
-0.0177255
-0.0180734
-0.0179675
-0.0178314
-0.0179372
-0.0177009
-0.0180932
-0.0178191
-0.0178971
-0.0180152
-0.0179372
-0.0180932
-0.0182095
-0.0180152
-0.0181514
-0.0180734
-0.0179878
-0.0177155
-0.0177255
-0.0178516
-0.0177205
-0.0178566
-0.0179878
-0.0177255
-0.0182095
-0.0178566
-0.0179675
-0.0180987
-0.0179878
-0.018276
-0.0177155
-0.0181319
-0.0179957
-0.0178516
-0.0179878
-0.0182095
-0.018276
-0.0180987
-0.0182428
-0.0181319
-0.0179567
-0.0182567
-0.0179215
-0.0181067
-0.0180891
-0.0179391
-0.0179567
-0.0179294
-0.0182567
-0.017943
-0.018093
-0.0181067
-0.0179567
-0.0179215
-0.0177242
-0.0179391
-0.0178228
-0.0178404
-0.0179567
-0.0177242
-0.0179294
-0.0178404
-0.0178268
-0.017943
-0.0182433
-0.0179215
-0.0182567
-0.0180824
-0.0180891
-0.01825
-0.0182433
-0.0182567
-0.0186426
-0.01825
-0.0184496
-0.018443
-0.0182433
-0.0181656
-0.0179215
-0.0182045
-0.0180435
-0.0180824
-0.0182433
-0.0186426
-0.0181656
-0.018443
-0.0184041
-0.0182045
-0.01862
-0.0182567
-0.0185339
-0.0184383
-0.0183953
-0.0185769
-0.01862
-0.0186426
-0.0182567
-0.0186313
-0.0184496
-0.0184383
-0.01862
-0.0185339
-0.0190422
-0.0185769
-0.018788
-0.0188311
-0.01862
-0.0190422
-0.0186426
-0.0188311
-0.0188424
-0.0186313
-0.0176634
-0.0177242
-0.0179215
-0.0176938
-0.0178228
-0.0177924
-0.0176634
-0.0174866
-0.0177242
-0.017575
-0.0176054
-0.0176938
-0.0176634
-0.0179215
-0.0175396
-0.0177924
-0.0177306
-0.0176015
-0.0176634
-0.0175396
-0.0174866
-0.0176015
-0.0175131
-0.017575
-0.0175541
-0.0175597
-0.0177242
-0.0175569
-0.0176419
-0.0176392
-0.0175541
-0.0177242
-0.0174866
-0.0176392
-0.0176054
-0.0175203
-0.0175541
-0.0174557
-0.0175597
-0.0175049
-0.0175077
-0.0175569
-0.0175541
-0.0174866
-0.0174557
-0.0175203
-0.0174711
-0.0175049
-0.019529
-0.0196425
-0.0190422
-0.0195858
-0.0193423
-0.0192856
-0.019529
-0.0190422
-0.0193512
-0.0192856
-0.0191967
-0.0194401
-0.019529
-0.0200571
-0.0196425
-0.0197931
-0.0198498
-0.0195858
-0.019529
-0.0193512
-0.0200571
-0.0194401
-0.0197041
-0.0197931
-0.0191082
-0.0190422
-0.0196425
-0.0190752
-0.0193423
-0.0193753
-0.0191082
-0.0186426
-0.0190422
-0.0188754
-0.0188424
-0.0190752
-0.0191082
-0.0196425
-0.0191065
-0.0193753
-0.0193745
-0.0191073
-0.0191082
-0.0191065
-0.0186426
-0.0191073
-0.0188745
-0.0188754
-0.0202483
-0.0196425
-0.0200571
-0.0199454
-0.0198498
-0.0201527
-0.0202483
-0.0200571
-0.0209019
-0.0201527
-0.0204795
-0.0205751
-0.0202483
-0.0203661
-0.0196425
-0.0203072
-0.0200043
-0.0199454
-0.0202483
-0.0209019
-0.0203661
-0.0205751
-0.020634
-0.0203072
-0.0206492
-0.0200571
-0.020337
-0.0203532
-0.0201971
-0.0204931
-0.0206492
-0.0209019
-0.0200571
-0.0207756
-0.0204795
-0.0203532
-0.0206492
-0.020337
-0.0212467
-0.0204931
-0.0207919
-0.020948
-0.0206492
-0.0212467
-0.0209019
-0.020948
-0.0210743
-0.0207756
-0.0185905
-0.0184714
-0.0181656
-0.0185309
-0.0183185
-0.018378
-0.0185905
-0.0181656
-0.0186426
-0.018378
-0.0184041
-0.0186165
-0.0185905
-0.0191065
-0.0184714
-0.0188485
-0.0187889
-0.0185309
-0.0185905
-0.0186426
-0.0191065
-0.0186165
-0.0188745
-0.0188485
-0.0178062
-0.0179215
-0.0181656
-0.0178638
-0.0180435
-0.0179859
-0.0178062
-0.0181656
-0.017627
-0.0179859
-0.0178963
-0.0177166
-0.0178062
-0.0175396
-0.0179215
-0.0176729
-0.0177306
-0.0178638
-0.0178062
-0.017627
-0.0175396
-0.0177166
-0.0175833
-0.0176729
-0.0179955
-0.0181656
-0.0184714
-0.0180806
-0.0183185
-0.0182335
-0.0179955
-0.017627
-0.0181656
-0.0178113
-0.0178963
-0.0180806
-0.0179955
-0.0184714
-0.0177597
-0.0182335
-0.0181156
-0.0178776
-0.0179955
-0.0177597
-0.017627
-0.0178776
-0.0176934
-0.0178113
-0.0196932
-0.0191065
-0.0196425
-0.0193998
-0.0193745
-0.0196679
-0.0196932
-0.0196698
-0.0191065
-0.0196815
-0.0193881
-0.0193998
-0.0196932
-0.0196425
-0.0203661
-0.0196679
-0.0200043
-0.0200296
-0.0196932
-0.0203661
-0.0196698
-0.0200296
-0.0200179
-0.0196815
-0.0190147
-0.0184714
-0.0191065
-0.0187431
-0.0187889
-0.0190606
-0.0190147
-0.0191065
-0.0196698
-0.0190606
-0.0193881
-0.0193422
-0.0190147
-0.0188518
-0.0184714
-0.0189332
-0.0186616
-0.0187431
-0.0190147
-0.0196698
-0.0188518
-0.0193422
-0.0192608
-0.0189332
-0.0174193
-0.0174557
-0.0173412
-0.0174375
-0.0173984
-0.0173802
-0.0174193
-0.0174354
-0.0174557
-0.0174273
-0.0174455
-0.0174375
-0.0174193
-0.0173412
-0.0174557
-0.0173802
-0.0173984
-0.0174375
-0.0174193
-0.0174557
-0.0174354
-0.0174375
-0.0174455
-0.0174273
-0.0173724
-0.0173412
-0.0174557
-0.0173568
-0.0173984
-0.017414
-0.0173724
-0.0174557
-0.0174866
-0.017414
-0.0174711
-0.0174295
-0.0173724
-0.0172268
-0.0173412
-0.0172996
-0.017284
-0.0173568
-0.0173724
-0.0174866
-0.0172268
-0.0174295
-0.0173567
-0.0172996
-0.0173724
-0.0174557
-0.0173412
-0.017414
-0.0173984
-0.0173568
-0.0173724
-0.0174866
-0.0174557
-0.0174295
-0.0174711
-0.017414
-0.0173724
-0.0173412
-0.0172268
-0.0173568
-0.017284
-0.0172996
-0.0173724
-0.0172268
-0.0174866
-0.0172996
-0.0173567
-0.0174295
-0.0175541
-0.0175597
-0.0174557
-0.0175569
-0.0175077
-0.0175049
-0.0175541
-0.0174557
-0.0174866
-0.0175049
-0.0174711
-0.0175203
-0.0175541
-0.0177242
-0.0175597
-0.0176392
-0.0176419
-0.0175569
-0.0175541
-0.0174866
-0.0177242
-0.0175203
-0.0176054
-0.0176392
-0.0173364
-0.0175396
-0.0171236
-0.017438
-0.0173316
-0.01723
-0.0173364
-0.0174866
-0.0175396
-0.0174115
-0.0175131
-0.017438
-0.0173364
-0.0171236
-0.0172268
-0.01723
-0.0171752
-0.0172816
-0.0173364
-0.0172268
-0.0174866
-0.0172816
-0.0173567
-0.0174115
-0.0173225
-0.0171236
-0.0175396
-0.0172231
-0.0173316
-0.0174311
-0.0173225
-0.0175396
-0.017627
-0.0174311
-0.0175833
-0.0174748
-0.0173225
-0.0170418
-0.0171236
-0.0171822
-0.0170827
-0.0172231
-0.0173225
-0.017627
-0.0170418
-0.0174748
-0.0173344
-0.0171822
-0.0171799
-0.0173412
-0.0172268
-0.0172606
-0.017284
-0.0172034
-0.0171799
-0.0172268
-0.0169562
-0.0172034
-0.0170915
-0.0170681
-0.0171799
-0.0172268
-0.0173412
-0.0172034
-0.017284
-0.0172606
-0.0171799
-0.0169562
-0.0172268
-0.0170681
-0.0170915
-0.0172034
-0.0169874
-0.0172268
-0.0171236
-0.0171071
-0.0171752
-0.0170555
-0.0169874
-0.0169562
-0.0172268
-0.0169718
-0.0170915
-0.0171071
-0.0169874
-0.0171236
-0.0166851
-0.0170555
-0.0169044
-0.0168363
-0.0169874
-0.0166851
-0.0169562
-0.0168363
-0.0168207
-0.0169718
-0.0215038
-0.0219475
-0.0211991
-0.0217257
-0.0215733
-0.0213515
-0.0215038
-0.0211991
-0.0211047
-0.0213515
-0.0211519
-0.0213043
-0.0216438
-0.0211991
-0.0219475
-0.0214214
-0.0215733
-0.0217957
-0.0216438
-0.0213146
-0.0211991
-0.0214792
-0.0212568
-0.0214214
-0.0216438
-0.0219475
-0.0221564
-0.0217957
-0.022052
-0.0219001
-0.0216438
-0.0221564
-0.0213146
-0.0219001
-0.0217355
-0.0214792
-0.0218035
-0.0221564
-0.0223698
-0.02198
-0.0222631
-0.0220867
-0.0218035
-0.0213146
-0.0221564
-0.0215591
-0.0217355
-0.02198
-0.0218035
-0.0223698
-0.0214028
-0.0220867
-0.0218863
-0.0216032
-0.0218035
-0.0214028
-0.0213146
-0.0216032
-0.0213587
-0.0215591
-0.0224041
-0.0221564
-0.0219475
-0.0222803
-0.022052
-0.0221758
-0.0224041
-0.0229958
-0.0221564
-0.0227
-0.0225761
-0.0222803
-0.022716
-0.0223698
-0.0221564
-0.0225429
-0.0222631
-0.0224362
-0.022716
-0.0221564
-0.0229958
-0.0224362
-0.0225761
-0.0228559
-0.022716
-0.0234352
-0.0223698
-0.0230756
-0.0229025
-0.0225429
-0.022716
-0.0229958
-0.0234352
-0.0228559
-0.0232155
-0.0230756
-0.0219175
-0.0214028
-0.0223698
-0.0216601
-0.0218863
-0.0221436
-0.0219175
-0.0214012
-0.0214028
-0.0216593
-0.021402
-0.0216601
-0.0219175
-0.0223698
-0.0224751
-0.0221436
-0.0224224
-0.0221963
-0.0219175
-0.0224751
-0.0214012
-0.0221963
-0.0219382
-0.0216593
-0.0218898
-0.0223573
-0.0212467
-0.0221235
-0.021802
-0.0215682
-0.0218898
-0.0212467
-0.0214012
-0.0215682
-0.021324
-0.0216455
-0.0218898
-0.0224751
-0.0223573
-0.0221824
-0.0224162
-0.0221235
-0.0218898
-0.0214012
-0.0224751
-0.0216455
-0.0219382
-0.0221824
-0.0216329
-0.0212467
-0.0223573
-0.0214398
-0.021802
-0.0219951
-0.0216329
-0.0209019
-0.0212467
-0.0212674
-0.0210743
-0.0214398
-0.0216329
-0.0223573
-0.0219444
-0.0219951
-0.0221508
-0.0217886
-0.0216329
-0.0219444
-0.0209019
-0.0217886
-0.0214232
-0.0212674
-0.0231324
-0.0223573
-0.0224751
-0.0227448
-0.0224162
-0.0228037
-0.0231324
-0.0224751
-0.0237886
-0.0228037
-0.0231318
-0.0234605
-0.0231324
-0.0237828
-0.0223573
-0.0234576
-0.02307
-0.0227448
-0.0231324
-0.0237886
-0.0237828
-0.0234605
-0.0237857
-0.0234576
-0.023015
-0.0224751
-0.0223698
-0.0227451
-0.0224224
-0.0226924
-0.023015
-0.0237886
-0.0224751
-0.0234018
-0.0231318
-0.0227451
-0.023015
-0.0223698
-0.0234352
-0.0226924
-0.0229025
-0.0232251
-0.023015
-0.0234352
-0.0237886
-0.0232251
-0.0236119
-0.0234018
-0.0211225
-0.0219444
-0.021253
-0.0215334
-0.0215987
-0.0211877
-0.0211225
-0.0209019
-0.0219444
-0.0210122
-0.0214232
-0.0215334
-0.0211225
-0.021253
-0.0203661
-0.0211877
-0.0208096
-0.0207443
-0.0211225
-0.0203661
-0.0209019
-0.0207443
-0.020634
-0.0210122
-0.0228751
-0.0219444
-0.0223573
-0.0224097
-0.0221508
-0.0226162
-0.0228751
-0.0232839
-0.0219444
-0.0230795
-0.0226141
-0.0224097
-0.0228751
-0.0223573
-0.0237828
-0.0226162
-0.02307
-0.0233289
-0.0228751
-0.0237828
-0.0232839
-0.0233289
-0.0235333
-0.0230795
-0.022207
-0.021253
-0.0219444
-0.02173
-0.0215987
-0.0220757
-0.022207
-0.0219444
-0.0232839
-0.0220757
-0.0226141
-0.0227454
-0.022207
-0.0223444
-0.021253
-0.0222757
-0.0217987
-0.02173
-0.022207
-0.0232839
-0.0223444
-0.0227454
-0.0228141
-0.0222757
-0.0204012
-0.0203661
-0.021253
-0.0203836
-0.0208096
-0.0208271
-0.0204012
-0.0196698
-0.0203661
-0.0200355
-0.0200179
-0.0203836
-0.0204012
-0.021253
-0.0203512
-0.0208271
-0.0208021
-0.0203762
-0.0204012
-0.0203512
-0.0196698
-0.0203762
-0.0200105
-0.0200355
-0.0236105
-0.0246131
-0.0234352
-0.0241118
-0.0240241
-0.0235228
-0.0236105
-0.0234352
-0.0229958
-0.0235228
-0.0232155
-0.0233031
-0.0242792
-0.0234352
-0.0246131
-0.0238572
-0.0240241
-0.0244461
-0.0242792
-0.0237886
-0.0234352
-0.0240339
-0.0236119
-0.0238572
-0.0242792
-0.0246131
-0.0254661
-0.0244461
-0.0250396
-0.0248726
-0.0242792
-0.0254661
-0.0237886
-0.0248726
-0.0246273
-0.0240339
-0.0247623
-0.0257921
-0.0237828
-0.0252772
-0.0247874
-0.0242725
-0.0247623
-0.0237828
-0.0237886
-0.0242725
-0.0237857
-0.0242755
-0.0247623
-0.0254661
-0.0257921
-0.0251142
-0.0256291
-0.0252772
-0.0247623
-0.0237886
-0.0254661
-0.0242755
-0.0246273
-0.0251142
-0.0245411
-0.0237828
-0.0257921
-0.0241619
-0.0247874
-0.0251666
-0.0245411
-0.0232839
-0.0237828
-0.0239125
-0.0235333
-0.0241619
-0.0245411
-0.0257921
-0.0250721
-0.0251666
-0.0254321
-0.0248066
-0.0245411
-0.0250721
-0.0232839
-0.0248066
-0.024178
-0.0239125
-0.0255762
-0.0254661
-0.0246131
-0.0255211
-0.0250396
-0.0250946
-0.0255762
-0.0279449
-0.0254661
-0.0267605
-0.0267055
-0.0255211
-0.0270861
-0.0257921
-0.0254661
-0.0264391
-0.0256291
-0.0262761
-0.0270861
-0.0254661
-0.0279449
-0.0262761
-0.0267055
-0.0275155
-0.0270861
-0.0291102
-0.0257921
-0.0280982
-0.0274511
-0.0264391
-0.0270861
-0.0279449
-0.0291102
-0.0275155
-0.0285276
-0.0280982
-0.0112771
-0.0186035
-0.0515279
-0.0149403
-0.0350657
-0.0314025
-0.0112771
-0.0111249
-0.0186035
-0.011201
-0.0148642
-0.0149403
-0.026301
-0.0515279
-0.0186035
-0.0389145
-0.0350657
-0.0224522
-0.026301
-0.0186035
-0.0209079
-0.0224522
-0.0197557
-0.0236045
-0.0180833
-0.0186035
-0.014146
-0.0183434
-0.0163747
-0.0161147
-0.0180833
-0.0209079
-0.0186035
-0.0194956
-0.0197557
-0.0183434
-0.0180833
-0.014146
-0.0159784
-0.0161147
-0.0150622
-0.0170308
-0.0180833
-0.0159784
-0.0209079
-0.0170308
-0.0184432
-0.0194956
-0.0168987
-0.0159784
-0.0160046
-0.0164385
-0.0159915
-0.0164516
-0.0168987
-0.0209079
-0.0159784
-0.0189033
-0.0184432
-0.0164385
-0.0151301
-0.0160046
-0.0159784
-0.0155674
-0.0159915
-0.0155543
-0.0151301
-0.0159784
-0.0138994
-0.0155543
-0.0149389
-0.0145148
-0.0151301
-0.0146811
-0.0160046
-0.0149056
-0.0153429
-0.0155674
-0.0151301
-0.0138994
-0.0146811
-0.0145148
-0.0142902
-0.0149056
-0.0150758
-0.0160046
-0.0146811
-0.0155402
-0.0153429
-0.0148784
-0.0150758
-0.0146811
-0.0149964
-0.0148784
-0.0148388
-0.0150361
-0.0145285
-0.0146811
-0.0139205
-0.0146048
-0.0143008
-0.0142245
-0.0145285
-0.0149964
-0.0146811
-0.0147625
-0.0148388
-0.0146048
-0.0145285
-0.0139205
-0.0146343
-0.0142245
-0.0142774
-0.0145814
-0.0145285
-0.0146343
-0.0149964
-0.0145814
-0.0148153
-0.0147625
-0.0149611
-0.0146343
-0.0152207
-0.0147977
-0.0149275
-0.0150909
-0.0149611
-0.0149964
-0.0146343
-0.0149788
-0.0148153
-0.0147977
-0.0148448
-0.0152207
-0.0146343
-0.0150328
-0.0149275
-0.0147395
-0.0148448
-0.0146343
-0.0144086
-0.0147395
-0.0145214
-0.0146267
-0.0148448
-0.0151801
-0.0152207
-0.0150124
-0.0152004
-0.0150328
-0.0148448
-0.0144086
-0.0151801
-0.0146267
-0.0147943
-0.0150124
-0.0155128
-0.0152207
-0.0151801
-0.0153668
-0.0152004
-0.0153464
-0.0155128
-0.0151801
-0.0159203
-0.0153464
-0.0155502
-0.0157166
-0.0155575
-0.0151801
-0.0151712
-0.0153688
-0.0151756
-0.0153644
-0.0155575
-0.0159203
-0.0151801
-0.0157389
-0.0155502
-0.0153688
-0.0155575
-0.0151712
-0.0159885
-0.0153644
-0.0155799
-0.015773
-0.0155575
-0.0159885
-0.0159203
-0.015773
-0.0159544
-0.0157389
-0.0163416
-0.0159885
-0.0168027
-0.0161651
-0.0163956
-0.0165721
-0.0163416
-0.0159203
-0.0159885
-0.0161309
-0.0159544
-0.0161651
-0.0164334
-0.0168027
-0.0159885
-0.0166181
-0.0163956
-0.016211
-0.0164334
-0.0159885
-0.0160592
-0.016211
-0.0160239
-0.0162463
-0.0164334
-0.0168943
-0.0168027
-0.0166639
-0.0168485
-0.0166181
-0.0164334
-0.0160592
-0.0168943
-0.0162463
-0.0164767
-0.0166639
-0.0172656
-0.0168027
-0.0168943
-0.0170341
-0.0168485
-0.0170799
-0.0172656
-0.0168943
-0.0177319
-0.0170799
-0.0173131
-0.0174988
-0.0173547
-0.0168943
-0.016982
-0.0171245
-0.0169381
-0.0171683
-0.0173547
-0.0177319
-0.0168943
-0.0175433
-0.0173131
-0.0171245
-0.0173547
-0.016982
-0.0178116
-0.0171683
-0.0173968
-0.0175831
-0.0173547
-0.0178116
-0.0177319
-0.0175831
-0.0177717
-0.0175433
-0.0181934
-0.0178116
-0.0186411
-0.0180025
-0.0182263
-0.0184172
-0.0181934
-0.0177319
-0.0178116
-0.0179627
-0.0177717
-0.0180025
-0.0182611
-0.0186411
-0.0178116
-0.0184511
-0.0182263
-0.0180363
-0.0182611
-0.0178116
-0.0178897
-0.0180363
-0.0178506
-0.0180754
-0.0182611
-0.0186988
-0.0186411
-0.0184799
-0.0186699
-0.0184511
-0.0182611
-0.0178897
-0.0186988
-0.0180754
-0.0182942
-0.0184799
-0.0183305
-0.018761
-0.0186988
-0.0185458
-0.0187299
-0.0185147
-0.0183305
-0.0186988
-0.0178897
-0.0185147
-0.0182942
-0.0181101
-0.0183305
-0.0179717
-0.018761
-0.0181511
-0.0183664
-0.0185458
-0.0183305
-0.0178897
-0.0179717
-0.0181101
-0.0179307
-0.0181511
-0.0190809
-0.0186411
-0.0186988
-0.018861
-0.0186699
-0.0188899
-0.0190809
-0.0186988
-0.0195016
-0.0188899
-0.0191002
-0.0192913
-0.019127
-0.0186988
-0.018761
-0.0189129
-0.0187299
-0.018944
-0.019127
-0.0195016
-0.0186988
-0.0193143
-0.0191002
-0.0189129
-0.019127
-0.018761
-0.0195439
-0.018944
-0.0191524
-0.0193355
-0.019127
-0.0195439
-0.0195016
-0.0193355
-0.0195228
-0.0193143
-0.0184047
-0.018761
-0.0179717
-0.0185828
-0.0183664
-0.0181882
-0.0184047
-0.0179717
-0.0180576
-0.0181882
-0.0180147
-0.0182311
-0.0184047
-0.018828
-0.018761
-0.0186163
-0.0187945
-0.0185828
-0.0184047
-0.0180576
-0.018828
-0.0182311
-0.0184428
-0.0186163
-0.0184811
-0.018894
-0.018828
-0.0186876
-0.018861
-0.0186545
-0.0184811
-0.018828
-0.0180576
-0.0186545
-0.0184428
-0.0182693
-0.0184811
-0.0181422
-0.018894
-0.0183117
-0.0185181
-0.0186876
-0.0184811
-0.0180576
-0.0181422
-0.0182693
-0.0180999
-0.0183117
-0.0192436
-0.018828
-0.018894
-0.0190358
-0.018861
-0.0190688
-0.0192436
-0.0195981
-0.018828
-0.0194209
-0.019213
-0.0190358
-0.0192436
-0.018894
-0.019657
-0.0190688
-0.0192755
-0.0194503
-0.0192436
-0.019657
-0.0195981
-0.0194503
-0.0196276
-0.0194209
-0.0191823
-0.018761
-0.018828
-0.0189716
-0.0187945
-0.0190051
-0.0191823
-0.018828
-0.0195981
-0.0190051
-0.019213
-0.0193902
-0.0191823
-0.0195439
-0.018761
-0.0193631
-0.0191524
-0.0189716
-0.0191823
-0.0195981
-0.0195439
-0.0193902
-0.019571
-0.0193631
-0.0185523
-0.018894
-0.0181422
-0.0187232
-0.0185181
-0.0183473
-0.0185523
-0.0181422
-0.0182172
-0.0183473
-0.0181797
-0.0183848
-0.0185523
-0.0189481
-0.018894
-0.0187502
-0.0189211
-0.0187232
-0.0185523
-0.0182172
-0.0189481
-0.0183848
-0.0185826
-0.0187502
-0.0199144
-0.0195439
-0.0203132
-0.0197292
-0.0199286
-0.0201138
-0.0199144
-0.0195016
-0.0195439
-0.019708
-0.0195228
-0.0197292
-0.0199534
-0.0203132
-0.0195439
-0.0201333
-0.0199286
-0.0197487
-0.0199534
-0.0195439
-0.0195981
-0.0197487
-0.019571
-0.0197758
-0.0199534
-0.0203615
-0.0203132
-0.0201575
-0.0203374
-0.0201333
-0.0199534
-0.0195981
-0.0203615
-0.0197758
-0.0199798
-0.0201575
-0.0200092
-0.019657
-0.0204288
-0.0198331
-0.0200429
-0.020219
-0.0200092
-0.0195981
-0.019657
-0.0198037
-0.0196276
-0.0198331
-0.0200092
-0.0204288
-0.0203615
-0.020219
-0.0203952
-0.0201854
-0.0200092
-0.0203615
-0.0195981
-0.0201854
-0.0199798
-0.0198037
-0.0193017
-0.019657
-0.018894
-0.0194793
-0.0192755
-0.0190979
-0.0193017
-0.0197055
-0.019657
-0.0195036
-0.0196813
-0.0194793
-0.0193017
-0.018894
-0.0189481
-0.0190979
-0.0189211
-0.0191249
-0.0193017
-0.0189481
-0.0197055
-0.0191249
-0.0193268
-0.0195036
-0.0200698
-0.0204288
-0.019657
-0.0202493
-0.0200429
-0.0198634
-0.0200698
-0.019657
-0.0197055
-0.0198634
-0.0196813
-0.0198877
-0.0200698
-0.0204941
-0.0204288
-0.020282
-0.0204615
-0.0202493
-0.0200698
-0.0197055
-0.0204941
-0.0198877
-0.0200998
-0.020282
-0.0207069
-0.0203132
-0.0203615
-0.0205101
-0.0203374
-0.0205342
-0.0207069
-0.0203615
-0.0211047
-0.0205342
-0.0207331
-0.0209058
-0.0207694
-0.0203615
-0.0204288
-0.0205655
-0.0203952
-0.0205991
-0.0207694
-0.0211047
-0.0203615
-0.020937
-0.0207331
-0.0205655
-0.0207694
-0.0204288
-0.0211991
-0.0205991
-0.0208139
-0.0209842
-0.0207694
-0.0211991
-0.0211047
-0.0209842
-0.0211519
-0.020937
-0.0186068
-0.0189751
-0.0189481
-0.0187909
-0.0189616
-0.0187774
-0.0186068
-0.0189481
-0.0182172
-0.0187774
-0.0185826
-0.018412
-0.0186068
-0.0182717
-0.0189751
-0.0184393
-0.0186234
-0.0187909
-0.0186068
-0.0182172
-0.0182717
-0.018412
-0.0182445
-0.0184393
-0.0193406
-0.0189481
-0.0189751
-0.0191443
-0.0189616
-0.0191579
-0.0193406
-0.0197055
-0.0189481
-0.0195231
-0.0193268
-0.0191443
-0.0193406
-0.0189751
-0.0197221
-0.0191579
-0.0193486
-0.0195313
-0.0193406
-0.0197221
-0.0197055
-0.0195313
-0.0197138
-0.0195231
-0.0186307
-0.0189751
-0.0182717
-0.0188029
-0.0186234
-0.0184512
-0.0186307
-0.0182717
-0.0182946
-0.0184512
-0.0182831
-0.0184626
-0.0186307
-0.018959
-0.0189751
-0.0187948
-0.018967
-0.0188029
-0.0186307
-0.0182946
-0.018959
-0.0184626
-0.0186268
-0.0187948
-0.0186105
-0.018276
-0.0188853
-0.0184432
-0.0185806
-0.0187479
-0.0186105
-0.0182946
-0.018276
-0.0184525
-0.0182853
-0.0184432
-0.0186105
-0.0188853
-0.018959
-0.0187479
-0.0189221
-0.0187847
-0.0186105
-0.018959
-0.0182946
-0.0187847
-0.0186268
-0.0184525
-0.0185355
-0.0188853
-0.018276
-0.0187104
-0.0185806
-0.0184057
-0.0185355
-0.018276
-0.0182095
-0.0184057
-0.0182428
-0.0183725
-0.0185355
-0.0187446
-0.0188853
-0.01864
-0.0188149
-0.0187104
-0.0185355
-0.0182095
-0.0187446
-0.0183725
-0.0184771
-0.01864
-0.0192803
-0.018959
-0.0188853
-0.0191196
-0.0189221
-0.0190828
-0.0192803
-0.019682
-0.018959
-0.0194812
-0.0193205
-0.0191196
-0.0192803
-0.0188853
-0.0195632
-0.0190828
-0.0192243
-0.0194217
-0.0192803
-0.0195632
-0.019682
-0.0194217
-0.0196226
-0.0194812
-0.0193404
-0.0189751
-0.018959
-0.0191578
-0.018967
-0.0191497
-0.0193404
-0.018959
-0.019682
-0.0191497
-0.0193205
-0.0195112
-0.0193404
-0.0197221
-0.0189751
-0.0195312
-0.0193486
-0.0191578
-0.0193404
-0.019682
-0.0197221
-0.0195112
-0.0197021
-0.0195312
-0.0184002
-0.0185339
-0.0187446
-0.0184671
-0.0186392
-0.0185724
-0.0184002
-0.0187446
-0.0182095
-0.0185724
-0.0184771
-0.0183049
-0.0184002
-0.0180932
-0.0185339
-0.0182467
-0.0183135
-0.0184671
-0.0184002
-0.0182095
-0.0180932
-0.0183049
-0.0181514
-0.0182467
-0.0191438
-0.0188853
-0.0187446
-0.0190146
-0.0188149
-0.0189442
-0.0191438
-0.0187446
-0.0193512
-0.0189442
-0.0190479
-0.0192475
-0.0191438
-0.0195632
-0.0188853
-0.0193535
-0.0192243
-0.0190146
-0.0191438
-0.0193512
-0.0195632
-0.0192475
-0.0194572
-0.0193535
-0.0189232
-0.0187446
-0.0185339
-0.0188339
-0.0186392
-0.0187285
-0.0189232
-0.0193512
-0.0187446
-0.0191372
-0.0190479
-0.0188339
-0.0189232
-0.0185339
-0.0190422
-0.0187285
-0.018788
-0.0189827
-0.0189232
-0.0190422
-0.0193512
-0.0189827
-0.0191967
-0.0191372
-0.0182054
-0.0185339
-0.0180932
-0.0183696
-0.0183135
-0.0181493
-0.0182054
-0.0180932
-0.0179294
-0.0181493
-0.0180113
-0.0180674
-0.0182054
-0.0182567
-0.0185339
-0.018231
-0.0183953
-0.0183696
-0.0182054
-0.0179294
-0.0182567
-0.0180674
-0.018093
-0.018231
-0.0201103
-0.0205261
-0.0197221
-0.0203182
-0.0201241
-0.0199162
-0.0201103
-0.0197221
-0.019682
-0.0199162
-0.0197021
-0.0198961
-0.0201103
-0.0204858
-0.0205261
-0.020298
-0.0205059
-0.0203182
-0.0201103
-0.019682
-0.0204858
-0.0198961
-0.0200839
-0.020298
-0.0201136
-0.0197221
-0.0205261
-0.0199178
-0.0201241
-0.0203198
-0.0201136
-0.0197055
-0.0197221
-0.0199095
-0.0197138
-0.0199178
-0.0201136
-0.0205261
-0.0204941
-0.0203198
-0.0205101
-0.0203039
-0.0201136
-0.0204941
-0.0197055
-0.0203039
-0.0200998
-0.0199095
-0.0200269
-0.0195632
-0.020337
-0.0197951
-0.0199501
-0.020182
-0.0200269
-0.019682
-0.0195632
-0.0198545
-0.0196226
-0.0197951
-0.0200269
-0.020337
-0.0204858
-0.020182
-0.0204114
-0.0202563
-0.0200269
-0.0204858
-0.019682
-0.0202563
-0.0200839
-0.0198545
-0.019837
-0.020337
-0.0195632
-0.020087
-0.0199501
-0.0197001
-0.019837
-0.0195632
-0.0193512
-0.0197001
-0.0194572
-0.0195941
-0.019837
-0.0200571
-0.020337
-0.019947
-0.0201971
-0.020087
-0.019837
-0.0193512
-0.0200571
-0.0195941
-0.0197041
-0.019947
-0.0209605
-0.0205261
-0.0204858
-0.0207433
-0.0205059
-0.0207231
-0.0209605
-0.0204858
-0.0214012
-0.0207231
-0.0209435
-0.0211808
-0.0209605
-0.0214028
-0.0205261
-0.0211816
-0.0209645
-0.0207433
-0.0209605
-0.0214012
-0.0214028
-0.0211808
-0.021402
-0.0211816
-0.0208811
-0.0204858
-0.020337
-0.0206834
-0.0204114
-0.020609
-0.0208811
-0.0214012
-0.0204858
-0.0211411
-0.0209435
-0.0206834
-0.0208811
-0.020337
-0.0212467
-0.020609
-0.0207919
-0.0210639
-0.0208811
-0.0212467
-0.0214012
-0.0210639
-0.021324
-0.0211411
-0.0209332
-0.0204941
-0.0205261
-0.0207137
-0.0205101
-0.0207297
-0.0209332
-0.0213146
-0.0204941
-0.0211239
-0.0209044
-0.0207137
-0.0209332
-0.0205261
-0.0214028
-0.0207297
-0.0209645
-0.021168
-0.0209332
-0.0214028
-0.0213146
-0.021168
-0.0213587
-0.0211239
-0.0208544
-0.0204288
-0.0204941
-0.0206416
-0.0204615
-0.0206743
-0.0208544
-0.0204941
-0.0213146
-0.0206743
-0.0209044
-0.0210845
-0.0208544
-0.0211991
-0.0204288
-0.0210267
-0.0208139
-0.0206416
-0.0208544
-0.0213146
-0.0211991
-0.0210845
-0.0212568
-0.0210267
-0.0179567
-0.0179215
-0.0182567
-0.0179391
-0.0180891
-0.0181067
-0.0179567
-0.0182567
-0.0179294
-0.0181067
-0.018093
-0.017943
-0.0179567
-0.0177242
-0.0179215
-0.0178404
-0.0178228
-0.0179391
-0.0179567
-0.0179294
-0.0177242
-0.017943
-0.0178268
-0.0178404
-0.0182433
-0.0182567
-0.0179215
-0.01825
-0.0180891
-0.0180824
-0.0182433
-0.0186426
-0.0182567
-0.018443
-0.0184496
-0.01825
-0.0182433
-0.0179215
-0.0181656
-0.0180824
-0.0180435
-0.0182045
-0.0182433
-0.0181656
-0.0186426
-0.0182045
-0.0184041
-0.018443
-0.01862
-0.0185339
-0.0182567
-0.0185769
-0.0183953
-0.0184383
-0.01862
-0.0182567
-0.0186426
-0.0184383
-0.0184496
-0.0186313
-0.01862
-0.0190422
-0.0185339
-0.0188311
-0.018788
-0.0185769
-0.01862
-0.0186426
-0.0190422
-0.0186313
-0.0188424
-0.0188311
-0.0176634
-0.0179215
-0.0177242
-0.0177924
-0.0178228
-0.0176938
-0.0176634
-0.0177242
-0.0174866
-0.0176938
-0.0176054
-0.017575
-0.0176634
-0.0175396
-0.0179215
-0.0176015
-0.0177306
-0.0177924
-0.0176634
-0.0174866
-0.0175396
-0.017575
-0.0175131
-0.0176015
-0.019529
-0.0190422
-0.0196425
-0.0192856
-0.0193423
-0.0195858
-0.019529
-0.0193512
-0.0190422
-0.0194401
-0.0191967
-0.0192856
-0.019529
-0.0196425
-0.0200571
-0.0195858
-0.0198498
-0.0197931
-0.019529
-0.0200571
-0.0193512
-0.0197931
-0.0197041
-0.0194401
-0.0191082
-0.0196425
-0.0190422
-0.0193753
-0.0193423
-0.0190752
-0.0191082
-0.0190422
-0.0186426
-0.0190752
-0.0188424
-0.0188754
-0.0191082
-0.0191065
-0.0196425
-0.0191073
-0.0193745
-0.0193753
-0.0191082
-0.0186426
-0.0191065
-0.0188754
-0.0188745
-0.0191073
-0.0202483
-0.0200571
-0.0196425
-0.0201527
-0.0198498
-0.0199454
-0.0202483
-0.0209019
-0.0200571
-0.0205751
-0.0204795
-0.0201527
-0.0202483
-0.0196425
-0.0203661
-0.0199454
-0.0200043
-0.0203072
-0.0202483
-0.0203661
-0.0209019
-0.0203072
-0.020634
-0.0205751
-0.0206492
-0.020337
-0.0200571
-0.0204931
-0.0201971
-0.0203532
-0.0206492
-0.0200571
-0.0209019
-0.0203532
-0.0204795
-0.0207756
-0.0206492
-0.0212467
-0.020337
-0.020948
-0.0207919
-0.0204931
-0.0206492
-0.0209019
-0.0212467
-0.0207756
-0.0210743
-0.020948
-0.0185905
-0.0181656
-0.0184714
-0.018378
-0.0183185
-0.0185309
-0.0185905
-0.0186426
-0.0181656
-0.0186165
-0.0184041
-0.018378
-0.0185905
-0.0184714
-0.0191065
-0.0185309
-0.0187889
-0.0188485
-0.0185905
-0.0191065
-0.0186426
-0.0188485
-0.0188745
-0.0186165
-0.0178062
-0.0181656
-0.0179215
-0.0179859
-0.0180435
-0.0178638
-0.0178062
-0.017627
-0.0181656
-0.0177166
-0.0178963
-0.0179859
-0.0178062
-0.0179215
-0.0175396
-0.0178638
-0.0177306
-0.0176729
-0.0178062
-0.0175396
-0.017627
-0.0176729
-0.0175833
-0.0177166
-0.0179955
-0.0184714
-0.0181656
-0.0182335
-0.0183185
-0.0180806
-0.0179955
-0.0181656
-0.017627
-0.0180806
-0.0178963
-0.0178113
-0.0179955
-0.0177597
-0.0184714
-0.0178776
-0.0181156
-0.0182335
-0.0179955
-0.017627
-0.0177597
-0.0178113
-0.0176934
-0.0178776
-0.0196932
-0.0196425
-0.0191065
-0.0196679
-0.0193745
-0.0193998
-0.0196932
-0.0191065
-0.0196698
-0.0193998
-0.0193881
-0.0196815
-0.0196932
-0.0203661
-0.0196425
-0.0200296
-0.0200043
-0.0196679
-0.0196932
-0.0196698
-0.0203661
-0.0196815
-0.0200179
-0.0200296
-0.0190147
-0.0191065
-0.0184714
-0.0190606
-0.0187889
-0.0187431
-0.0190147
-0.0196698
-0.0191065
-0.0193422
-0.0193881
-0.0190606
-0.0190147
-0.0184714
-0.0188518
-0.0187431
-0.0186616
-0.0189332
-0.0190147
-0.0188518
-0.0196698
-0.0189332
-0.0192608
-0.0193422
-0.0173364
-0.0171236
-0.0175396
-0.01723
-0.0173316
-0.017438
-0.0173364
-0.0175396
-0.0174866
-0.017438
-0.0175131
-0.0174115
-0.0173364
-0.0172268
-0.0171236
-0.0172816
-0.0171752
-0.01723
-0.0173364
-0.0174866
-0.0172268
-0.0174115
-0.0173567
-0.0172816
-0.0173225
-0.0175396
-0.0171236
-0.0174311
-0.0173316
-0.0172231
-0.0173225
-0.017627
-0.0175396
-0.0174748
-0.0175833
-0.0174311
-0.0173225
-0.0171236
-0.0170418
-0.0172231
-0.0170827
-0.0171822
-0.0173225
-0.0170418
-0.017627
-0.0171822
-0.0173344
-0.0174748
-0.0169874
-0.0171236
-0.0172268
-0.0170555
-0.0171752
-0.0171071
-0.0169874
-0.0172268
-0.0169562
-0.0171071
-0.0170915
-0.0169718
-0.0169874
-0.0166851
-0.0171236
-0.0168363
-0.0169044
-0.0170555
-0.0169874
-0.0169562
-0.0166851
-0.0169718
-0.0168207
-0.0168363
-0.0215038
-0.0211991
-0.0219475
-0.0213515
-0.0215733
-0.0217257
-0.0215038
-0.0211047
-0.0211991
-0.0213043
-0.0211519
-0.0213515
-0.0216438
-0.0219475
-0.0211991
-0.0217957
-0.0215733
-0.0214214
-0.0216438
-0.0211991
-0.0213146
-0.0214214
-0.0212568
-0.0214792
-0.0216438
-0.0221564
-0.0219475
-0.0219001
-0.022052
-0.0217957
-0.0216438
-0.0213146
-0.0221564
-0.0214792
-0.0217355
-0.0219001
-0.0218035
-0.0223698
-0.0221564
-0.0220867
-0.0222631
-0.02198
-0.0218035
-0.0221564
-0.0213146
-0.02198
-0.0217355
-0.0215591
-0.0218035
-0.0214028
-0.0223698
-0.0216032
-0.0218863
-0.0220867
-0.0218035
-0.0213146
-0.0214028
-0.0215591
-0.0213587
-0.0216032
-0.0224041
-0.0219475
-0.0221564
-0.0221758
-0.022052
-0.0222803
-0.0224041
-0.0221564
-0.0229958
-0.0222803
-0.0225761
-0.0227
-0.022716
-0.0221564
-0.0223698
-0.0224362
-0.0222631
-0.0225429
-0.022716
-0.0229958
-0.0221564
-0.0228559
-0.0225761
-0.0224362
-0.022716
-0.0223698
-0.0234352
-0.0225429
-0.0229025
-0.0230756
-0.022716
-0.0234352
-0.0229958
-0.0230756
-0.0232155
-0.0228559
-0.0219175
-0.0223698
-0.0214028
-0.0221436
-0.0218863
-0.0216601
-0.0219175
-0.0214028
-0.0214012
-0.0216601
-0.021402
-0.0216593
-0.0219175
-0.0224751
-0.0223698
-0.0221963
-0.0224224
-0.0221436
-0.0219175
-0.0214012
-0.0224751
-0.0216593
-0.0219382
-0.0221963
-0.0218898
-0.0212467
-0.0223573
-0.0215682
-0.021802
-0.0221235
-0.0218898
-0.0214012
-0.0212467
-0.0216455
-0.021324
-0.0215682
-0.0218898
-0.0223573
-0.0224751
-0.0221235
-0.0224162
-0.0221824
-0.0218898
-0.0224751
-0.0214012
-0.0221824
-0.0219382
-0.0216455
-0.0216329
-0.0223573
-0.0212467
-0.0219951
-0.021802
-0.0214398
-0.0216329
-0.0212467
-0.0209019
-0.0214398
-0.0210743
-0.0212674
-0.0216329
-0.0219444
-0.0223573
-0.0217886
-0.0221508
-0.0219951
-0.0216329
-0.0209019
-0.0219444
-0.0212674
-0.0214232
-0.0217886
-0.0231324
-0.0224751
-0.0223573
-0.0228037
-0.0224162
-0.0227448
-0.0231324
-0.0237886
-0.0224751
-0.0234605
-0.0231318
-0.0228037
-0.0231324
-0.0223573
-0.0237828
-0.0227448
-0.02307
-0.0234576
-0.0231324
-0.0237828
-0.0237886
-0.0234576
-0.0237857
-0.0234605
-0.023015
-0.0223698
-0.0224751
-0.0226924
-0.0224224
-0.0227451
-0.023015
-0.0224751
-0.0237886
-0.0227451
-0.0231318
-0.0234018
-0.023015
-0.0234352
-0.0223698
-0.0232251
-0.0229025
-0.0226924
-0.023015
-0.0237886
-0.0234352
-0.0234018
-0.0236119
-0.0232251
-0.0211225
-0.021253
-0.0219444
-0.0211877
-0.0215987
-0.0215334
-0.0211225
-0.0219444
-0.0209019
-0.0215334
-0.0214232
-0.0210122
-0.0211225
-0.0203661
-0.021253
-0.0207443
-0.0208096
-0.0211877
-0.0211225
-0.0209019
-0.0203661
-0.0210122
-0.020634
-0.0207443
-0.0228751
-0.0223573
-0.0219444
-0.0226162
-0.0221508
-0.0224097
-0.0228751
-0.0219444
-0.0232839
-0.0224097
-0.0226141
-0.0230795
-0.0228751
-0.0237828
-0.0223573
-0.0233289
-0.02307
-0.0226162
-0.0228751
-0.0232839
-0.0237828
-0.0230795
-0.0235333
-0.0233289
-0.022207
-0.0219444
-0.021253
-0.0220757
-0.0215987
-0.02173
-0.022207
-0.0232839
-0.0219444
-0.0227454
-0.0226141
-0.0220757
-0.022207
-0.021253
-0.0223444
-0.02173
-0.0217987
-0.0222757
-0.022207
-0.0223444
-0.0232839
-0.0222757
-0.0228141
-0.0227454
-0.0204012
-0.021253
-0.0203661
-0.0208271
-0.0208096
-0.0203836
-0.0204012
-0.0203661
-0.0196698
-0.0203836
-0.0200179
-0.0200355
-0.0204012
-0.0203512
-0.021253
-0.0203762
-0.0208021
-0.0208271
-0.0204012
-0.0196698
-0.0203512
-0.0200355
-0.0200105
-0.0203762
-0.0236105
-0.0234352
-0.0246131
-0.0235228
-0.0240241
-0.0241118
-0.0236105
-0.0229958
-0.0234352
-0.0233031
-0.0232155
-0.0235228
-0.0242792
-0.0246131
-0.0234352
-0.0244461
-0.0240241
-0.0238572
-0.0242792
-0.0234352
-0.0237886
-0.0238572
-0.0236119
-0.0240339
-0.0242792
-0.0254661
-0.0246131
-0.0248726
-0.0250396
-0.0244461
-0.0242792
-0.0237886
-0.0254661
-0.0240339
-0.0246273
-0.0248726
-0.0247623
-0.0237828
-0.0257921
-0.0242725
-0.0247874
-0.0252772
-0.0247623
-0.0237886
-0.0237828
-0.0242755
-0.0237857
-0.0242725
-0.0247623
-0.0257921
-0.0254661
-0.0252772
-0.0256291
-0.0251142
-0.0247623
-0.0254661
-0.0237886
-0.0251142
-0.0246273
-0.0242755
-0.0245411
-0.0257921
-0.0237828
-0.0251666
-0.0247874
-0.0241619
-0.0245411
-0.0237828
-0.0232839
-0.0241619
-0.0235333
-0.0239125
-0.0245411
-0.0250721
-0.0257921
-0.0248066
-0.0254321
-0.0251666
-0.0245411
-0.0232839
-0.0250721
-0.0239125
-0.024178
-0.0248066
-0.0255762
-0.0246131
-0.0254661
-0.0250946
-0.0250396
-0.0255211
-0.0255762
-0.0254661
-0.0279449
-0.0255211
-0.0267055
-0.0267605
-0.0270861
-0.0254661
-0.0257921
-0.0262761
-0.0256291
-0.0264391
-0.0270861
-0.0279449
-0.0254661
-0.0275155
-0.0267055
-0.0262761
-0.0270861
-0.0257921
-0.0291102
-0.0264391
-0.0274511
-0.0280982
-0.0270861
-0.0291102
-0.0279449
-0.0280982
-0.0285276
-0.0275155
-0.030241
-0.0291102
-0.0404057
-0.0296756
-0.0347579
-0.0353233
-0.030241
-0.0279449
-0.0291102
-0.029093
-0.0285276
-0.0296756
-0.0302725
-0.0404057
-0.0291102
-0.0353391
-0.0347579
-0.0296914
-0.0302725
-0.0291102
-0.0277855
-0.0296914
-0.0284479
-0.029029
-0.0269549
-0.0291102
-0.0257921
-0.0280326
-0.0274511
-0.0263735
-0.0269549
-0.0277855
-0.0291102
-0.0273702
-0.0284479
-0.0280326
-0.0269549
-0.0257921
-0.0250721
-0.0263735
-0.0254321
-0.0260135
-0.0269549
-0.0250721
-0.0277855
-0.0260135
-0.0264288
-0.0273702
-0.0251078
-0.0250721
-0.0237023
-0.0250899
-0.0243872
-0.024405
-0.0251078
-0.0277855
-0.0250721
-0.0264467
-0.0264288
-0.0250899
-0.0235614
-0.0237023
-0.0250721
-0.0236319
-0.0243872
-0.0243168
-0.0235614
-0.0250721
-0.0232839
-0.0243168
-0.024178
-0.0234226
-0.0235614
-0.0223444
-0.0237023
-0.0229529
-0.0230233
-0.0236319
-0.0235614
-0.0232839
-0.0223444
-0.0234226
-0.0228141
-0.0229529
-0.0222434
-0.0237023
-0.0223444
-0.0229728
-0.0230233
-0.0222939
-0.0222434
-0.0223444
-0.0211692
-0.0222939
-0.0217568
-0.0217063
-0.0212554
-0.0223444
-0.021253
-0.0217999
-0.0217987
-0.0212542
-0.0212554
-0.0211692
-0.0223444
-0.0212123
-0.0217568
-0.0217999
-0.0212554
-0.021253
-0.0203512
-0.0212542
-0.0208021
-0.0208033
-0.0212554
-0.0203512
-0.0211692
-0.0208033
-0.0207602
-0.0212123
-0.0201396
-0.0203512
-0.019321
-0.0202454
-0.0198361
-0.0197303
-0.0201396
-0.0211692
-0.0203512
-0.0206544
-0.0207602
-0.0202454
-0.0195307
-0.019321
-0.0203512
-0.0194259
-0.0198361
-0.0199409
-0.0195307
-0.0203512
-0.0196698
-0.0199409
-0.0200105
-0.0196002
-0.0195307
-0.0188518
-0.019321
-0.0191912
-0.0190864
-0.0194259
-0.0195307
-0.0196698
-0.0188518
-0.0196002
-0.0192608
-0.0191912
-0.0185538
-0.019321
-0.0188518
-0.0189374
-0.0190864
-0.0187028
-0.0185538
-0.0188518
-0.0179518
-0.0187028
-0.0184018
-0.0182528
-0.0182432
-0.0188518
-0.0184714
-0.0185475
-0.0186616
-0.0183573
-0.0182432
-0.0179518
-0.0188518
-0.0180975
-0.0184018
-0.0185475
-0.0182432
-0.0184714
-0.0177597
-0.0183573
-0.0181156
-0.0180015
-0.0182432
-0.0177597
-0.0179518
-0.0180015
-0.0178558
-0.0180975
-0.0173988
-0.0177597
-0.0169957
-0.0175793
-0.0173777
-0.0171972
-0.0173988
-0.0179518
-0.0177597
-0.0176753
-0.0178558
-0.0175793
-0.0173414
-0.0169957
-0.0177597
-0.0171685
-0.0173777
-0.0175506
-0.0173414
-0.0177597
-0.017627
-0.0175506
-0.0176934
-0.0174842
-0.0173414
-0.0170418
-0.0169957
-0.0171916
-0.0170187
-0.0171685
-0.0173414
-0.017627
-0.0170418
-0.0174842
-0.0173344
-0.0171916
-0.0166399
-0.0169957
-0.0170418
-0.0168178
-0.0170187
-0.0168409
-0.0166399
-0.0170418
-0.0164281
-0.0168409
-0.0167349
-0.016534
-0.0168053
-0.0170418
-0.0171236
-0.0169236
-0.0170827
-0.0169645
-0.0168053
-0.0164281
-0.0170418
-0.0166167
-0.0167349
-0.0169236
-0.0168053
-0.0171236
-0.0166851
-0.0169645
-0.0169044
-0.0167452
-0.0168053
-0.0166851
-0.0164281
-0.0167452
-0.0165566
-0.0166167
-0.016263
-0.0166851
-0.0162397
-0.016474
-0.0164624
-0.0162513
-0.016263
-0.0164281
-0.0166851
-0.0163455
-0.0165566
-0.016474
-0.0166273
-0.0162397
-0.0166851
-0.0164335
-0.0164624
-0.0166562
-0.0166273
-0.0166851
-0.0169562
-0.0166562
-0.0168207
-0.0167918
-0.0166273
-0.0166851
-0.0162397
-0.0166562
-0.0164624
-0.0164335
-0.0166273
-0.0169562
-0.0166851
-0.0167918
-0.0168207
-0.0166562
-0.016263
-0.0162397
-0.0166851
-0.0162513
-0.0164624
-0.016474
-0.016263
-0.0166851
-0.0164281
-0.016474
-0.0165566
-0.0163455
-0.0168053
-0.0166851
-0.0171236
-0.0167452
-0.0169044
-0.0169645
-0.0168053
-0.0164281
-0.0166851
-0.0166167
-0.0165566
-0.0167452
-0.0168053
-0.0171236
-0.0170418
-0.0169645
-0.0170827
-0.0169236
-0.0168053
-0.0170418
-0.0164281
-0.0169236
-0.0167349
-0.0166167
-0.0166399
-0.0170418
-0.0169957
-0.0168409
-0.0170187
-0.0168178
-0.0166399
-0.0164281
-0.0170418
-0.016534
-0.0167349
-0.0168409
-0.0173414
-0.0169957
-0.0170418
-0.0171685
-0.0170187
-0.0171916
-0.0173414
-0.0170418
-0.017627
-0.0171916
-0.0173344
-0.0174842
-0.0173414
-0.0177597
-0.0169957
-0.0175506
-0.0173777
-0.0171685
-0.0173414
-0.017627
-0.0177597
-0.0174842
-0.0176934
-0.0175506
-0.0173988
-0.0169957
-0.0177597
-0.0171972
-0.0173777
-0.0175793
-0.0173988
-0.0177597
-0.0179518
-0.0175793
-0.0178558
-0.0176753
-0.0182432
-0.0177597
-0.0184714
-0.0180015
-0.0181156
-0.0183573
-0.0182432
-0.0179518
-0.0177597
-0.0180975
-0.0178558
-0.0180015
-0.0182432
-0.0184714
-0.0188518
-0.0183573
-0.0186616
-0.0185475
-0.0182432
-0.0188518
-0.0179518
-0.0185475
-0.0184018
-0.0180975
-0.0185538
-0.0188518
-0.019321
-0.0187028
-0.0190864
-0.0189374
-0.0185538
-0.0179518
-0.0188518
-0.0182528
-0.0184018
-0.0187028
-0.0195307
-0.019321
-0.0188518
-0.0194259
-0.0190864
-0.0191912
-0.0195307
-0.0188518
-0.0196698
-0.0191912
-0.0192608
-0.0196002
-0.0195307
-0.0203512
-0.019321
-0.0199409
-0.0198361
-0.0194259
-0.0195307
-0.0196698
-0.0203512
-0.0196002
-0.0200105
-0.0199409
-0.0201396
-0.019321
-0.0203512
-0.0197303
-0.0198361
-0.0202454
-0.0201396
-0.0203512
-0.0211692
-0.0202454
-0.0207602
-0.0206544
-0.0212554
-0.0203512
-0.021253
-0.0208033
-0.0208021
-0.0212542
-0.0212554
-0.0211692
-0.0203512
-0.0212123
-0.0207602
-0.0208033
-0.0212554
-0.021253
-0.0223444
-0.0212542
-0.0217987
-0.0217999
-0.0212554
-0.0223444
-0.0211692
-0.0217999
-0.0217568
-0.0212123
-0.0222434
-0.0223444
-0.0237023
-0.0222939
-0.0230233
-0.0229728
-0.0222434
-0.0211692
-0.0223444
-0.0217063
-0.0217568
-0.0222939
-0.0235614
-0.0237023
-0.0223444
-0.0236319
-0.0230233
-0.0229529
-0.0235614
-0.0223444
-0.0232839
-0.0229529
-0.0228141
-0.0234226
-0.0235614
-0.0250721
-0.0237023
-0.0243168
-0.0243872
-0.0236319
-0.0235614
-0.0232839
-0.0250721
-0.0234226
-0.024178
-0.0243168
-0.0251078
-0.0237023
-0.0250721
-0.024405
-0.0243872
-0.0250899
-0.0251078
-0.0250721
-0.0277855
-0.0250899
-0.0264288
-0.0264467
-0.0269549
-0.0250721
-0.0257921
-0.0260135
-0.0254321
-0.0263735
-0.0269549
-0.0277855
-0.0250721
-0.0273702
-0.0264288
-0.0260135
-0.0269549
-0.0257921
-0.0291102
-0.0263735
-0.0274511
-0.0280326
-0.0269549
-0.0291102
-0.0277855
-0.0280326
-0.0284479
-0.0273702
-0.030241
-0.0404057
-0.0291102
-0.0353233
-0.0347579
-0.0296756
-0.030241
-0.0291102
-0.0279449
-0.0296756
-0.0285276
-0.029093
-0.0302725
-0.0291102
-0.0404057
-0.0296914
-0.0347579
-0.0353391
-0.0302725
-0.0277855
-0.0291102
-0.029029
-0.0284479
-0.0296914
