# vtk DataFile Version 1.0
2D Unstructured Grid of Linear Triangles
ASCII

DATASET UNSTRUCTURED_GRID
POINTS 54 float
0 22 0
0 0 0
24 22 0
0 11 0
12 11 0
12 22 0
0 22 0
24 22 0
0 44 0
12 22 0
12 33 0
0 33 0
24 44 0
0 44 0
24 22 0
12 44 0
12 33 0
24 33 0
24 44 0
24 22 0
48 44 0
24 33 0
36 33 0
36 44 0
24 44 0
24 52 0
0 44 0
24 48 0
12 48 0
12 44 0
36 48 0
48 44 0
48 60 0
42 46 0
48 52 0
42 54 0
36 48 0
48 60 0
24 52 0
42 54 0
36 56 0
30 50 0
36 48 0
24 44 0
48 44 0
30 46 0
36 44 0
42 46 0
36 48 0
24 52 0
24 44 0
30 50 0
24 48 0
30 46 0

CELLS 9 63
6 0 1 2 3 4 5
6 6 7 8 9 10 11
6 12 13 14 15 16 17
6 18 19 20 21 22 23
6 24 25 26 27 28 29
6 30 31 32 33 34 35
6 36 37 38 39 40 41
6 42 43 44 45 46 47
6 48 49 50 51 52 53

CELL_TYPES 9
22
22
22
22
22
22
22
22
22

POINT_DATA 54
VECTORS stress_1 float
0.0122403 0.002764 0
0.00948431 0.00869395 0
0.0187093 0.0171502 0
0.0108623 0.00572898 0
0.0140968 0.0129221 0
0.0154748 0.00995712 0
0.0205484 0.002764 0
0.0255859 0.0171502 0
-0.0422731 -0.00185363 0
0.0230671 0.00995712 0
-0.0083436 0.0076483 0
-0.0108623 0.000455184 0
-0.0104887 -0.00160623 0
-0.0319347 -0.0113304 0
0.0246015 0.0180526 0
-0.0212117 -0.00646833 0
-0.00366664 0.00336108 0
0.00705636 0.00822318 0
-0.0104887 -0.00176382 0
0.0246015 0.0225513 0
0.0160369 0.0147005 0
0.00705636 0.0103938 0
0.0203192 0.0186259 0
0.00277407 0.00646833 0
-0.0108071 -0.00160623 0
-0.0280029 -0.00933431 0
-0.0339913 -0.0113304 0
-0.019405 -0.00547027 0
-0.0309971 -0.0103324 0
-0.0223992 -0.00646833 0
-0.00763871 0.00354732 0
0 0.0179086 0
0 0.00772362 0
-0.00381935 0.0107279 0
0 0.0128161 0
-0.00381935 0.00563547 0
-0.00721036 0.00397566 0
-0.0115854 -0.00386181 0
-0.0307228 -0.0102409 0
-0.00939789 5.69276e-05 0
-0.0211541 -0.00705137 0
-0.0189666 -0.00313263 0
-0.00657418 0.00319247 0
-0.0100309 -0.00176382 0
0.00962426 0.0147005 0
-0.00830253 0.000714328 0
-0.000203312 0.00646833 0
0.00152504 0.00894647 0
-0.00571749 0.00347804 0
-0.0280029 -0.0111475 0
-0.0108071 -0.00202254 0
-0.0168602 -0.00383475 0
-0.019405 -0.00658505 0
-0.00826227 0.000727747 0
VECTORS stress_2 float
0.00840198 0.00528203 0
0.00875346 0.00802401 0
0.0113932 0.0104438 0
0.00857772 0.00665302 0
0.0100733 0.0092339 0
0.00989761 0.00786291 0
-0.00178433 0.00528203 0
0.0196405 0.0104438 0
-0.000825664 -0.0143574 0
0.00892807 0.00786291 0
0.0094074 -0.00195678 0
-0.001305 -0.00453766 0
-0.00258182 0.00110479 0
-0.0113265 -0.00473155 0
0.0210837 0.00912079 0
-0.00695418 -0.00181338 0
0.00487859 0.00219462 0
0.00925096 0.00511279 0
-0.00258182 0.000717178 0
0.0210837 0.0193268 0
0.0177195 0.0162429 0
0.00925096 0.010022 0
0.0194016 0.0177848 0
0.00756886 0.00848005 0
-0.00236852 0.00110479 0
-0.00851176 -0.00283725 0
-0.0141946 -0.00473155 0
-0.00544014 -0.000866233 0
-0.0113532 -0.0037844 0
-0.00828158 -0.00181338 0
0.00457801 0.00473498 0
0.01 0.0187425 0
0.01 0.0115132 0
0.007289 0.0117388 0
0.01 0.0151279 0
0.007289 0.0081241 0
0.00438339 0.00454037 0
-0.00226982 -0.000756606 0
-0.0115075 -0.00383584 0
0.00105679 0.00189188 0
-0.00688867 -0.00229622 0
-0.00356207 0.000352262 0
0.00397144 0.00493717 0
-0.00375838 0.000717178 0
0.0174989 0.0162429 0
0.000106529 0.00282717 0
0.00687025 0.00848005 0
0.0107352 0.01059 0
0.00358221 0.00480743 0
-0.00851176 -0.00483443 0
-0.00236852 0.00118046 0
-0.00246478 -1.3502e-05 0
-0.00544014 -0.00182698 0
0.000606845 0.00299395 0

VECTORS disp float
0.00291883 -0.0191646  0
-0.00500144 0.0022748  0
0.0375462 0.206757  0
-0.0010413 -0.00844488  0
0.0162724 0.104516  0
0.0202325 0.0937964  0
0.0113303 -0.0240772  0
0.0350019 0.179199  0
-0.0196935 -0.0221812  0
0.0231661 0.0775608  0
0.00765421 0.0785088  0
-0.00418158 -0.0231292  0
-0.13709 0.225487  0
-0.0601612 -0.0350846  0
0.0833376 0.19967  0
-0.0986254 0.0952012  0
0.0115882 0.0822927  0
-0.026876 0.212578  0
-0.148889 0.214623  0
0.130518 0.204103  0
-0.173922 0.89772  0
-0.00918535 0.209363  0
-0.0217018 0.550911  0
-0.161405 0.556172  0
-0.171543 0.22575  0
-0.336997 0.266919  0
-0.0420394 -0.0154711  0
-0.25427 0.246334  0
-0.189518 0.125724  0
-0.106791 0.10514  0
-0.284595 0.525303  0
-0.205946 0.978693  0
-0.721649 1.04477  0
-0.24527 0.751998  0
-0.463797 1.01173  0
-0.503122 0.785035  0
-0.280381 0.542358  0
-0.739466 0.986468  0
-0.352625 0.230566  0
-0.509924 0.764413  0
-0.546046 0.608517  0
-0.316503 0.386462  0
-0.293049 0.544735  0
-0.164483 0.200129  0
-0.219187 0.932268  0
-0.228766 0.372432  0
-0.191835 0.566199  0
-0.256118 0.738502  0
-0.296273 0.52977  0
-0.35046 0.277489  0
-0.158397 0.24484  0
-0.323366 0.40363  0
-0.254428 0.261164  0
-0.227335 0.387305  0
SCALARS rotation float
LOOKUP_TABLE default
-0.000249075
-0.00423143
-0.00843968
-0.00224026
-0.00633556
-0.00434438
-0.000249075
-0.00843968
-0.00559583
-0.00434438
-0.00701776
-0.00292245
-0.0194735
-0.00559583
-0.00843968
-0.0125347
-0.00701776
-0.0139566
-0.0194735
-0.00843968
-0.0349098
-0.0139566
-0.0216747
-0.0271917
-0.0194735
-0.020976
-0.00559583
-0.0202247
-0.0132859
-0.0125347
-0.0281444
-0.0349098
-0.0461362
-0.0315271
-0.040523
-0.0371403
-0.0281444
-0.0461362
-0.020976
-0.0371403
-0.0335561
-0.0245602
-0.0281444
-0.0194735
-0.0349098
-0.0238089
-0.0271917
-0.0315271
-0.0281444
-0.020976
-0.0194735
-0.0245602
-0.0202247
-0.0238089
