# vtk DataFile Version 1.0
2D Unstructured Grid of Linear Triangles
ASCII

DATASET UNSTRUCTURED_GRID
POINTS 24 float
24 22 0
0 44 0
0 0 0
12 33 0
0 22 0
12 11 0
24 22 0
48 44 0
0 44 0
36 33 0
24 44 0
12 33 0
24 52 0
0 44 0
48 44 0
12 48 0
24 44 0
36 48 0
24 52 0
48 44 0
48 60 0
36 48 0
48 52 0
36 56 0

CELLS 4 28
6 0 1 2 3 4 5
6 6 7 8 9 10 11
6 12 13 14 15 16 17
6 18 19 20 21 22 23

CELL_TYPES 4
22
22
22
22

POINT_DATA 24
VECTORS stress_1 float
0.0203114 0.0186188 0
-0.0238847 -0.01547 0
0.0238156 0.021831 0
-0.00178666 0.00157441 0
-3.45648e-05 0.0031805 0
0.0220635 0.0202249 0
0.0203114 0.0186188 0
0.014974 0.0137262 0
-0.025787 -0.0137262 0
0.0176146 0.0161467 0
-0.00541542 0 0
-0.00271412 0.00242457 0
-0.0402287 -0.0134096 0
-0.0411786 -0.0137262 0
0.0392788 0.0137262 0
-0.0407037 -0.0135679 0
-0.000949907 0 0
-0.000474953 0.000158318 0
-0.0402287 -0.0134096 0
0 0.0268191 0
0 0 0
-0.0201144 0.00670478 0
0 0.0134096 0
-0.0201144 -0.00670478 0
VECTORS stress_2 float
0.0197237 0.0180801 0
-0.0128216 -0.0113304 0
0.0199543 0.0182915 0
0.00345105 0.00337485 0
0.00356635 0.00348055 0
0.019839 0.0181858 0
0.0197237 0.0180801 0
0.0133888 0.012273 0
-0.019066 -0.00560638 0
0.0165565 0.0151768 0
-0.00262741 0.00333333 0
0.000434177 0.00614032 0
-0.0165904 -0.00553014 0
-0.0168191 -0.00560638 0
0.0363617 0.012273 0
-0.0167048 -0.00556826 0
0.0097713 0.00333333 0
0.00988565 0.00337145 0
-0.0165904 -0.00553014 0
0.01 0.0210603 0
0.01 0.00333333 0
-0.00329522 0.00776507 0
0.01 0.0121968 0
-0.00329522 -0.00109841 0

VECTORS disp float
0.0835671 0.226679  0
-0.00591906 -0.0164271  0
0.0167158 -0.0321402  0
0.038824 0.105126  0
0.00539839 -0.0242836  0
0.0501415 0.0972694  0
0.12794 0.267131  0
-0.23106 0.902868  0
-0.148409 -0.133957  0
-0.05156 0.584999  0
-0.189735 0.384455  0
-0.0102343 0.066587  0
-0.407186 0.295712  0
-0.143896 -0.099803  0
-0.287534 0.86476  0
-0.275541 0.0979546  0
-0.215715 0.382478  0
-0.34736 0.580236  0
-0.389158 0.0451454  0
-0.164804 1.08506  0
-1.01997 1.28849  0
-0.276981 0.565105  0
-0.592389 1.18678  0
-0.704566 0.666817  0
SCALARS rotation float
LOOKUP_TABLE default
-0.0127367
-0.0108992
0.00882973
-0.011818
-0.00103475
-0.0019535
-0.0127367
-0.0341692
-0.0108992
-0.023453
-0.0225342
-0.011818
-0.00759524
-0.0108992
-0.0341692
-0.00924724
-0.0225342
-0.0208822
-0.00759524
-0.0341692
-0.115816
-0.0208822
-0.0749928
-0.0617058
