# vtk DataFile Version 1.0
2D Unstructured Grid of Linear Triangles
ASCII

DATASET UNSTRUCTURED_GRID
POINTS 282 float
0 11 0
0 0 0
12 11 0
0 5.5 0
6 5.5 0
6 11 0
0 11 0
12 11 0
0 22 0
6 11 0
6 16.5 0
0 16.5 0
12 22 0
12 11 0
24 22 0
12 16.5 0
18 16.5 0
18 22 0
12 22 0
0 22 0
12 11 0
6 22 0
6 16.5 0
12 16.5 0
12 22 0
24 22 0
12 33 0
18 22 0
18 27.5 0
12 27.5 0
12 22 0
12 33 0
0 22 0
12 27.5 0
6 27.5 0
6 22 0
0 33 0
12 33 0
0 44 0
6 33 0
6 38.5 0
0 38.5 0
0 33 0
0 22 0
12 33 0
0 27.5 0
6 27.5 0
6 33 0
12 44 0
0 44 0
12 33 0
6 44 0
6 38.5 0
12 38.5 0
12 44 0
12 33 0
24 44 0
12 38.5 0
18 38.5 0
18 44 0
12 44 0
12 48 0
0 44 0
12 46 0
6 46 0
6 44 0
24 33 0
12 33 0
24 22 0
18 33 0
18 27.5 0
24 27.5 0
24 33 0
24 44 0
12 33 0
24 38.5 0
18 38.5 0
18 33 0
24 33 0
24 22 0
36 33 0
24 27.5 0
30 27.5 0
30 33 0
18 46 0
24 44 0
24 52 0
21 45 0
24 48 0
21 49 0
18 46 0
24 52 0
12 48 0
21 49 0
18 50 0
15 47 0
18 46 0
12 44 0
24 44 0
15 45 0
18 44 0
21 45 0
18 46 0
12 48 0
12 44 0
15 47 0
12 46 0
15 45 0
48 52 0
42 54 0
48 44 0
45 53 0
45 49 0
48 48 0
48 52 0
48 60 0
42 54 0
48 56 0
45 57 0
45 53 0
42 46 0
48 44 0
42 54 0
45 45 0
45 49 0
42 50 0
42 46 0
36 44 0
48 44 0
39 45 0
42 44 0
45 45 0
42 46 0
36 48 0
36 44 0
39 47 0
36 46 0
39 45 0
42 58 0
42 54 0
48 60 0
42 56 0
45 57 0
45 59 0
42 58 0
36 56 0
42 54 0
39 57 0
39 55 0
42 56 0
39 51 0
36 56 0
36 48 0
37.5 53.5 0
36 52 0
37.5 49.5 0
39 51 0
42 54 0
36 56 0
40.5 52.5 0
39 55 0
37.5 53.5 0
39 51 0
36 48 0
42 46 0
37.5 49.5 0
39 47 0
40.5 48.5 0
39 51 0
42 46 0
42 54 0
40.5 48.5 0
42 50 0
40.5 52.5 0
30 46 0
24 44 0
36 44 0
27 45 0
30 44 0
33 45 0
30 46 0
36 44 0
36 48 0
33 45 0
36 46 0
33 47 0
30 46 0
36 48 0
30 50 0
33 47 0
33 49 0
30 48 0
42 38.5 0
48 44 0
36 44 0
45 41.25 0
42 44 0
39 41.25 0
42 38.5 0
36 44 0
36 33 0
39 41.25 0
36 38.5 0
39 35.75 0
30 38.5 0
36 44 0
24 44 0
33 41.25 0
30 44 0
27 41.25 0
30 38.5 0
36 33 0
36 44 0
33 35.75 0
36 38.5 0
33 41.25 0
30 38.5 0
24 44 0
24 33 0
27 41.25 0
24 38.5 0
27 35.75 0
30 38.5 0
24 33 0
36 33 0
27 35.75 0
30 33 0
33 35.75 0
27 47 0
24 52 0
24 44 0
25.5 49.5 0
24 48 0
25.5 45.5 0
27 47 0
30 50 0
24 52 0
28.5 48.5 0
27 51 0
25.5 49.5 0
27 47 0
24 44 0
30 46 0
25.5 45.5 0
27 45 0
28.5 46.5 0
27 47 0
30 46 0
30 50 0
28.5 46.5 0
30 48 0
28.5 48.5 0
30 54 0
24 52 0
30 50 0
27 53 0
27 51 0
30 52 0
33 53 0
36 48 0
36 56 0
34.5 50.5 0
36 52 0
34.5 54.5 0
33 53 0
30 50 0
36 48 0
31.5 51.5 0
33 49 0
34.5 50.5 0
33 53 0
36 56 0
30 54 0
34.5 54.5 0
33 55 0
31.5 53.5 0
33 53 0
30 54 0
30 50 0
31.5 53.5 0
30 52 0
31.5 51.5 0

CELLS 47 329
6 0 1 2 3 4 5
6 6 7 8 9 10 11
6 12 13 14 15 16 17
6 18 19 20 21 22 23
6 24 25 26 27 28 29
6 30 31 32 33 34 35
6 36 37 38 39 40 41
6 42 43 44 45 46 47
6 48 49 50 51 52 53
6 54 55 56 57 58 59
6 60 61 62 63 64 65
6 66 67 68 69 70 71
6 72 73 74 75 76 77
6 78 79 80 81 82 83
6 84 85 86 87 88 89
6 90 91 92 93 94 95
6 96 97 98 99 100 101
6 102 103 104 105 106 107
6 108 109 110 111 112 113
6 114 115 116 117 118 119
6 120 121 122 123 124 125
6 126 127 128 129 130 131
6 132 133 134 135 136 137
6 138 139 140 141 142 143
6 144 145 146 147 148 149
6 150 151 152 153 154 155
6 156 157 158 159 160 161
6 162 163 164 165 166 167
6 168 169 170 171 172 173
6 174 175 176 177 178 179
6 180 181 182 183 184 185
6 186 187 188 189 190 191
6 192 193 194 195 196 197
6 198 199 200 201 202 203
6 204 205 206 207 208 209
6 210 211 212 213 214 215
6 216 217 218 219 220 221
6 222 223 224 225 226 227
6 228 229 230 231 232 233
6 234 235 236 237 238 239
6 240 241 242 243 244 245
6 246 247 248 249 250 251
6 252 253 254 255 256 257
6 258 259 260 261 262 263
6 264 265 266 267 268 269
6 270 271 272 273 274 275
6 276 277 278 279 280 281

CELL_TYPES 47
22
22
22
22
22
22
22
22
22
22
22
22
22
22
22
22
22
22
22
22
22
22
22
22
22
22
22
22
22
22
22
22
22
22
22
22
22
22
22
22
22
22
22
22
22
22
22

POINT_DATA 282
VECTORS stress_1 float
0.0107635 0.00911057 0
0.00956492 0.00876785 0
0.0103896 0.00952383 0
0.0101642 0.00893921 0
0.00997728 0.00914584 0
0.0105766 0.0093172 0
0.00945785 0.00911057 0
0.0156436 0.00952383 0
0.0139949 0.00344029 0
0.0125507 0.0093172 0
0.0148193 0.00648206 0
0.0117264 0.00627543 0
0.0150133 0.00937206 0
0.0145848 0.0133694 0
0.0193741 0.0177596 0
0.0147991 0.0113707 0
0.0169795 0.0155645 0
0.0171937 0.0135658 0
0.0150133 0.00931606 0
0.0137279 0.00368508 0
0.0145848 0.0104944 0
0.0143706 0.00650057 0
0.0141564 0.00708972 0
0.0147991 0.00990521 0
0.015116 0.00937206 0
0.0215896 0.0177596 0
0.000954982 0.00343788 0
0.0183528 0.0135658 0
0.0112723 0.0105987 0
0.00803548 0.00640497 0
0.015116 0.00931606 0
0.000954982 0.0073072 0
0.0129245 0.00368508 0
0.00803548 0.00831163 0
0.00693974 0.00549614 0
0.0140202 0.00650057 0
0.00646717 -0.00311198 0
-0.000181073 0.00735037 0
-0.05676 0.00298225 0
0.00314305 0.0021192 0
-0.0284705 0.00516631 0
-0.0251464 -6.4864e-05 0
-0.0056175 -0.00311198 0
0.0121291 0.00295598 0
0.00100208 0.00735037 0
0.0032558 -7.79993e-05 0
0.00656559 0.00515317 0
-0.00230771 0.0021192 0
-0.0241752 -0.00710768 0
-0.0415053 -0.0110012 0
-0.0017388 0.00877829 0
-0.0328403 -0.00905444 0
-0.0216221 -0.00111145 0
-0.012957 0.000835302 0
-0.0241752 -0.00708967 0
-0.0017388 0.00447491 0
-0.0115593 -0.00162152 0
-0.012957 -0.00130738 0
-0.00664903 0.00142669 0
-0.0178672 -0.0043556 0
-0.0243069 -0.00710768 0
-0.0300197 -0.0100066 0
-0.0330036 -0.0110012 0
-0.0271633 -0.00855713 0
-0.0315116 -0.0105039 0
-0.0286552 -0.00905444 0
0.00911998 0.00963079 0
0.000841868 0.00354157 0
0.0221793 0.0172191 0
0.00498093 0.00658618 0
0.0115106 0.0103803 0
0.0156496 0.0134249 0
0.0090891 0.00963079 0
-0.0111301 -0.00122813 0
-0.002757 0.00354157 0
-0.0010205 0.00420133 0
-0.00694355 0.00115672 0
0.00316605 0.00658618 0
0.00911998 0.00923758 0
0.0221793 0.020331 0
0.0212219 0.0194534 0
0.0156496 0.0147843 0
0.0217006 0.0198922 0
0.0151709 0.0143455 0
-0.0216393 -0.00640786 0
-0.0113351 -0.0016228 0
-0.028895 -0.0095084 0
-0.0164872 -0.00401533 0
-0.0201151 -0.0055656 0
-0.0252671 -0.00795813 0
-0.0217079 -0.00647644 0
-0.0290798 -0.00969328 0
-0.0313584 -0.0104528 0
-0.0253939 -0.00808486 0
-0.0302191 -0.010073 0
-0.0265331 -0.00846462 0
-0.0216246 -0.00641275 0
-0.0236818 -0.00708967 0
-0.011339 -0.00162152 0
-0.0226532 -0.00675121 0
-0.0175104 -0.0043556 0
-0.0164818 -0.00401714 0
-0.0217618 -0.00645847 0
-0.0300197 -0.010899 0
-0.0243069 -0.00729803 0
-0.0258908 -0.00867875 0
-0.0271633 -0.00909853 0
-0.0230343 -0.00687825 0
0 0.00990626 0
-0.00448714 0.00671602 0
0 0.0158891 0
-0.00224357 0.00831114 0
-0.00224357 0.0113026 0
0 0.0128977 0
0 0.00990626 0
0 0.00747628 0
-0.00182249 0.0058278 0
0 0.00869127 0
-0.000911243 0.00665204 0
-0.000911243 0.00786703 0
-0.000759844 0.0103277 0
0.00153664 0.0133281 0
-0.00583128 0.00895624 0
0.000388398 0.0118279 0
-0.00214732 0.0111421 0
-0.00329556 0.00964199 0
0.000417455 0.00993531 0
0.00282932 0.00926796 0
0.00627109 0.0117499 0
0.00162339 0.00960163 0
0.0045502 0.0105089 0
0.00334427 0.0108426 0
0.00203283 0.0104738 0
-0.00693484 0.00441511 0
-0.000364365 0.0082034 0
-0.00245101 0.00744444 0
-0.0036496 0.00630925 0
0.000834232 0.00933858 0
-0.0197081 -0.00656938 0
-0.00298171 0.00466857 0
-0.0112144 -0.00373814 0
-0.0113449 -0.000950403 0
-0.00709807 0.000465216 0
-0.0154613 -0.00515376 0
-0.0197081 -0.00656938 0
-0.0213153 -0.0071051 0
-0.00298171 7.7539e-05 0
-0.0205117 -0.00683724 0
-0.0121485 -0.00351378 0
-0.0113449 -0.00324592 0
-0.00788864 0.00406664 0
-0.021405 -0.00646642 0
-0.00647215 0.00468916 0
-0.0146468 -0.00119989 0
-0.0139386 -0.00088863 0
-0.0071804 0.0043779 0
-0.00777482 0.00387694 0
-0.00767555 0.00164215 0
-0.0209485 -0.00722738 0
-0.00772518 0.00275954 0
-0.014312 -0.00279261 0
-0.0143616 -0.00167522 0
-0.00747396 0.00448132 0
-0.00679337 0.00436795 0
0.000162785 0.0110971 0
-0.00713366 0.00442464 0
-0.00331529 0.00773253 0
-0.00365559 0.00778922 0
-0.00736014 0.00429161 0
-0.000759844 0.0126348 0
-0.00583128 0.00348643 0
-0.00405999 0.00846322 0
-0.00329556 0.00806063 0
-0.00659571 0.00388902 0
-0.00921813 0.000868143 0
-0.0115625 -0.0014422 0
0.000635295 0.00724441 0
-0.0103903 -0.000287031 0
-0.00546358 0.0029011 0
-0.00429142 0.00405627 0
-0.0090208 0.000802367 0
-0.000364365 0.00757763 0
-0.00693484 0.00399683 0
-0.00469258 0.00419 0
-0.0036496 0.00578723 0
-0.00797782 0.0023996 0
-0.00930857 0.000706443 0
-0.00669705 0.00407609 0
-0.0175518 -0.00378232 0
-0.00800281 0.00239127 0
-0.0121244 0.000146887 0
-0.0134302 -0.00153794 0
0.019083 0.0174928 0
0.0128181 0.0117499 0
-0.00241941 0.00926796 0
0.0159506 0.0146213 0
0.00519934 0.0105089 0
0.00833181 0.0133804 0
0.019083 0.0174928 0
0.000521252 0.00657236 0
0.0224073 0.0205401 0
0.00980214 0.0120326 0
0.0114643 0.0135562 0
0.0207452 0.0190164 0
0.00525704 0.00834558 0
0.000656175 0.00724441 0
-0.0112227 -0.0014422 0
0.00295661 0.00779499 0
-0.00528326 0.0029011 0
-0.00298282 0.00345169 0
0.00519646 0.00829005 0
0.0224073 0.0186117 0
0.000521252 0.00712073 0
0.0138019 0.0134509 0
0.0114643 0.0128662 0
0.00285886 0.00770539 0
0.00526538 0.00833794 0
-0.0111301 -0.00152707 0
0.0090891 0.00999704 0
-0.00293237 0.00340544 0
-0.0010205 0.00423499 0
0.00717724 0.00916749 0
0.0052048 0.00828241 0
0.00826059 0.00923758 0
0.0214891 0.0194534 0
0.0067327 0.00876 0
0.0148749 0.0143455 0
0.013347 0.0138679 0
-0.014576 -0.00244149 0
-0.028895 -0.010088 0
-0.0113351 -0.00117063 0
-0.0217355 -0.00626477 0
-0.0201151 -0.00562934 0
-0.0129556 -0.00180606 0
-0.0145781 -0.00243799 0
-0.0177662 -0.00368598 0
-0.0288555 -0.0101539 0
-0.0161722 -0.00306198 0
-0.0233108 -0.00691993 0
-0.0217168 -0.00629593 0
-0.0145853 -0.00245073 0
-0.0116288 -0.00146434 0
-0.00933275 0.000829935 0
-0.0131071 -0.00195753 0
-0.0104808 -0.0003172 0
-0.011959 -0.000810396 0
-0.0145895 -0.00244933 0
-0.00930857 0.000821876 0
-0.0175518 -0.00347158 0
-0.011949 -0.000813725 0
-0.0134302 -0.00132485 0
-0.0160706 -0.00296046 0
-0.0265622 -0.00885406 0
-0.0296585 -0.00988618 0
-0.0175084 -0.0037719 0
-0.0281104 -0.00937012 0
-0.0235835 -0.00682904 0
-0.0220353 -0.00631298 0
-0.019943 -0.00522195 0
-0.00647215 0.00465088 0
-0.021405 -0.00638336 0
-0.0132076 -0.000285533 0
-0.0139386 -0.000866237 0
-0.020674 -0.00580265 0
-0.020007 -0.00511543 0
-0.0178196 -0.00369307 0
-0.00598484 0.00383869 0
-0.0189133 -0.00440425 0
-0.0119022 7.28096e-05 0
-0.0129959 -0.00063837 0
-0.0199911 -0.00526997 0
-0.0225325 -0.00751084 0
-0.0267137 -0.00890456 0
-0.0212618 -0.00639041 0
-0.0246231 -0.0082077 0
-0.0233524 -0.00708727 0
-0.0201189 -0.00522737 0
-0.0265622 -0.00895506 0
-0.0175084 -0.00338193 0
-0.0233405 -0.00709121 0
-0.0220353 -0.00616849 0
-0.0188137 -0.00430465 0
VECTORS stress_2 float
0.00857869 0.00992847 0
0.00994793 0.00911893 0
0.00769555 0.00705426 0
0.00926331 0.0095237 0
0.00882174 0.00808659 0
0.00813712 0.00849137 0
0.00841167 0.00992847 0
0.0113195 0.00705426 0
0.00475439 0.00726297 0
0.00986558 0.00849137 0
0.00803694 0.00715861 0
0.00658303 0.00859572 0
0.00950094 0.00399568 0
0.011388 0.010439 0
0.0165301 0.0151525 0
0.0104445 0.00721736 0
0.013959 0.0127958 0
0.0130155 0.00957412 0
0.00950094 0.00339552 0
0.00557814 0.00650787 0
0.011388 0.00699142 0
0.00753954 0.00495169 0
0.00848309 0.00674964 0
0.0104445 0.00519347 0
0.00977602 0.00399568 0
0.0173346 0.0151525 0
0.00569765 -0.002933 0
0.0135553 0.00957412 0
0.0115161 0.00610977 0
0.00773683 0.000531339 0
0.00977602 0.00339552 0
0.00569765 -0.00416452 0
0.00152871 0.00650787 0
0.00773683 -0.0003845 0
0.00361318 0.00117168 0
0.00565236 0.00495169 0
-0.00549711 -0.00552446 0
0.00627539 -0.0001674 0
0.00443468 -0.0163159 0
0.000389142 -0.00284593 0
0.00535503 -0.00824166 0
-0.000531216 -0.0109202 0
-4.35909e-05 -0.00552446 0
-0.00149574 0.00373546 0
0.0100581 -0.0001674 0
-0.000769665 -0.000894499 0
0.0042812 0.00178403 0
0.00500727 -0.00284593 0
-0.00693659 -0.00225572 0
-0.00955241 -0.00349442 0
0.00593774 0.000142114 0
-0.0082445 -0.00287507 0
-0.00180733 -0.00167615 0
-0.000499424 -0.0010568 0
-0.00693659 -0.00260403 0
0.00593774 0.00133843 0
-0.00263572 0.00116681 0
-0.000499424 -0.000632804 0
0.00165101 0.00125262 0
-0.00478615 -0.000718612 0
-0.00695508 -0.00225572 0
-0.0102954 -0.00343178 0
-0.0104833 -0.00349442 0
-0.00862521 -0.00284375 0
-0.0103893 -0.0034631 0
-0.00871917 -0.00287507 0
0.00928469 0.00812227 0
0.0036016 -0.00101162 0
0.0193209 0.0133318 0
0.00644314 0.00355532 0
0.0114612 0.00616007 0
0.0143028 0.010727 0
0.0094784 0.00812227 0
-0.0011523 0.00252661 0
0.00337405 -0.00101162 0
0.00416305 0.00532444 0
0.00111087 0.000757494 0
0.00642622 0.00355532 0
0.00928469 0.00788218 0
0.0193209 0.0177108 0
0.0200068 0.0183396 0
0.0143028 0.0127965 0
0.0196639 0.0180252 0
0.0146458 0.0131109 0
-0.00637705 -0.00176112 0
-0.00105153 0.00105772 0
-0.00972953 -0.0031503 0
-0.00371429 -0.000351699 0
-0.00539053 -0.00104629 0
-0.00805329 -0.00245571 0
-0.00650014 -0.00188421 0
-0.00986883 -0.00328961 0
-0.0107163 -0.00357211 0
-0.00818448 -0.00258691 0
-0.0102926 -0.00343086 0
-0.00860824 -0.00272816 0
-0.00649588 -0.00172151 0
-0.00739618 -0.00260403 0
-0.00137879 0.00116681 0
-0.00694603 -0.00216277 0
-0.00438748 -0.000718612 0
-0.00393733 -0.00027735 0
-0.00674206 -0.00180357 0
-0.0102954 -0.00371244 0
-0.00695508 -0.002457 0
-0.0085187 -0.00275801 0
-0.00862521 -0.00308472 0
-0.00684857 -0.00213029 0
0.01 0.0226096 0
0.0123835 -0.000821883 0
0.01 0.0194317 0
0.0111917 0.0108939 0
0.0111917 0.00930489 0
0.01 0.0210206 0
0.01 0.0226096 0
0.01 0.0134774 0
0.00315081 0.00225567 0
0.01 0.0180435 0
0.0065754 0.00786652 0
0.0065754 0.0124326 0
0.0106264 0.0115169 0
0.0132382 0.0140347 0
0.00618043 0.00951652 0
0.0119323 0.0127758 0
0.00970931 0.0117756 0
0.00840341 0.0105167 0
0.0106858 0.0114971 0
0.00936342 0.0104941 0
0.0136026 0.0139132 0
0.0100246 0.0109956 0
0.011483 0.0122037 0
0.0121442 0.0127052 0
0.0119825 0.0119294 0
0.00415676 0.00569713 0
0.00739037 0.00983643 0
0.00806963 0.00881325 0
0.00577356 0.00776678 0
0.00968644 0.0108829 0
-0.00610922 -0.00203641 0
0.00223587 0.00134073 0
-0.00521605 -0.00173868 0
-0.00193667 -0.000347836 0
-0.00149009 -0.000198975 0
-0.00566263 -0.00188754 0
-0.00610922 -0.00203641 0
-0.00719348 -0.00239783 0
0.00223587 0.00146813 0
-0.00665135 -0.00221712 0
-0.0024788 -0.000464847 0
-0.00193667 -0.000284137 0
0.00372236 0.00503351 0
-0.00708952 -0.00328425 0
0.00470497 0.00588994 0
-0.00168358 0.000874629 0
-0.00119228 0.00130285 0
0.00421366 0.00546173 0
0.0038133 0.00488195 0
0.00343789 0.00106746 0
-0.00772835 -0.00221954 0
0.0036256 0.0029747 0
-0.00214523 -0.00057604 0
-0.00195752 0.0013312 0
0.00406865 0.0053798 0
0.0044233 0.00560828 0
0.011574 0.0120655 0
0.00424597 0.00549404 0
0.00799864 0.00883691 0
0.00782131 0.00872267 0
0.00415959 0.00522823 0
0.0106264 0.0136449 0
0.00618043 0.00380999 0
0.00739299 0.00943655 0
0.00840341 0.00872742 0
0.00517001 0.00451911 0
0.000857686 0.00320928 0
-0.00171094 0.000761664 0
0.00737352 0.00868504 0
-0.000426625 0.00198547 0
0.00283129 0.00472335 0
0.00411561 0.00594716 0
0.000848427 0.00321236 0
0.00739037 0.00867943 0
0.00415676 0.00539601 0
0.0041194 0.0059459 0
0.00577356 0.00703772 0
0.00250259 0.00430419 0
0.000886737 0.00322513 0
0.00392877 0.00532001 0
-0.00367454 -0.000323309 0
0.00240775 0.00427257 0
0.000127115 0.00249835 0
-0.0013939 0.00145091 0
0.0172465 0.0158093 0
0.015178 0.0139132 0
0.00731127 0.0104941 0
0.0162123 0.0148612 0
0.0112447 0.0122037 0
0.0122789 0.0131517 0
0.0172465 0.0158093 0
0.00698315 0.0107949 0
0.019643 0.0180061 0
0.0121148 0.0133021 0
0.0133131 0.0144005 0
0.0184448 0.0169077 0
0.00828992 0.00844005 0
0.00692857 0.00868504 0
-0.00118059 0.000761664 0
0.00760924 0.00856255 0
0.00287399 0.00472335 0
0.00355467 0.00460086 0
0.00820241 0.00835983 0
0.019643 0.0181047 0
0.00698315 0.00873507 0
0.0139227 0.0132322 0
0.0133131 0.0134199 0
0.00759278 0.00854745 0
0.00835519 0.00838022 0
-0.0011523 0.000735736 0
0.0094784 0.00842132 0
0.00360144 0.00455798 0
0.00416305 0.00457853 0
0.00891679 0.00840077 0
0.00826768 0.0083 0
0.00889025 0.00788218 0
0.0193867 0.0183396 0
0.00857896 0.00809109 0
0.0141385 0.0131109 0
0.0138272 0.0133198 0
-0.00252124 0.000620906 0
-0.00972953 -0.00357919 0
-0.00105153 0.00117958 0
-0.00612538 -0.00147914 0
-0.00539053 -0.00119981 0
-0.00178638 0.000900242 0
-0.00252767 0.000631631 0
-0.0039162 -0.000220972 0
-0.00979544 -0.00346933 0
-0.00322194 0.000205329 0
-0.00685582 -0.00184515 0
-0.00616156 -0.00141885 0
-0.00253192 0.000610226 0
-0.00134869 0.000882412 0
0.000671749 0.0031473 0
-0.0019403 0.000746319 0
-0.000338471 0.00201486 0
-0.000930085 0.00187876 0
-0.00254479 0.000614516 0
0.000886737 0.00307564 0
-0.00367454 2.06925e-05 0
-0.000829025 0.00184508 0
-0.0013939 0.00154816 0
-0.00310966 0.000317604 0
-0.00874048 -0.00291349 0
-0.0101017 -0.00336724 0
-0.00365079 -0.000309441 0
-0.00942109 -0.00314036 0
-0.00687625 -0.00183834 0
-0.00619563 -0.00161147 0
-0.00510711 -0.0012621 0
0.00470497 0.00463861 0
-0.00708952 -0.00186945 0
-0.000201069 0.00168826 0
-0.00119228 0.00138458 0
-0.00609831 -0.00156577 0
-0.00506992 -0.00132407 0
-0.00394419 -0.000233425 0
0.00438796 0.00516694 0
-0.00450705 -0.000778749 0
0.000221889 0.00246676 0
-0.000340978 0.00192144 0
-0.00512144 -0.00127642 0
-0.0078301 -0.00261003 0
-0.00912227 -0.00304076 0
-0.00647577 -0.00194323 0
-0.00847618 -0.00282539 0
-0.00712185 -0.00215859 0
-0.00504706 -0.00130122 0
-0.00874048 -0.00316802 0
-0.00365079 5.99701e-05 0
-0.00689377 -0.00223462 0
-0.00619563 -0.00155402 0
-0.00434893 -0.000620623 0

VECTORS disp float
-0.000447261 0.000559012  0
-0.00176 0.00333289  0
0.00629585 0.10082  0
-0.00110363 0.00194595  0
0.00226792 0.0520763  0
0.00292429 0.0506893  0
-0.00230882 0.00315223  0
0.0113645 0.0940887  0
0.00172934 -0.00616356  0
0.00452785 0.0486205  0
0.00654693 0.0439626  0
-0.000289738 -0.00150567  0
0.0294475 0.0739957  0
0.0140415 0.0927133  0
0.0492752 0.222287  0
0.0217445 0.0833545  0
0.0316584 0.1575  0
0.0393613 0.148142  0
0.0261134 0.0735263  0
0.000154661 -0.0129793  0
0.0151574 0.0968614  0
0.013134 0.0302735  0
0.00765601 0.0419411  0
0.0206354 0.0851938  0
0.0294512 0.0703679  0
0.0509788 0.22444  0
0.00587976 0.0508981  0
0.040215 0.147404  0
0.0284293 0.137669  0
0.0176655 0.060633  0
0.0258987 0.0708413  0
0.00776917 0.0500395  0
0.00198486 -0.0136779  0
0.0168339 0.0604404  0
0.00487701 0.0181808  0
0.0139418 0.0285817  0
0.00845768 -0.0171478  0
-0.00801042 0.038725  0
-0.0128031 0.00372483  0
0.000223632 0.0107886  0
-0.0104068 0.0212249  0
-0.00217272 -0.00671149  0
-0.000253915 -0.0118091  0
0.00342729 -0.00507878  0
0.0038594 0.0373104  0
0.00158669 -0.00844394  0
0.00364334 0.0161158  0
0.00180274 0.0127506  0
-0.10206 0.0886976  0
-0.0318731 0.0142588  0
0.00738335 0.0407915  0
-0.0669663 0.0514782  0
-0.0122449 0.0275252  0
-0.0473381 0.0647446  0
-0.106746 0.0826066  0
0.0226541 0.0479853  0
-0.149465 0.227315  0
-0.0420459 0.065296  0
-0.0634053 0.13765  0
-0.128105 0.154961  0
-0.109221 0.0886332  0
-0.171092 0.11393  0
-0.0309064 0.023799  0
-0.140157 0.101282  0
-0.100999 0.0688647  0
-0.0700637 0.0562161  0
0.00651947 0.220974  0
-0.000807169 0.0420406  0
0.0597464 0.232294  0
0.00285615 0.131507  0
0.0294696 0.137167  0
0.0331329 0.226634  0
0.00195695 0.219865  0
-0.136953 0.234281  0
0.0110367 0.0416929  0
-0.0674979 0.227073  0
-0.062958 0.137987  0
0.0064968 0.130779  0
0.00433818 0.220631  0
0.0666396 0.229482  0
0.011373 0.505167  0
0.0354889 0.225056  0
0.0390063 0.367324  0
0.00785557 0.362899  0
-0.17051 0.157092  0
-0.156858 0.240201  0
-0.331969 0.278604  0
-0.163684 0.198646  0
-0.244413 0.259402  0
-0.251239 0.217848  0
-0.169965 0.159525  0
-0.333839 0.271942  0
-0.173013 0.106495  0
-0.251902 0.215733  0
-0.253426 0.189218  0
-0.171489 0.13301  0
-0.172093 0.160186  0
-0.109416 0.0822692  0
-0.161659 0.232545  0
-0.140754 0.121227  0
-0.135537 0.157407  0
-0.166876 0.196365  0
-0.17305 0.157587  0
-0.173373 0.114334  0
-0.106546 0.0910751  0
-0.173212 0.135961  0
-0.139959 0.102704  0
-0.139798 0.124331  0
-0.440318 0.998473  0
-0.479078 0.765085  0
-0.21295 0.966631  0
-0.459698 0.881779  0
-0.346014 0.865858  0
-0.326634 0.982552  0
-0.428233 1.00345  0
-0.733909 1.04093  0
-0.479053 0.751352  0
-0.581071 1.02219  0
-0.606481 0.896141  0
-0.453643 0.877402  0
-0.251207 0.73878  0
-0.214093 0.964765  0
-0.477802 0.765389  0
-0.23265 0.851773  0
-0.345948 0.865077  0
-0.364505 0.752084  0
-0.253216 0.738823  0
-0.189345 0.521637  0
-0.214177 0.958843  0
-0.221281 0.63023  0
-0.201761 0.74024  0
-0.233697 0.848833  0
-0.253234 0.735065  0
-0.287261 0.541812  0
-0.18818 0.530796  0
-0.270248 0.638438  0
-0.237721 0.536304  0
-0.220707 0.63293  0
-0.638014 0.768091  0
-0.472688 0.757623  0
-0.749408 1.02671  0
-0.555351 0.762857  0
-0.611048 0.892167  0
-0.693711 0.897401  0
-0.635472 0.772669  0
-0.537676 0.569174  0
-0.484724 0.760279  0
-0.586574 0.670921  0
-0.5112 0.664726  0
-0.560098 0.766474  0
-0.38112 0.648063  0
-0.528231 0.572433  0
-0.281787 0.542809  0
-0.454676 0.610248  0
-0.405009 0.557621  0
-0.331454 0.595436  0
-0.378864 0.649257  0
-0.486933 0.760708  0
-0.53516 0.569504  0
-0.432898 0.704983  0
-0.511047 0.665106  0
-0.457012 0.60938  0
-0.37967 0.64947  0
-0.287606 0.540555  0
-0.252442 0.737357  0
-0.333638 0.595013  0
-0.270024 0.638956  0
-0.316056 0.693414  0
-0.381162 0.648607  0
-0.247871 0.740556  0
-0.480861 0.765293  0
-0.314516 0.694581  0
-0.364366 0.752924  0
-0.431012 0.70695  0
-0.21948 0.373202  0
-0.159102 0.231225  0
-0.190933 0.519456  0
-0.189291 0.302214  0
-0.175017 0.375341  0
-0.205206 0.446329  0
-0.220087 0.369258  0
-0.189076 0.530765  0
-0.286373 0.54186  0
-0.204582 0.450011  0
-0.237724 0.536312  0
-0.25323 0.455559  0
-0.218022 0.373095  0
-0.288382 0.537767  0
-0.319134 0.387425  0
-0.253202 0.455431  0
-0.303758 0.462596  0
-0.268578 0.38026  0
-0.0727768 0.728533  0
-0.208325 0.959805  0
-0.193144 0.519251  0
-0.140551 0.844169  0
-0.200734 0.739528  0
-0.13296 0.623892  0
-0.0757698 0.725111  0
-0.181364 0.526881  0
0.0174174 0.52304  0
-0.128567 0.625996  0
-0.0819735 0.52496  0
-0.0291762 0.624075  0
-0.0690178 0.357559  0
-0.186779 0.519817  0
-0.160783 0.230087  0
-0.127899 0.438688  0
-0.173781 0.374952  0
-0.1149 0.293823  0
-0.0717961 0.354743  0
0.0135306 0.522382  0
-0.176841 0.528325  0
-0.0291328 0.438563  0
-0.0816551 0.525353  0
-0.124318 0.441534  0
-0.0722822 0.355158  0
-0.15173 0.23841  0
0.010171 0.224334  0
-0.112006 0.296784  0
-0.0707794 0.231372  0
-0.0310556 0.289746  0
-0.0687202 0.358004  0
0.00139606 0.216154  0
0.00341893 0.513812  0
-0.0336621 0.287079  0
0.0024075 0.364983  0
-0.0326506 0.435908  0
-0.232232 0.310332  0
-0.336033 0.278555  0
-0.153766 0.242188  0
-0.284133 0.294443  0
-0.2449 0.260371  0
-0.192999 0.27626  0
-0.230424 0.310751  0
-0.319822 0.386705  0
-0.341381 0.277171  0
-0.275123 0.348728  0
-0.330601 0.331938  0
-0.285903 0.293961  0
-0.231867 0.311603  0
-0.157241 0.241148  0
-0.219796 0.372014  0
-0.194554 0.276375  0
-0.188518 0.306581  0
-0.225831 0.341808  0
-0.232044 0.310791  0
-0.219187 0.374315  0
-0.317361 0.389334  0
-0.225615 0.342553  0
-0.268274 0.381824  0
-0.274702 0.350063  0
-0.433624 0.408807  0
-0.341632 0.276367  0
-0.319598 0.387208  0
-0.387628 0.342587  0
-0.330615 0.331787  0
-0.376611 0.398007  0
-0.419684 0.475676  0
-0.280941 0.541524  0
-0.529276 0.573539  0
-0.350312 0.5086  0
-0.405108 0.557531  0
-0.47448 0.524607  0
-0.41779 0.476609  0
-0.319704 0.386661  0
-0.287358 0.539129  0
-0.368747 0.431635  0
-0.303531 0.462895  0
-0.352574 0.507869  0
-0.419393 0.477142  0
-0.534493 0.571526  0
-0.43598 0.407212  0
-0.476943 0.524334  0
-0.485237 0.489369  0
-0.427686 0.442177  0
-0.419969 0.47646  0
-0.434989 0.409597  0
-0.317263 0.389462  0
-0.427479 0.443029  0
-0.376126 0.39953  0
-0.368616 0.432961  0
SCALARS rotation float
LOOKUP_TABLE default
-0.00473333
-0.00520884
-0.00282793
-0.00497109
-0.00401839
-0.00378063
-0.00473333
-0.00282793
-0.00161595
-0.00378063
-0.00222194
-0.00317464
-0.0049739
-0.00282793
-0.00858459
-0.00390091
-0.00570626
-0.00677924
-0.0049739
-0.00161595
-0.00282793
-0.00329492
-0.00222194
-0.00390091
-0.0049739
-0.00858459
-0.00736173
-0.00677924
-0.00797316
-0.00616782
-0.0049739
-0.00736173
-0.00161595
-0.00616782
-0.00448884
-0.00329492
0.0032039
-0.00736173
-0.00762213
-0.00207892
-0.00749193
-0.00220912
0.0032039
-0.00161595
-0.00736173
0.000793976
-0.00448884
-0.00207892
-0.0111359
-0.00762213
-0.00736173
-0.00937902
-0.00749193
-0.00924883
-0.0111359
-0.00736173
-0.0185264
-0.00924883
-0.0129441
-0.0148312
-0.0111359
-0.0121093
-0.00762213
-0.0116226
-0.0098657
-0.00937902
-0.0144608
-0.00736173
-0.00858459
-0.0109113
-0.00797316
-0.0115227
-0.0144608
-0.0185264
-0.00736173
-0.0164936
-0.0129441
-0.0109113
-0.0144608
-0.00858459
-0.0212549
-0.0115227
-0.0149198
-0.0178579
-0.0153669
-0.0185264
-0.0213366
-0.0169466
-0.0199315
-0.0183517
-0.0153669
-0.0213366
-0.0121093
-0.0183517
-0.016723
-0.0137381
-0.0153669
-0.0111359
-0.0185264
-0.0132514
-0.0148312
-0.0169466
-0.0153669
-0.0121093
-0.0111359
-0.0137381
-0.0116226
-0.0132514
-0.0329799
-0.0349425
-0.0345452
-0.0339612
-0.0347439
-0.0337626
-0.0329799
-0.0558424
-0.0349425
-0.0444112
-0.0453925
-0.0339612
-0.0311672
-0.0345452
-0.0349425
-0.0328562
-0.0347439
-0.0330549
-0.0311672
-0.0267839
-0.0345452
-0.0289756
-0.0306646
-0.0328562
-0.0311672
-0.0283882
-0.0267839
-0.0297777
-0.0275861
-0.0289756
-0.0371999
-0.0349425
-0.0558424
-0.0360712
-0.0453925
-0.0465212
-0.0371999
-0.0328751
-0.0349425
-0.0350375
-0.0339088
-0.0360712
-0.0319152
-0.0328751
-0.0283882
-0.0323952
-0.0306317
-0.0301517
-0.0319152
-0.0349425
-0.0328751
-0.0334288
-0.0339088
-0.0323952
-0.0319152
-0.0283882
-0.0311672
-0.0301517
-0.0297777
-0.0315412
-0.0319152
-0.0311672
-0.0349425
-0.0315412
-0.0330549
-0.0334288
-0.0234041
-0.0185264
-0.0267839
-0.0209653
-0.0226552
-0.025094
-0.0234041
-0.0267839
-0.0283882
-0.025094
-0.0275861
-0.0258962
-0.0234041
-0.0283882
-0.0251541
-0.0258962
-0.0267712
-0.0242791
-0.0295995
-0.0345452
-0.0267839
-0.0320724
-0.0306646
-0.0281917
-0.0295995
-0.0267839
-0.0212549
-0.0281917
-0.0240194
-0.0254272
-0.0202553
-0.0267839
-0.0185264
-0.0235196
-0.0226552
-0.0193909
-0.0202553
-0.0212549
-0.0267839
-0.0207551
-0.0240194
-0.0235196
-0.0202553
-0.0185264
-0.0144608
-0.0193909
-0.0164936
-0.0173581
-0.0202553
-0.0144608
-0.0212549
-0.0173581
-0.0178579
-0.0207551
-0.0217376
-0.0213366
-0.0185264
-0.0215371
-0.0199315
-0.020132
-0.0217376
-0.0251541
-0.0213366
-0.0234459
-0.0232454
-0.0215371
-0.0217376
-0.0185264
-0.0234041
-0.020132
-0.0209653
-0.0225709
-0.0217376
-0.0234041
-0.0251541
-0.0225709
-0.0242791
-0.0234459
-0.0267259
-0.0213366
-0.0251541
-0.0240313
-0.0232454
-0.02594
-0.0284833
-0.0283882
-0.0328751
-0.0284358
-0.0306317
-0.0306792
-0.0284833
-0.0251541
-0.0283882
-0.0268187
-0.0267712
-0.0284358
-0.0284833
-0.0328751
-0.0267259
-0.0306792
-0.0298005
-0.0276046
-0.0284833
-0.0267259
-0.0251541
-0.0276046
-0.02594
-0.0268187
